Cell Type,Ep_eff,ObjectId,PedigreeElementId,Phi,disp__0,disp__1,disp__2,disp__Magnitude,grain_id,phi_1,phi_2,rho_i,rho_m,strain_xx,strain_yy,strain_zz,stress_xx,stress_yy,stress_zz,vonmises,Block Number,Cell ID
12,6.2365e-22,1,1,73.27,-3.27182e-08,9.30642e-08,-2.69636e-08,1.02267e-07,8.4375,-129.16,-171.71,1.01872e+07,968750,-6.40639e-08,1.92162e-07,-5.33873e-08,0.00182941,0.0322702,0.0025613,0.0311715,2,0
12,5.15609e-22,1,2,73.27,-9.54096e-08,1.0364e-07,-3.96852e-08,1.46353e-07,10.625,-129.16,-171.71,6.95812e+06,812500,-5.05147e-08,2.11923e-07,-8.11415e-08,0.00223367,0.033811,0.00127478,0.0336596,2,1
12,3.64351e-22,2,3,91.58,-1.33747e-07,1.04388e-07,-5.68931e-08,1.78947e-07,13.6875,16.06,146.57,2.43744e+06,593750,-3.2105e-08,2.12577e-07,-1.13533e-07,-0.000685197,0.0292253,0.00034507,0.0307677,3,0
12,2.99527e-22,2,4,91.58,-1.5962e-07,1.06583e-07,-6.28589e-08,2.01964e-07,15,16.06,146.57,500000,500000,-3.66663e-08,2.14533e-07,-1.24374e-07,-0.00391122,0.026184,8.73616e-05,0.028851,3,1
12,2.99527e-22,2,5,91.58,-2.0708e-07,1.09727e-07,-5.64148e-08,2.4105e-07,15,16.06,146.57,500000,500000,-5.90306e-08,2.18235e-07,-1.12874e-07,-0.00682662,0.0261171,7.57619e-05,0.0304326,3,2
12,2.99527e-22,2,6,91.58,-2.77681e-07,1.09511e-07,-4.93061e-08,3.0254e-07,15,16.06,146.57,500000,500000,-8.09925e-08,2.17106e-07,-9.84307e-08,-0.00992311,0.0257277,-5.30944e-05,0.0321904,3,3
12,2.99527e-22,2,7,91.58,-3.69065e-07,1.05048e-07,-3.96408e-08,3.85766e-07,15,16.06,146.57,500000,500000,-1.00663e-07,2.07712e-07,-7.85002e-08,-0.0126916,0.0246476,-2.27441e-05,0.0332563,3,4
12,3.69438e-22,2,8,91.58,-4.79007e-07,8.37977e-08,-2.20728e-08,4.86782e-07,15.5625,16.06,146.57,2.43744e+06,593750,-1.08068e-07,1.74441e-07,-4.42897e-08,-0.0146701,0.0243331,-8.51524e-05,0.0346914,3,5
12,5.0926e-22,1,9,130.07,-5.85202e-07,5.65503e-08,-5.00839e-09,5.87949e-07,16.6875,-12.93,132.49,6.31231e+06,781250,-9.98039e-08,1.32507e-07,-1.16012e-08,-0.0155527,0.024247,0.000753579,0.0351228,2,2
12,6.02475e-22,1,10,130.07,-6.78615e-07,4.43317e-08,2.36275e-09,6.80065e-07,17.4375,-12.93,132.49,8.89556e+06,906250,-9.16917e-08,1.04772e-07,3.96055e-09,-0.0160375,0.0224069,0.00141217,0.0335412,2,3
12,6.49083e-22,1,11,130.07,-7.68585e-07,4.62537e-08,4.05462e-09,7.69986e-07,17.8125,-12.93,132.49,1.01872e+07,968750,-8.91467e-08,9.62696e-08,8.50469e-09,-0.0164154,0.0229873,0.0010876,0.0343318,2,4
12,6.72387e-22,1,12,130.07,-8.56908e-07,5.27993e-08,2.80417e-09,8.58538e-07,18,-12.93,132.49,1.0833e+07,1e+06,-8.82328e-08,1.05864e-07,6.05839e-09,-0.0160459,0.0267111,0.00107744,0.037343,2,5
12,6.72387e-22,1,13,130.07,-9.45051e-07,5.37545e-08,1.59112e-09,9.4658e-07,18,-12.93,132.49,1.0833e+07,1e+06,-8.6297e-08,1.08779e-07,3.48512e-09,-0.0153666,0.0275698,0.000668554,0.0376781,2,6
12,6.41835e-22,1,14,130.07,-1.0295e-06,5.80651e-08,1.4101e-10,1.03114e-06,21.75,-12.93,132.49,1.0833e+07,1e+06,-8.58625e-08,1.16393e-07,3.10453e-10,-0.0146859,0.029708,0.000265494,0.0392854,2,7
12,5.80731e-22,1,15,129.57,-1.11678e-06,6.69261e-08,-1.48812e-09,1.11878e-06,29.25,77.66,-43.22,1.0833e+07,1e+06,-9.04044e-08,1.33859e-07,-3.03777e-09,-0.0141877,0.0344429,-0.000220539,0.0434749,2,8
12,5.50179e-22,1,16,129.57,-1.21031e-06,7.28746e-08,-2.55772e-09,1.21251e-06,33,77.66,-43.22,1.0833e+07,1e+06,-9.38807e-08,1.45199e-07,-5.02942e-09,-0.0139494,0.037485,-0.000590319,0.0462619,2,9
12,5.50179e-22,1,17,129.57,-1.30454e-06,7.56448e-08,-3.28758e-09,1.30673e-06,33,77.66,-43.22,1.0833e+07,1e+06,-9.31678e-08,1.5117e-07,-6.59333e-09,-0.0134095,0.0393212,-0.000428576,0.0476369,2,10
12,5.50179e-22,1,18,129.57,-1.39665e-06,7.43632e-08,-3.43632e-09,1.39863e-06,33,77.66,-43.22,1.0833e+07,1e+06,-8.94398e-08,1.48672e-07,-6.86839e-09,-0.0125473,0.038833,-0.000328927,0.0465447,2,11
12,5.50179e-22,1,19,129.57,-1.48342e-06,6.93478e-08,-3.17501e-09,1.48504e-06,33,77.66,-43.22,1.0833e+07,1e+06,-8.27579e-08,1.38435e-07,-6.39549e-09,-0.0114641,0.0362046,-0.000311869,0.0432419,2,12
12,5.50179e-22,1,20,129.57,-1.56216e-06,6.35312e-08,-3.14042e-09,1.56346e-06,33,77.66,-43.22,1.0833e+07,1e+06,-7.49121e-08,1.26449e-07,-6.26405e-09,-0.0103089,0.033093,-0.000342517,0.0394281,2,13
12,5.50179e-22,1,21,129.57,-1.63324e-06,6.06892e-08,-3.78709e-09,1.63437e-06,33,77.66,-43.22,1.0833e+07,1e+06,-6.88414e-08,1.20589e-07,-7.50363e-09,-0.00933241,0.0316592,-0.000395405,0.0373765,2,14
12,5.50179e-22,1,22,129.57,-1.69985e-06,6.2249e-08,-4.96044e-09,1.70099e-06,33,77.66,-43.22,1.0833e+07,1e+06,-6.6035e-08,1.24227e-07,-9.9166e-09,-0.00855308,0.0328633,-0.000380369,0.0380294,2,15
12,5.50179e-22,1,23,129.57,-1.76531e-06,6.59366e-08,-6.08602e-09,1.76655e-06,33,77.66,-43.22,1.0833e+07,1e+06,-6.52361e-08,1.32283e-07,-1.22139e-08,-0.00783025,0.0353067,-0.000296103,0.0399441,2,16
12,5.50179e-22,1,24,129.57,-1.83032e-06,6.91281e-08,-6.89365e-09,1.83164e-06,33,77.66,-43.22,1.0833e+07,1e+06,-6.40467e-08,1.38791e-07,-1.38216e-08,-0.00696927,0.0373505,-0.000182245,0.0414052,2,17
12,5.50179e-22,1,25,129.57,-1.8934e-06,7.26711e-08,-8.05167e-09,1.89482e-06,33,77.66,-43.22,1.0833e+07,1e+06,-6.16958e-08,1.45698e-07,-1.61984e-08,-0.00585908,0.0395553,-8.63348e-05,0.0429326,2,18
12,4.88711e-22,1,26,129.57,-1.95371e-06,8.61634e-08,-1.60735e-08,1.95567e-06,35.5,77.66,-43.22,8.24975e+06,875000,-6.34e-08,1.70063e-07,-3.21581e-08,-0.0049064,0.0405539,-6.17758e-05,0.0437431,2,19
12,3.65775e-22,2,27,91.8,-2.0202e-06,9.89621e-08,-3.09329e-08,2.02286e-06,40.5,144.53,-35.18,3.08325e+06,625000,-7.39422e-08,1.9578e-07,-6.16199e-08,-0.00648025,0.0335013,-0.000199492,0.037963,3,6
12,3.04307e-22,2,28,91.8,-2.10159e-06,1.02613e-07,-3.76094e-08,2.10443e-06,43,144.53,-35.18,500000,500000,-8.93014e-08,2.0503e-07,-7.51199e-08,-0.00972306,0.0268926,-0.000195138,0.0332852,3,7
12,3.04307e-22,2,29,91.8,-2.19881e-06,1.04347e-07,-3.50225e-08,2.20156e-06,43,144.53,-35.18,500000,500000,-1.04612e-07,2.07205e-07,-7.01977e-08,-0.0125874,0.0262979,-0.000169199,0.034669,3,8
12,3.04307e-22,2,30,91.8,-2.31082e-06,1.02563e-07,-3.1388e-08,2.31331e-06,43,144.53,-35.18,500000,500000,-1.18164e-07,2.02507e-07,-6.28294e-08,-0.0154678,0.0248696,-0.00040877,0.0355232,3,9
12,3.04307e-22,2,31,91.8,-2.43513e-06,1.01148e-07,-2.76747e-08,2.43739e-06,43,144.53,-35.18,500000,500000,-1.3082e-07,1.97307e-07,-5.49593e-08,-0.0181891,0.0236833,-0.000675362,0.0366469,3,10
12,3.20623e-22,2,32,91.8,-2.57246e-06,9.89201e-08,-2.38929e-08,2.57447e-06,44.375,144.53,-35.18,1.14581e+06,531250,-1.45422e-07,1.95441e-07,-4.71786e-08,-0.0210434,0.0231059,-0.000742751,0.0386364,3,11
12,4.022e-22,2,33,91.8,-2.72598e-06,1.01552e-07,-1.9927e-08,2.72794e-06,51.25,144.53,-35.18,4.37488e+06,687500,-1.60211e-07,2.06521e-07,-4.07628e-08,-0.0224839,0.0249319,0.000384717,0.042176,3,12
12,5.16408e-22,1,34,80.41,-2.89288e-06,1.15688e-07,-2.35602e-08,2.89529e-06,60.875,-123.18,-170.23,8.89556e+06,906250,-1.66948e-07,2.31583e-07,-4.77507e-08,-0.0206627,0.0281595,0.000776735,0.0436714,2,20
12,5.65354e-22,1,35,80.41,-3.05987e-06,1.26451e-07,-3.00989e-08,3.06263e-06,65,-123.18,-170.23,1.0833e+07,1e+06,-1.62775e-07,2.49906e-07,-5.96687e-08,-0.0173245,0.0305575,0.00038045,0.0425778,2,21
12,5.65354e-22,1,36,80.41,-3.21843e-06,1.28404e-07,-3.21103e-08,3.22115e-06,65,-123.18,-170.23,1.0833e+07,1e+06,-1.54502e-07,2.55911e-07,-6.41975e-08,-0.0145857,0.0323275,0.000703753,0.041955,2,22
12,5.65354e-22,1,37,80.41,-3.36888e-06,1.28808e-07,-3.36866e-08,3.37151e-06,65,-123.18,-170.23,1.0833e+07,1e+06,-1.46769e-07,2.57726e-07,-6.73633e-08,-0.0124746,0.0332909,0.000793434,0.0412497,2,23
12,5.65354e-22,1,38,80.41,-3.51197e-06,1.28246e-07,-3.46576e-08,3.51448e-06,65,-123.18,-170.23,1.0833e+07,1e+06,-1.39595e-07,2.57069e-07,-6.93183e-08,-0.0107583,0.0337876,0.000841411,0.0404754,2,24
12,5.65354e-22,1,39,80.41,-3.64807e-06,1.26903e-07,-3.52162e-08,3.65044e-06,65,-123.18,-170.23,1.0833e+07,1e+06,-1.32666e-07,2.54612e-07,-7.04349e-08,-0.00927477,0.0339475,0.000861279,0.0395897,2,25
12,5.65354e-22,1,40,80.41,-3.7773e-06,1.24935e-07,-3.54663e-08,3.77953e-06,65,-123.18,-170.23,1.0833e+07,1e+06,-1.25857e-07,2.5082e-07,-7.09339e-08,-0.00794558,0.0338606,0.000867037,0.0386015,2,26
12,5.65354e-22,1,41,80.41,-3.89978e-06,1.22518e-07,-3.54861e-08,3.90187e-06,65,-123.18,-170.23,1.0833e+07,1e+06,-1.19192e-07,2.4609e-07,-7.0973e-08,-0.00673869,0.0335953,0.000865181,0.0375441,2,27
12,5.65354e-22,1,42,80.41,-4.01568e-06,1.19807e-07,-3.53381e-08,4.01763e-06,65,-123.18,-170.23,1.0833e+07,1e+06,-1.12724e-07,2.40749e-07,-7.06768e-08,-0.00563666,0.0332058,0.000858664,0.0364523,2,28
12,5.65354e-22,1,43,80.41,-4.12523e-06,1.16927e-07,-3.5072e-08,4.12703e-06,65,-123.18,-170.23,1.0833e+07,1e+06,-1.06486e-07,2.3505e-07,-7.01445e-08,-0.00462482,0.0327341,0.000848992,0.0353534,2,29
12,5.65354e-22,1,44,80.41,-4.22866e-06,1.13964e-07,-3.47263e-08,4.23033e-06,65,-123.18,-170.23,1.0833e+07,1e+06,-1.00485e-07,2.29168e-07,-6.9453e-08,-0.00368824,0.0322113,0.000837094,0.0342656,2,30
12,5.65354e-22,1,45,80.41,-4.3262e-06,1.10974e-07,-3.43288e-08,4.32776e-06,65,-123.18,-170.23,1.0833e+07,1e+06,-9.46994e-08,2.23215e-07,-6.86581e-08,-0.00281166,0.031659,0.000823715,0.0331989,2,31
12,5.65354e-22,1,46,80.41,-4.41805e-06,1.0798e-07,-3.38976e-08,4.4195e-06,65,-123.18,-170.23,1.0833e+07,1e+06,-8.90838e-08,2.17241e-07,-6.77954e-08,-0.00197905,0.0310903,0.000809682,0.032155,2,32
12,5.65354e-22,1,47,80.41,-4.50437e-06,1.04967e-07,-3.34404e-08,4.50571e-06,65,-123.18,-170.23,1.0833e+07,1e+06,-8.35547e-08,2.1123e-07,-6.6881e-08,-0.00117113,0.0305105,0.00079608,0.0311274,2,33
12,5.65354e-22,1,48,80.41,-4.58516e-06,1.01881e-07,-3.29558e-08,4.58641e-06,65,-123.18,-170.23,1.0833e+07,1e+06,-7.79749e-08,2.05092e-07,-6.59127e-08,-0.000362196,0.0299173,0.000783596,0.0300999,2,34
12,5.65354e-22,1,49,80.41,-4.66032e-06,9.86523e-08,-3.24475e-08,4.66147e-06,65,-123.18,-170.23,1.0833e+07,1e+06,-7.21874e-08,1.98666e-07,-6.48946e-08,0.000468238,0.0292935,0.0007654,0.0290508,2,35
12,5.65354e-22,1,50,80.41,-4.72954e-06,9.52592e-08,-3.18037e-08,4.73061e-06,65,-123.18,-170.23,1.0833e+07,1e+06,-6.5948e-08,1.91738e-07,-6.3604e-08,0.0013959,0.0286409,0.000788477,0.0279251,2,36
12,5.97401e-22,1,51,80.41,-4.79221e-06,9.09554e-08,-3.2695e-08,4.79319e-06,65.25,-123.18,-170.23,1.0833e+07,1e+06,-5.24227e-08,1.83587e-07,-6.54138e-08,0.00243861,0.0292026,0.000951183,0.0279463,2,37
12,6.61494e-22,1,52,162.01,-4.83438e-06,9.07131e-08,-3.82621e-08,4.83539e-06,65.75,-127.97,-104.66,1.0833e+07,1e+06,-2.98123e-08,1.83315e-07,-7.68984e-08,0.0040856,0.0324305,0.00145634,0.0301726,2,38
12,7.08473e-22,1,53,162.01,-4.85184e-06,9.85194e-08,-5.293e-08,4.85313e-06,71.5,-127.97,-104.66,1.0833e+07,1e+06,-2.18314e-09,1.96571e-07,-1.05837e-07,0.0054528,0.038026,0.000415588,0.0359761,2,39
12,7.38338e-22,1,54,179.529,-4.83875e-06,9.72366e-08,-6.32318e-08,4.84014e-06,82.5,-34.91,-168.19,1.0833e+07,1e+06,2.42798e-08,1.93467e-07,-1.2598e-07,0.00563428,0.0402781,-0.00042372,0.0384515,2,40
12,7.5327e-22,1,55,179.529,-4.80328e-06,8.82269e-08,-6.15554e-08,4.80448e-06,88,-34.91,-168.19,1.0833e+07,1e+06,3.43407e-08,1.76668e-07,-1.23065e-07,0.00532414,0.0381989,7.03868e-05,0.035814,2,41
12,7.5327e-22,1,56,179.529,-4.77007e-06,8.48367e-08,-5.87459e-08,4.77119e-06,88,-34.91,-168.19,1.0833e+07,1e+06,3.15052e-08,1.69699e-07,-1.17581e-07,0.00477076,0.0366648,1.64212e-05,0.0345369,2,42
12,7.5327e-22,1,57,179.529,-4.74027e-06,8.33147e-08,-5.68972e-08,4.74134e-06,88,-34.91,-168.19,1.0833e+07,1e+06,2.83862e-08,1.6666e-07,-1.13825e-07,0.00415772,0.0360519,5.17581e-05,0.0341461,2,43
12,7.5327e-22,1,58,179.529,-4.7133e-06,8.30109e-08,-5.59635e-08,4.71436e-06,88,-34.91,-168.19,1.0833e+07,1e+06,2.57898e-08,1.66044e-07,-1.11938e-07,0.00360576,0.0359443,5.35823e-05,0.0342626,2,44
12,7.5327e-22,1,59,179.529,-4.68869e-06,8.34467e-08,-5.55885e-08,4.68976e-06,88,-34.91,-168.19,1.0833e+07,1e+06,2.35989e-08,1.66921e-07,-1.11184e-07,0.00312007,0.0361559,5.05128e-05,0.0346799,2,45
12,7.5327e-22,1,60,179.529,-4.6661e-06,8.43388e-08,-5.55647e-08,4.66719e-06,88,-34.91,-168.19,1.0833e+07,1e+06,2.17177e-08,1.68715e-07,-1.11134e-07,0.00269196,0.0365659,5.03489e-05,0.0352745,2,46
12,7.5327e-22,1,61,179.529,-4.64525e-06,8.54856e-08,-5.57687e-08,4.64637e-06,88,-34.91,-168.19,1.0833e+07,1e+06,2.01192e-08,1.71023e-07,-1.11541e-07,0.00232039,0.0370856,5.21262e-05,0.035957,2,47
12,7.5327e-22,1,62,179.529,-4.62586e-06,8.67377e-08,-5.61186e-08,4.62701e-06,88,-34.91,-168.19,1.0833e+07,1e+06,1.88162e-08,1.73546e-07,-1.12241e-07,0.00201175,0.0376488,5.5167e-05,0.0366572,2,48
12,7.5327e-22,1,63,179.529,-4.60762e-06,8.79803e-08,-5.65589e-08,4.60881e-06,88,-34.91,-168.19,1.0833e+07,1e+06,1.78488e-08,1.76053e-07,-1.13123e-07,0.00177786,0.0382048,5.94481e-05,0.0373174,2,49
12,7.5327e-22,1,64,179.529,-4.59016e-06,8.91285e-08,-5.7059e-08,4.59138e-06,88,-34.91,-168.19,1.0833e+07,1e+06,1.72835e-08,1.78377e-07,-1.14125e-07,0.00163587,0.0387157,6.53329e-05,0.0378903,2,50
12,7.5327e-22,1,65,179.529,-4.57305e-06,9.01312e-08,-5.76155e-08,4.5743e-06,88,-34.91,-168.19,1.0833e+07,1e+06,1.72196e-08,1.80418e-07,-1.15242e-07,0.00161,0.0391589,7.41575e-05,0.0383407,2,51
12,7.5327e-22,1,66,179.529,-4.55572e-06,9.09884e-08,-5.82603e-08,4.55701e-06,88,-34.91,-168.19,1.0833e+07,1e+06,1.78123e-08,1.82177e-07,-1.16541e-07,0.00173833,0.0395351,9.15129e-05,0.0386488,2,52
12,7.5327e-22,1,67,179.529,-4.53743e-06,9.17598e-08,-5.91085e-08,4.53874e-06,88,-34.91,-168.19,1.0833e+07,1e+06,1.93598e-08,1.83806e-07,-1.18276e-07,0.00208682,0.0398734,0.000119327,0.0388152,2,53
12,7.5327e-22,1,68,179.529,-4.517e-06,9.28098e-08,-6.06398e-08,4.51836e-06,88,-34.91,-168.19,1.0833e+07,1e+06,2.25903e-08,1.85889e-07,-1.21448e-07,0.00278164,0.0402552,0.000104176,0.038911,2,54
12,7.5327e-22,1,69,179.529,-4.49225e-06,9.40749e-08,-6.39109e-08,4.49369e-06,88,-34.91,-168.19,1.0833e+07,1e+06,2.64471e-08,1.89147e-07,-1.27519e-07,0.00336339,0.0406294,-0.000334187,0.0393475,2,55
12,6.82395e-22,1,70,179.529,-4.46411e-06,1.04313e-07,-6.41035e-08,4.46579e-06,90.0625,-34.91,-168.19,8.89556e+06,906250,1.95929e-08,2.0447e-07,-1.28255e-07,0.00380452,0.0422725,-2.68433e-05,0.040891,2,56
12,5.17021e-22,2,71,93.06,-4.45306e-06,1.19646e-07,-6.03549e-08,4.45508e-06,94.875,38.02,137.36,4.37488e+06,687500,-2.21455e-09,2.29466e-07,-1.20629e-07,0.00375958,0.0429922,0.000833187,0.0413163,3,13
12,3.98896e-22,2,72,93.06,-4.46854e-06,1.17312e-07,-5.54517e-08,4.47042e-06,98.3125,38.02,137.36,1.14581e+06,531250,-2.19081e-08,2.30927e-07,-1.10543e-07,0.00201865,0.0390575,0.000512915,0.0381686,3,14
12,3.75271e-22,2,73,93.06,-4.49688e-06,1.07303e-07,-4.99695e-08,4.49843e-06,99,38.02,137.36,500000,500000,-3.18803e-08,2.15792e-07,-1.00206e-07,-0.000145938,0.0349617,0.000173498,0.0351328,3,15
12,3.75271e-22,2,74,93.06,-4.5323e-06,1.01833e-07,-4.55662e-08,4.53367e-06,99,38.02,137.36,500000,500000,-3.78131e-08,2.03876e-07,-9.12316e-08,-0.0016517,0.0326903,0.000240902,0.0335683,3,16
12,3.75271e-22,2,75,93.06,-4.5725e-06,9.4592e-08,-4.12398e-08,4.57367e-06,99,38.02,137.36,500000,500000,-4.14438e-08,1.89268e-07,-8.25216e-08,-0.00284905,0.0299926,0.000153031,0.0315409,3,17
12,3.75271e-22,2,76,93.06,-4.61519e-06,8.72573e-08,-3.69572e-08,4.61616e-06,99,38.02,137.36,500000,500000,-4.34554e-08,1.74415e-07,-7.39386e-08,-0.0036721,0.0274014,0.000105388,0.0294386,3,18
12,3.75271e-22,2,77,93.06,-4.65941e-06,8.06011e-08,-3.30411e-08,4.66023e-06,99,38.02,137.36,500000,500000,-4.48883e-08,1.60962e-07,-6.60976e-08,-0.0043033,0.0251198,7.36965e-05,0.0275558,3,19
12,3.75271e-22,2,78,93.06,-4.70496e-06,7.50848e-08,-2.9625e-08,4.70566e-06,99,38.02,137.36,500000,500000,-4.64185e-08,1.49784e-07,-5.92681e-08,-0.00486262,0.0232519,4.33778e-05,0.0260637,3,20
12,3.75271e-22,2,79,93.06,-4.75225e-06,7.11132e-08,-2.67592e-08,4.75286e-06,99,38.02,137.36,500000,500000,-4.87363e-08,1.41579e-07,-5.3537e-08,-0.00546474,0.0218882,6.32137e-06,0.0251231,3,21
12,3.75271e-22,2,80,93.06,-4.80244e-06,6.93462e-08,-2.45672e-08,4.803e-06,99,38.02,137.36,500000,500000,-5.26389e-08,1.37662e-07,-4.90732e-08,-0.00620434,0.0212455,-1.39311e-05,0.0250019,3,22
12,3.75271e-22,2,81,93.06,-4.85753e-06,7.00771e-08,-2.3029e-08,4.85809e-06,99,38.02,137.36,500000,500000,-5.87653e-08,1.38881e-07,-4.60824e-08,-0.00718224,0.0214405,-3.25528e-05,0.0258949,3,23
12,3.75271e-22,2,82,93.06,-4.91997e-06,7.32198e-08,-2.26767e-08,4.92056e-06,99,38.02,137.36,500000,500000,-6.77814e-08,1.44412e-07,-4.50006e-08,-0.0086662,0.0221839,-0.000296403,0.027784,3,24
12,4.51804e-22,2,83,93.06,-4.99309e-06,7.38448e-08,-1.83551e-08,4.99367e-06,104,38.02,137.36,3.08325e+06,625000,-7.82364e-08,1.48497e-07,-3.68033e-08,-0.00999582,0.0242672,0.000367304,0.0307402,3,25
12,6.04869e-22,1,84,64.15,-5.07644e-06,7.8751e-08,-1.56456e-08,5.07708e-06,114,-139.18,-156.59,8.24975e+06,875000,-8.51652e-08,1.59051e-07,-3.16911e-08,-0.00983337,0.0290292,0.000936014,0.0351757,2,57
12,6.81402e-22,1,85,64.15,-5.16342e-06,8.72808e-08,-1.82881e-08,5.16419e-06,119,-139.18,-156.59,1.0833e+07,1e+06,-8.64474e-08,1.73871e-07,-3.64187e-08,-0.00863816,0.0332576,0.000663406,0.0384642,2,58
12,6.81402e-22,1,86,64.15,-5.24934e-06,9.10422e-08,-1.96602e-08,5.25016e-06,119,-139.18,-156.59,1.0833e+07,1e+06,-8.51816e-08,1.8219e-07,-3.93037e-08,-0.00745,0.0352609,0.000793071,0.0395838,2,59
12,6.81402e-22,1,87,64.15,-5.33379e-06,9.42094e-08,-2.08437e-08,5.33466e-06,119,-139.18,-156.59,1.0833e+07,1e+06,-8.39293e-08,1.88875e-07,-4.16896e-08,-0.00644816,0.0369217,0.000882126,0.0405457,2,60
12,6.81402e-22,1,88,64.15,-5.41719e-06,9.70083e-08,-2.18977e-08,5.41811e-06,119,-139.18,-156.59,1.0833e+07,1e+06,-8.30175e-08,1.94659e-07,-4.37943e-08,-0.00564679,0.0383524,0.000925974,0.0414492,2,61
12,6.81402e-22,1,89,64.15,-5.49982e-06,9.95678e-08,-2.28435e-08,5.50077e-06,119,-139.18,-156.59,1.0833e+07,1e+06,-8.23403e-08,1.99879e-07,-4.56864e-08,-0.00496872,0.0396304,0.000955317,0.0422977,2,62
12,6.81402e-22,1,90,64.15,-5.58187e-06,1.01983e-07,-2.37129e-08,5.58286e-06,119,-139.18,-156.59,1.0833e+07,1e+06,-8.18851e-08,2.04766e-07,-4.74249e-08,-0.00438551,0.0408095,0.000979213,0.0431175,2,63
12,6.81402e-22,1,91,64.15,-5.66359e-06,1.04339e-07,-2.45288e-08,5.6646e-06,119,-139.18,-156.59,1.0833e+07,1e+06,-8.16981e-08,2.09506e-07,-4.90561e-08,-0.00389184,0.0419283,0.00100055,0.0439388,2,64
12,6.81402e-22,1,92,64.15,-5.74527e-06,1.06713e-07,-2.53072e-08,5.74632e-06,119,-139.18,-156.59,1.0833e+07,1e+06,-8.18618e-08,2.14269e-07,-5.06123e-08,-0.00349484,0.0430187,0.00102153,0.0447939,2,65
12,6.81402e-22,1,93,64.15,-5.82731e-06,1.09174e-07,-2.60587e-08,5.82839e-06,119,-139.18,-156.59,1.0833e+07,1e+06,-8.24695e-08,2.192e-07,-5.21146e-08,-0.00320713,0.0441068,0.0010443,0.0457132,2,66
12,6.81402e-22,1,94,64.15,-5.91021e-06,1.11758e-07,-2.67846e-08,5.91133e-06,119,-139.18,-156.59,1.0833e+07,1e+06,-8.35891e-08,2.24386e-07,-5.35657e-08,-0.00303997,0.0452087,0.00107163,0.0467163,2,67
12,6.81402e-22,1,95,64.15,-5.99449e-06,1.14427e-07,-2.74678e-08,5.99565e-06,119,-139.18,-156.59,1.0833e+07,1e+06,-8.52064e-08,2.29757e-07,-5.49303e-08,-0.00299622,0.0463138,0.00110703,0.0477915,2,68
12,6.81402e-22,1,96,64.15,-6.08062e-06,1.16985e-07,-2.80438e-08,6.08181e-06,119,-139.18,-156.59,1.0833e+07,1e+06,-8.71318e-08,2.34906e-07,-5.60886e-08,-0.00306074,0.0473528,0.00115605,0.0488582,2,69
12,6.81402e-22,1,97,64.15,-6.16876e-06,1.18853e-07,-2.83525e-08,6.16997e-06,119,-139.18,-156.59,1.0833e+07,1e+06,-8.86707e-08,2.38709e-07,-5.67119e-08,-0.0031393,0.0481537,0.00124715,0.049677,2,70
12,6.81402e-22,1,98,64.15,-6.25796e-06,1.18406e-07,-2.80998e-08,6.25915e-06,119,-139.18,-156.59,1.0833e+07,1e+06,-8.82363e-08,2.38201e-07,-5.61804e-08,-0.00309346,0.0482329,0.00134898,0.0497051,2,71
12,6.81402e-22,1,99,64.15,-6.34523e-06,1.1333e-07,-2.47674e-08,6.34629e-06,119,-139.18,-156.59,1.0833e+07,1e+06,-8.21786e-08,2.28197e-07,-4.97421e-08,-0.00208396,0.0471533,0.0026545,0.0475487,2,72
12,7.09316e-22,1,100,64.15,-6.42232e-06,1.00253e-07,-2.70188e-08,6.42316e-06,120.75,-139.18,-156.59,1.0833e+07,1e+06,-6.79592e-08,2.01512e-07,-5.43464e-08,-0.00216179,0.042613,-0.00118902,0.0457454,2,73
12,7.65145e-22,1,101,54.29,-6.48115e-06,7.67078e-08,-1.93334e-08,6.48163e-06,124.25,56.89,133.9,1.0833e+07,1e+06,-5.37582e-08,1.50464e-07,-3.81876e-08,-0.00239119,0.0318717,-0.000473178,0.0345872,2,74
12,5.80434e-22,1,102,73.27,-4.14425e-08,2.91261e-07,-3.47012e-08,2.96234e-07,9.3125,-129.16,-171.71,8.89556e+06,906250,-7.7403e-08,2.03939e-07,-7.03337e-08,-0.00254557,0.0297859,-0.000379567,0.0321754,2,75
12,4.29176e-22,2,103,91.58,-1.13363e-07,3.20206e-07,-5.17421e-08,3.43599e-07,12.375,16.06,146.57,4.37488e+06,687500,-6.64246e-08,2.18501e-07,-1.01005e-07,-0.00490836,0.0296064,-0.0020117,0.0346545,3,26
12,3.21135e-22,2,104,91.58,-1.74292e-07,3.20767e-07,-5.91003e-08,3.69813e-07,14.5625,16.06,146.57,1.14581e+06,531250,-6.06054e-08,2.19949e-07,-1.18471e-07,-0.00799643,0.0270776,-0.00185719,0.0335492,3,27
12,2.99527e-22,2,105,91.58,-2.34574e-07,3.22484e-07,-5.72408e-08,4.02862e-07,15,16.06,146.57,500000,500000,-6.16742e-08,2.16042e-07,-1.15974e-07,-0.0087501,0.0258758,-0.00107723,0.032118,3,28
12,2.99527e-22,2,106,91.58,-2.9764e-07,3.26742e-07,-5.37205e-08,4.45237e-07,15,16.06,146.57,500000,500000,-6.69842e-08,2.14747e-07,-1.07254e-07,-0.00884817,0.0260386,-0.000257723,0.032018,3,29
12,2.99527e-22,2,107,91.58,-3.68543e-07,3.24701e-07,-4.91826e-08,4.93633e-07,15,16.06,146.57,500000,500000,-7.44904e-08,2.12734e-07,-9.847e-08,-0.00946054,0.0259386,0.000147327,0.032203,3,30
12,2.99527e-22,2,108,91.58,-4.46621e-07,3.10375e-07,-4.354e-08,5.45618e-07,15,16.06,146.57,500000,500000,-8.05979e-08,2.04459e-07,-8.76843e-08,-0.00996356,0.0247672,0.000318377,0.0312647,3,31
12,3.22831e-22,2,109,91.58,-5.29739e-07,2.65083e-07,-3.62469e-08,5.9347e-07,15.1875,16.06,146.57,1.14581e+06,531250,-8.52185e-08,1.90662e-07,-7.23897e-08,-0.010521,0.0242297,9.9655e-05,0.0311753,3,32
12,3.69438e-22,2,110,91.58,-6.17058e-07,2.08463e-07,-2.83049e-08,6.51935e-07,15.5625,16.06,146.57,2.43744e+06,593750,-9.06856e-08,1.72735e-07,-5.49412e-08,-0.012127,0.0236754,-0.00045426,0.0320341,3,33
12,4.39349e-22,2,111,91.58,-7.1111e-07,1.65213e-07,-1.7381e-08,7.30256e-07,16.125,16.06,146.57,4.37488e+06,687500,-9.34124e-08,1.46573e-07,-3.47237e-08,-0.0140961,0.022563,-0.00099095,0.032625,3,34
12,5.55868e-22,1,112,130.07,-8.03883e-07,1.46285e-07,-6.01664e-09,8.17107e-07,17.0625,-12.93,132.49,7.60394e+06,843750,-8.92734e-08,1.17628e-07,-1.33618e-08,-0.0153243,0.0230784,-0.00109084,0.033989,2,76
12,6.49083e-22,1,113,130.07,-8.89657e-07,1.58928e-07,-7.58224e-10,9.03741e-07,17.8125,-12.93,132.49,1.01872e+07,968750,-8.79262e-08,1.10247e-07,-1.32006e-09,-0.0158655,0.0265084,-0.000395596,0.0372366,2,77
12,6.53009e-22,1,114,130.07,-9.79735e-07,1.63803e-07,9.37096e-10,9.93335e-07,18.3125,-12.93,132.49,1.01872e+07,968750,-9.44268e-08,1.17814e-07,2.15346e-09,-0.0159142,0.0282928,6.31208e-05,0.038954,2,78
12,6.03079e-22,1,115,130.07,-1.07851e-06,1.7472e-07,-2.76454e-11,1.09257e-06,22.375,-12.93,132.49,9.54138e+06,937500,-9.69913e-08,1.29494e-07,-3.9671e-10,-0.0148014,0.0302947,-1.59458e-05,0.0403341,2,79
12,5.61353e-22,1,116,129.57,-1.17372e-06,2.00792e-07,-1.39887e-09,1.19077e-06,29.5625,77.66,-43.22,1.01872e+07,968750,-9.15806e-08,1.37608e-07,-2.63478e-09,-0.0130607,0.0342997,5.20518e-05,0.0426551,2,80
12,5.50179e-22,1,117,129.57,-1.26167e-06,2.17524e-07,-1.71831e-09,1.28029e-06,33,77.66,-43.22,1.0833e+07,1e+06,-8.84461e-08,1.43198e-07,-3.40182e-09,-0.0120965,0.0374578,9.29854e-05,0.0447738,2,81
12,5.50179e-22,1,118,129.57,-1.35061e-06,2.26695e-07,-2.38616e-09,1.3695e-06,33,77.66,-43.22,1.0833e+07,1e+06,-8.84316e-08,1.50919e-07,-4.9723e-09,-0.0115182,0.0397811,0.000247097,0.0465926,2,82
12,5.50179e-22,1,119,129.57,-1.43853e-06,2.22981e-07,-2.32764e-09,1.45572e-06,33,77.66,-43.22,1.0833e+07,1e+06,-8.54897e-08,1.47756e-07,-4.46301e-09,-0.0108192,0.0390745,0.000397536,0.0453809,2,83
12,5.50179e-22,1,120,129.57,-1.52159e-06,2.07522e-07,-1.89306e-09,1.53568e-06,33,77.66,-43.22,1.0833e+07,1e+06,-7.97861e-08,1.38012e-07,-3.47959e-09,-0.00992472,0.0365634,0.000498887,0.0423123,2,84
12,5.50179e-22,1,121,129.57,-1.59811e-06,1.89367e-07,-1.32139e-09,1.60929e-06,33,77.66,-43.22,1.0833e+07,1e+06,-7.33245e-08,1.26212e-07,-2.78795e-09,-0.00914476,0.0334429,0.000535866,0.0387347,2,85
12,5.50179e-22,1,122,129.57,-1.66824e-06,1.80488e-07,-1.56538e-09,1.67797e-06,33,77.66,-43.22,1.0833e+07,1e+06,-6.86378e-08,1.20315e-07,-3.63174e-09,-0.00859834,0.0319124,0.000502089,0.0368811,2,86
12,5.50179e-22,1,123,129.57,-1.73538e-06,1.86205e-07,-2.90044e-09,1.74535e-06,33,77.66,-43.22,1.0833e+07,1e+06,-6.76478e-08,1.24855e-07,-5.97938e-09,-0.00828237,0.033245,0.000430925,0.0379801,2,87
12,5.50179e-22,1,124,129.57,-1.80353e-06,1.98629e-07,-4.22197e-09,1.81444e-06,33,77.66,-43.22,1.0833e+07,1e+06,-6.89547e-08,1.33699e-07,-8.19345e-09,-0.00806425,0.0357535,0.000342872,0.0403151,2,88
12,5.50179e-22,1,125,129.57,-1.87329e-06,2.08453e-07,-4.89064e-09,1.88486e-06,33,77.66,-43.22,1.0833e+07,1e+06,-7.00001e-08,1.39983e-07,-9.42239e-09,-0.00785327,0.0375563,0.000316807,0.0419669,2,89
12,5.50179e-22,1,126,129.57,-1.94353e-06,2.18724e-07,-5.63529e-09,1.95581e-06,33,77.66,-43.22,1.0833e+07,1e+06,-7.03149e-08,1.45607e-07,-1.11949e-08,-0.00789279,0.0391739,0.000491679,0.0435265,2,90
12,4.88711e-22,1,127,129.57,-2.01392e-06,2.53963e-07,-1.24833e-08,2.02991e-06,35.5,77.66,-43.22,8.24975e+06,875000,-7.71438e-08,1.6316e-07,-2.51799e-08,-0.00892317,0.0381882,7.4041e-05,0.0437,2,91
12,3.65775e-22,2,128,91.8,-2.09782e-06,2.92598e-07,-2.60799e-08,2.11829e-06,40.5,144.53,-35.18,3.08325e+06,625000,-9.17097e-08,1.90007e-07,-5.23813e-08,-0.0108023,0.0318059,-0.0004622,0.0392629,3,35
12,3.04307e-22,2,129,91.8,-2.19734e-06,3.07447e-07,-3.34609e-08,2.219e-06,43,144.53,-35.18,500000,500000,-1.0183e-07,2.04218e-07,-6.67879e-08,-0.0121487,0.0273071,-0.000277494,0.0357017,3,36
12,3.04307e-22,2,130,91.8,-2.30148e-06,3.10064e-07,-3.23699e-08,2.3225e-06,43,144.53,-35.18,500000,500000,-1.06533e-07,2.04102e-07,-6.47558e-08,-0.0130015,0.0268153,-9.75346e-05,0.035694,3,37
12,3.04307e-22,2,131,91.8,-2.41041e-06,3.02452e-07,-2.90092e-08,2.42948e-06,43,144.53,-35.18,500000,500000,-1.11056e-07,1.94757e-07,-5.77903e-08,-0.014217,0.0251272,-7.96731e-05,0.0349572,3,38
12,3.20623e-22,2,132,91.8,-2.52359e-06,2.93466e-07,-2.51427e-08,2.54073e-06,44.375,144.53,-35.18,1.14581e+06,531250,-1.15882e-07,1.86607e-07,-5.02533e-08,-0.0152243,0.0239385,2.05605e-05,0.0346835,3,39
12,3.85884e-22,2,133,91.8,-2.64217e-06,2.91963e-07,-2.43292e-08,2.65836e-06,49.875,144.53,-35.18,3.72906e+06,656250,-1.20909e-07,1.95928e-07,-4.98192e-08,-0.014604,0.0255484,0.000546791,0.035849,3,40
12,4.83777e-22,1,134,80.41,-2.76541e-06,3.11489e-07,-2.81903e-08,2.78304e-06,58.125,-123.18,-170.23,7.60394e+06,843750,-1.25909e-07,2.16117e-07,-5.59409e-08,-0.01273,0.02833,0.000794661,0.0370236,2,92
12,5.49039e-22,1,135,80.41,-2.89399e-06,3.47479e-07,-3.23791e-08,2.91495e-06,63.625,-123.18,-170.23,1.01872e+07,968750,-1.33024e-07,2.31776e-07,-6.39152e-08,-0.0122321,0.0294781,-0.000154168,0.0375783,2,93
12,5.65354e-22,1,136,80.41,-3.03146e-06,3.73362e-07,-3.44306e-08,3.05456e-06,65,-123.18,-170.23,1.0833e+07,1e+06,-1.40585e-07,2.43127e-07,-6.92191e-08,-0.0128852,0.0302479,-0.000844518,0.0387653,2,94
12,5.65354e-22,1,137,80.41,-3.17516e-06,3.83418e-07,-3.61873e-08,3.19843e-06,65,-123.18,-170.23,1.0833e+07,1e+06,-1.43504e-07,2.52046e-07,-7.23626e-08,-0.012786,0.0315328,-0.000813133,0.0399832,2,95
12,5.65354e-22,1,138,80.41,-3.31847e-06,3.86645e-07,-3.76936e-08,3.34113e-06,65,-123.18,-170.23,1.0833e+07,1e+06,-1.41281e-07,2.5604e-07,-7.53686e-08,-0.0118979,0.0323297,-0.000906119,0.0401118,2,96
12,5.65354e-22,1,139,80.41,-3.45772e-06,3.85891e-07,-3.8674e-08,3.4794e-06,65,-123.18,-170.23,1.0833e+07,1e+06,-1.36564e-07,2.56595e-07,-7.73304e-08,-0.0106936,0.0327878,-0.000927383,0.0396992,2,97
12,5.65354e-22,1,140,80.41,-3.5916e-06,3.82322e-07,-3.92172e-08,3.6121e-06,65,-123.18,-170.23,1.0833e+07,1e+06,-1.30944e-07,2.54842e-07,-7.84242e-08,-0.00947175,0.0329405,-0.000927259,0.0390032,2,98
12,5.65354e-22,1,141,80.41,-3.71961e-06,3.76705e-07,-3.94324e-08,3.73884e-06,65,-123.18,-170.23,1.0833e+07,1e+06,-1.24997e-07,2.51538e-07,-7.88588e-08,-0.00830696,0.0328599,-0.000917032,0.0381399,2,99
12,5.65354e-22,1,142,80.41,-3.84159e-06,3.69662e-07,-3.94063e-08,3.85954e-06,65,-123.18,-170.23,1.0833e+07,1e+06,-1.18976e-07,2.47197e-07,-7.8809e-08,-0.00721572,0.0326104,-0.000901262,0.0371783,2,100
12,5.65354e-22,1,143,80.41,-3.95756e-06,3.61691e-07,-3.92056e-08,3.97425e-06,65,-123.18,-170.23,1.0833e+07,1e+06,-1.13006e-07,2.42181e-07,-7.84092e-08,-0.00619694,0.0322438,-0.000882221,0.0361648,2,101
12,5.65354e-22,1,144,80.41,-4.0676e-06,3.53172e-07,-3.88819e-08,4.08309e-06,65,-123.18,-170.23,1.0833e+07,1e+06,-1.07149e-07,2.36748e-07,-7.77627e-08,-0.00524324,0.0317994,-0.000861397,0.0351312,2,102
12,5.65354e-22,1,145,80.41,-4.17186e-06,3.44371e-07,-3.8474e-08,4.18622e-06,65,-123.18,-170.23,1.0833e+07,1e+06,-1.01429e-07,2.31074e-07,-7.69475e-08,-0.00434451,0.0313063,-0.000839814,0.034098,2,103
12,5.65354e-22,1,146,80.41,-4.27046e-06,3.35455e-07,-3.80104e-08,4.28378e-06,65,-123.18,-170.23,1.0833e+07,1e+06,-9.58401e-08,2.25274e-07,-7.60204e-08,-0.00348959,0.0307846,-0.000818146,0.0330771,2,104
12,5.65354e-22,1,147,80.41,-4.36354e-06,3.26501e-07,-3.75099e-08,4.3759e-06,65,-123.18,-170.23,1.0833e+07,1e+06,-9.03599e-08,2.19409e-07,-7.50189e-08,-0.00266753,0.030247,-0.000796757,0.0320742,2,105
12,5.65354e-22,1,148,80.41,-4.45118e-06,3.17493e-07,-3.69815e-08,4.46264e-06,65,-123.18,-170.23,1.0833e+07,1e+06,-8.49545e-08,2.13499e-07,-7.39608e-08,-0.00186844,0.0297006,-0.000775383,0.0310907,2,106
12,5.65354e-22,1,149,80.41,-4.53345e-06,3.08303e-07,-3.64237e-08,4.54406e-06,65,-123.18,-170.23,1.0833e+07,1e+06,-7.95584e-08,2.07516e-07,-7.28439e-08,-0.00107826,0.0291499,-0.000751917,0.0301243,2,107
12,5.65354e-22,1,150,80.41,-4.6103e-06,2.9868e-07,-3.58331e-08,4.6201e-06,65,-123.18,-170.23,1.0833e+07,1e+06,-7.39302e-08,2.01339e-07,-7.16699e-08,-0.00024776,0.0286013,-0.000723933,0.0291609,2,108
12,5.65354e-22,1,151,80.41,-4.68131e-06,2.88216e-07,-3.51106e-08,4.6903e-06,65,-123.18,-170.23,1.0833e+07,1e+06,-6.75561e-08,1.94629e-07,-7.02393e-08,0.000762201,0.0280709,-0.000660916,0.0281546,2,109
12,5.97401e-22,1,152,80.41,-4.74541e-06,2.76219e-07,-3.59506e-08,4.75358e-06,65.25,-123.18,-170.23,1.0833e+07,1e+06,-5.42302e-08,1.87638e-07,-7.19991e-08,0.00186964,0.028932,-0.000361715,0.0284434,2,110
12,6.61494e-22,1,153,162.01,-4.78977e-06,2.75917e-07,-4.12762e-08,4.79789e-06,65.75,-127.97,-104.66,1.0833e+07,1e+06,-3.47357e-08,1.86858e-07,-8.2278e-08,0.00270242,0.0318184,0.0001009,0.0306946,2,111
12,7.08473e-22,1,154,162.01,-4.81488e-06,2.94623e-07,-5.2709e-08,4.82417e-06,71.5,-127.97,-104.66,1.0833e+07,1e+06,-1.26176e-08,1.93956e-07,-1.05197e-07,0.00266175,0.0360642,-0.00098279,0.0357222,2,112
12,7.38338e-22,1,155,179.529,-4.815e-06,2.89698e-07,-5.99592e-08,4.82408e-06,82.5,-34.91,-168.19,1.0833e+07,1e+06,1.18513e-08,1.89911e-07,-1.2024e-07,0.00263671,0.0389174,-0.00114379,0.0386132,2,113
12,7.5327e-22,1,156,179.529,-4.79118e-06,2.65109e-07,-5.91003e-08,4.79887e-06,88,-34.91,-168.19,1.0833e+07,1e+06,2.49947e-08,1.76598e-07,-1.18336e-07,0.00319723,0.0381776,-0.000104816,0.0367606,2,114
12,7.5327e-22,1,157,179.529,-4.76501e-06,2.54562e-07,-5.74746e-08,4.77215e-06,88,-34.91,-168.19,1.0833e+07,1e+06,2.5849e-08,1.69567e-07,-1.14894e-07,0.00343348,0.0366227,-0.000141537,0.0351384,2,115
12,7.5327e-22,1,158,179.529,-4.73948e-06,2.50005e-07,-5.60959e-08,4.7464e-06,88,-34.91,-168.19,1.0833e+07,1e+06,2.47503e-08,1.66613e-07,-1.12183e-07,0.00327523,0.0360382,-6.41235e-05,0.0345797,2,116
12,7.5327e-22,1,159,179.529,-4.71551e-06,2.49076e-07,-5.53913e-08,4.72241e-06,88,-34.91,-168.19,1.0833e+07,1e+06,2.31239e-08,1.66027e-07,-1.10782e-07,0.00294398,0.0359426,-3.96033e-05,0.0346105,2,117
12,7.5327e-22,1,160,179.529,-4.69323e-06,2.50395e-07,-5.51535e-08,4.70023e-06,88,-34.91,-168.19,1.0833e+07,1e+06,2.14501e-08,1.66946e-07,-1.10308e-07,0.00257577,0.0361644,-3.20316e-05,0.0349859,2,118
12,7.5327e-22,1,161,179.529,-4.67261e-06,2.53092e-07,-5.5213e-08,4.67979e-06,88,-34.91,-168.19,1.0833e+07,1e+06,1.98426e-08,1.68788e-07,-1.10427e-07,0.00220991,0.0365834,-2.79624e-05,0.035562,2,119
12,7.5327e-22,1,162,179.529,-4.65355e-06,2.56561e-07,-5.54647e-08,4.66094e-06,88,-34.91,-168.19,1.0833e+07,1e+06,1.83644e-08,1.71152e-07,-1.10931e-07,0.0018666,0.0371127,-2.47722e-05,0.0362416,2,120
12,7.5327e-22,1,163,179.529,-4.63588e-06,2.60354e-07,-5.5834e-08,4.64352e-06,88,-34.91,-168.19,1.0833e+07,1e+06,1.70613e-08,1.73739e-07,-1.1167e-07,0.00155984,0.0376869,-2.20167e-05,0.0369524,2,121
12,7.5327e-22,1,164,179.529,-4.61943e-06,2.64126e-07,-5.62647e-08,4.62731e-06,88,-34.91,-168.19,1.0833e+07,1e+06,1.59699e-08,1.76321e-07,-1.12531e-07,0.00130068,0.0382558,-1.96054e-05,0.0376381,2,122
12,7.5327e-22,1,165,179.529,-4.60394e-06,2.67626e-07,-5.67174e-08,4.61206e-06,88,-34.91,-168.19,1.0833e+07,1e+06,1.51195e-08,1.78731e-07,-1.13436e-07,0.00109751,0.0387819,-1.79924e-05,0.038257,2,123
12,7.5327e-22,1,166,179.529,-4.58919e-06,2.70705e-07,-5.71701e-08,4.59752e-06,88,-34.91,-168.19,1.0833e+07,1e+06,1.45228e-08,1.80873e-07,-1.1434e-07,0.00095406,0.0392432,-1.80775e-05,0.0387857,2,124
12,7.5327e-22,1,167,179.529,-4.5749e-06,2.73366e-07,-5.762e-08,4.58342e-06,88,-34.91,-168.19,1.0833e+07,1e+06,1.41506e-08,1.82747e-07,-1.15235e-07,0.000862986,0.0396388,-2.20781e-05,0.0392284,2,125
12,7.5327e-22,1,168,179.529,-4.56088e-06,2.75853e-07,-5.81067e-08,4.56959e-06,88,-34.91,-168.19,1.0833e+07,1e+06,1.39029e-08,1.84528e-07,-1.16187e-07,0.000797717,0.0400051,-3.45029e-05,0.0396375,2,126
12,7.5327e-22,1,169,179.529,-4.54709e-06,2.78969e-07,-5.88013e-08,4.55602e-06,88,-34.91,-168.19,1.0833e+07,1e+06,1.32974e-08,1.86554e-07,-1.17477e-07,0.000599826,0.0403725,-0.000139563,0.0401618,2,127
12,7.5327e-22,1,170,179.529,-4.53429e-06,2.84219e-07,-5.98839e-08,4.54358e-06,88,-34.91,-168.19,1.0833e+07,1e+06,1.12403e-08,1.90447e-07,-1.20018e-07,-8.96404e-05,0.0410481,-0.000475475,0.0413498,2,128
12,7.29645e-22,1,171,179.529,-4.52461e-06,3.04628e-07,-6.03118e-08,4.53526e-06,88.6875,-34.91,-168.19,1.01872e+07,968750,6.06012e-09,1.95074e-07,-1.20579e-07,-0.00087048,0.0412617,-0.000909202,0.0422398,2,129
12,6.1152e-22,1,172,179.529,-4.52217e-06,3.39286e-07,-5.6412e-08,4.53523e-06,92.125,-34.91,-168.19,6.95812e+06,812500,-8.12119e-09,2.06993e-07,-1.12891e-07,-0.000454916,0.0407984,-0.000231842,0.0414534,2,130
12,4.46146e-22,2,173,93.06,-4.54085e-06,3.44542e-07,-5.20067e-08,4.5542e-06,96.9375,38.02,137.36,2.43744e+06,593750,-2.74035e-08,2.21194e-07,-1.0413e-07,-6.41723e-05,0.0387407,0.000313953,0.0389678,3,41
12,3.75271e-22,2,174,93.06,-4.57698e-06,3.24282e-07,-4.99069e-08,4.58872e-06,99,38.02,137.36,500000,500000,-3.66936e-08,2.18486e-07,-9.95252e-08,-0.000855191,0.0354411,-0.000198135,0.0361738,3,42
12,3.75271e-22,2,175,93.06,-4.61424e-06,3.05919e-07,-4.6752e-08,4.62461e-06,99,38.02,137.36,500000,500000,-3.73308e-08,2.04583e-07,-9.35533e-08,-0.00162795,0.0327476,-0.000313615,0.0338709,3,43
12,3.75271e-22,2,176,93.06,-4.65164e-06,2.83944e-07,-4.28808e-08,4.66049e-06,99,38.02,137.36,500000,500000,-3.76318e-08,1.89466e-07,-8.57566e-08,-0.0022044,0.0300667,-0.000241796,0.0314227,3,44
12,3.75271e-22,2,177,93.06,-4.6895e-06,2.61572e-07,-3.87176e-08,4.69695e-06,99,38.02,137.36,500000,500000,-3.81503e-08,1.73916e-07,-7.74314e-08,-0.0027752,0.0273897,-0.000230589,0.0290387,3,45
12,3.75271e-22,2,178,93.06,-4.72794e-06,2.41324e-07,-3.47275e-08,4.73422e-06,99,38.02,137.36,500000,500000,-3.89352e-08,1.59957e-07,-6.94442e-08,-0.00328314,0.025061,-0.000218303,0.0269954,3,46
12,3.75271e-22,2,179,93.06,-4.76738e-06,2.24483e-07,-3.11152e-08,4.77276e-06,99,38.02,137.36,500000,500000,-4.02294e-08,1.48286e-07,-6.22221e-08,-0.00377998,0.0231578,-0.000218984,0.0253986,3,47
12,3.75271e-22,2,180,93.06,-4.8084e-06,2.12045e-07,-2.79091e-08,4.81315e-06,99,38.02,137.36,500000,500000,-4.23402e-08,1.39275e-07,-5.5828e-08,-0.00431288,0.0217335,-0.000238049,0.0243326,3,48
12,3.75271e-22,2,181,93.06,-4.85206e-06,2.05979e-07,-2.52278e-08,4.85649e-06,99,38.02,137.36,500000,500000,-4.57483e-08,1.34001e-07,-5.04492e-08,-0.00492183,0.0209768,-0.000252944,0.0240063,3,49
12,3.75271e-22,2,182,93.06,-4.89989e-06,2.07684e-07,-2.36902e-08,4.90435e-06,99,38.02,137.36,500000,500000,-5.04543e-08,1.34561e-07,-4.75456e-08,-0.00558787,0.0211934,-0.000323107,0.0247342,3,50
12,3.94405e-22,2,183,93.06,-4.95296e-06,2.15604e-07,-2.31437e-08,4.95771e-06,100.25,38.02,137.36,1.14581e+06,531250,-5.56523e-08,1.38588e-07,-4.64477e-08,-0.00621,0.0221342,-0.000501067,0.026171,3,51
12,4.9007e-22,2,184,93.06,-5.0112e-06,2.23149e-07,-2.14495e-08,5.01621e-06,106.5,38.02,137.36,4.37488e+06,687500,-6.21961e-08,1.48812e-07,-4.26295e-08,-0.0059961,0.0257679,-2.51674e-05,0.0294946,3,52
12,6.24002e-22,1,185,64.15,-5.07736e-06,2.39352e-07,-2.06221e-08,5.08304e-06,115.25,-139.18,-156.59,8.89556e+06,906250,-7.01368e-08,1.61893e-07,-4.11196e-08,-0.00574817,0.0302487,-0.000211475,0.033751,2,131
12,6.81402e-22,1,186,64.15,-5.15147e-06,2.60461e-07,-2.19477e-08,5.1581e-06,119,-139.18,-156.59,1.0833e+07,1e+06,-7.60713e-08,1.7215e-07,-4.40191e-08,-0.00602496,0.0327318,-0.00090097,0.0365228,2,132
12,6.81402e-22,1,187,64.15,-5.2295e-06,2.73337e-07,-2.32634e-08,5.23669e-06,119,-139.18,-156.59,1.0833e+07,1e+06,-7.89347e-08,1.81644e-07,-4.65259e-08,-0.00593546,0.0346417,-0.00085635,0.03835,2,133
12,6.81402e-22,1,188,64.15,-5.30934e-06,2.8354e-07,-2.45243e-08,5.31696e-06,119,-139.18,-156.59,1.0833e+07,1e+06,-8.00562e-08,1.89086e-07,-4.90419e-08,-0.00556612,0.0362059,-0.000904037,0.0396939,2,134
12,6.81402e-22,1,189,64.15,-5.38961e-06,2.92309e-07,-2.5638e-08,5.39759e-06,119,-139.18,-156.59,1.0833e+07,1e+06,-8.02355e-08,1.95311e-07,-5.12745e-08,-0.00504112,0.037595,-0.000927872,0.0407717,2,135
12,6.81402e-22,1,190,64.15,-5.46981e-06,3.0019e-07,-2.66535e-08,5.47811e-06,119,-139.18,-156.59,1.0833e+07,1e+06,-8.00825e-08,2.00776e-07,-5.33058e-08,-0.00449255,0.0388443,-0.000947609,0.0417043,2,136
12,6.81402e-22,1,191,64.15,-5.54978e-06,3.07549e-07,-2.7598e-08,5.55836e-06,119,-139.18,-156.59,1.0833e+07,1e+06,-7.98475e-08,2.05782e-07,-5.51956e-08,-0.00396279,0.0399947,-0.000966775,0.0425565,2,137
12,6.81402e-22,1,192,64.15,-5.62951e-06,3.14674e-07,-2.84965e-08,5.63837e-06,119,-139.18,-156.59,1.0833e+07,1e+06,-7.96887e-08,2.10556e-07,-5.69931e-08,-0.00347474,0.041081,-0.000986848,0.0433741,2,138
12,6.81402e-22,1,193,64.15,-5.70915e-06,3.21825e-07,-2.93693e-08,5.71829e-06,119,-139.18,-156.59,1.0833e+07,1e+06,-7.97408e-08,2.15298e-07,-5.87389e-08,-0.0030477,0.0421346,-0.00100841,0.0441973,2,139
12,6.81402e-22,1,194,64.15,-5.78899e-06,3.29227e-07,-3.02322e-08,5.79842e-06,119,-139.18,-156.59,1.0833e+07,1e+06,-8.01312e-08,2.20185e-07,-6.0464e-08,-0.00270092,0.0431845,-0.0010311,0.045064,2,140
12,6.81402e-22,1,195,64.15,-5.86942e-06,3.37014e-07,-3.10914e-08,5.87917e-06,119,-139.18,-156.59,1.0833e+07,1e+06,-8.09556e-08,2.25347e-07,-6.21821e-08,-0.00245004,0.0442542,-0.00105322,0.046004,2,141
12,6.81402e-22,1,196,64.15,-5.9509e-06,3.45087e-07,-3.19353e-08,5.96098e-06,119,-139.18,-156.59,1.0833e+07,1e+06,-8.21913e-08,2.30773e-07,-6.38688e-08,-0.00229118,0.0453521,-0.00106919,0.0470206,2,142
12,6.81402e-22,1,197,64.15,-6.0338e-06,3.52826e-07,-3.27143e-08,6.04419e-06,119,-139.18,-156.59,1.0833e+07,1e+06,-8.35463e-08,2.36076e-07,-6.54163e-08,-0.00218148,0.0464342,-0.00107083,0.0480429,2,143
12,6.81402e-22,1,198,64.15,-6.11799e-06,3.58565e-07,-3.32179e-08,6.12858e-06,119,-139.18,-156.59,1.0833e+07,1e+06,-8.44202e-08,2.40085e-07,-6.64412e-08,-0.00206624,0.0473268,-0.00103285,0.0488585,2,144
12,6.81402e-22,1,199,64.15,-6.20264e-06,3.57995e-07,-3.31051e-08,6.21305e-06,119,-139.18,-156.59,1.0833e+07,1e+06,-8.36583e-08,2.40477e-07,-6.5753e-08,-0.00182627,0.0477471,-0.000780021,0.0490415,2,145
12,6.81402e-22,1,200,64.15,-6.28531e-06,3.43064e-07,-3.0067e-08,6.29474e-06,119,-139.18,-156.59,1.0833e+07,1e+06,-7.69876e-08,2.31929e-07,-5.98631e-08,-0.000540612,0.0471507,0.000520005,0.0472718,2,146
12,6.79903e-22,1,201,64.15,-6.35661e-06,3.0277e-07,-3.09547e-08,6.3639e-06,120.688,-139.18,-156.59,1.01872e+07,968750,-6.09652e-08,2.05895e-07,-6.08057e-08,-1.54214e-05,0.0427427,-0.00157347,0.0447209,2,147
12,6.76904e-22,1,202,54.29,-6.40724e-06,2.2422e-07,-1.94354e-08,6.41119e-06,124.062,56.89,133.9,8.89556e+06,906250,-4.50254e-08,1.56592e-07,-4.06969e-08,0.000167341,0.0321096,0.00116847,0.0328893,2,148
12,5.80434e-22,1,203,73.27,-5.59429e-08,5.00942e-07,-2.99438e-08,5.04945e-07,9.3125,-129.16,-171.71,8.89556e+06,906250,-1.03323e-07,2.0612e-07,-6.02701e-08,-0.00885342,0.0282024,0.000862353,0.0337811,2,149
12,4.29176e-22,2,204,91.58,-1.50704e-07,5.40641e-07,-4.38535e-08,5.62963e-07,12.375,16.06,146.57,4.37488e+06,687500,-8.25915e-08,2.14112e-07,-8.72687e-08,-0.0085718,0.0282618,-0.000449383,0.0345618,3,53
12,3.21135e-22,2,205,91.58,-2.21126e-07,5.44286e-07,-5.37443e-08,5.89943e-07,14.5625,16.06,146.57,1.14581e+06,531250,-6.63523e-08,2.20013e-07,-1.07139e-07,-0.0082714,0.027974,-9.88028e-05,0.0338285,3,54
12,2.99527e-22,2,206,91.58,-2.83408e-07,5.38666e-07,-5.4281e-08,6.11087e-07,15,16.06,146.57,500000,500000,-6.26532e-08,2.13654e-07,-1.08988e-07,-0.00865455,0.0265123,-0.000296056,0.0326238,3,55
12,2.99527e-22,2,207,91.58,-3.46432e-07,5.39222e-07,-5.19641e-08,6.43021e-07,15,16.06,146.57,500000,500000,-6.51405e-08,2.10857e-07,-1.04027e-07,-0.00888072,0.0263187,-1.14314e-05,0.0325096,3,56
12,2.99527e-22,2,208,91.58,-4.13689e-07,5.34979e-07,-4.97702e-08,6.78099e-07,15,16.06,146.57,500000,500000,-6.98929e-08,2.09963e-07,-9.9527e-08,-0.00929994,0.0261321,0.000114976,0.032509,3,57
12,2.99527e-22,2,209,91.58,-4.86218e-07,5.13966e-07,-4.70852e-08,7.09074e-07,15,16.06,146.57,500000,500000,-7.59574e-08,2.06608e-07,-9.45045e-08,-0.00997203,0.0251767,-9.52729e-05,0.0319412,3,58
12,2.99527e-22,2,210,91.58,-5.65604e-07,4.65122e-07,-4.41678e-08,7.33619e-07,15,16.06,146.57,500000,500000,-8.2382e-08,2.0345e-07,-8.82791e-08,-0.0105753,0.0244039,-0.000122931,0.0314916,3,59
12,2.99527e-22,2,211,91.58,-6.50982e-07,4.0202e-07,-4.02813e-08,7.66173e-07,15,16.06,146.57,500000,500000,-8.65949e-08,1.95643e-07,-8.04008e-08,-0.0111188,0.0232931,-0.00019993,0.0308005,3,60
12,3.22831e-22,2,212,91.58,-7.38794e-07,3.37478e-07,-3.40864e-08,8.12939e-07,15.1875,16.06,146.57,1.14581e+06,531250,-8.90339e-08,1.80815e-07,-6.73303e-08,-0.011863,0.0226579,-0.000575025,0.0308967,3,61
12,4.19972e-22,2,213,91.58,-8.2905e-07,2.8151e-07,-2.16375e-08,8.75808e-07,16.4375,16.06,146.57,3.72906e+06,656250,-9.13798e-08,1.58021e-07,-4.22044e-08,-0.0127714,0.0240311,-0.00097541,0.0332472,3,62
12,5.44342e-22,1,214,130.07,-9.21553e-07,2.73294e-07,-7.82992e-09,9.61255e-07,18.375,-12.93,132.49,6.95812e+06,812500,-9.38025e-08,1.4374e-07,-1.64939e-08,-0.0126244,0.0275231,-0.000308416,0.0363705,2,150
12,5.5612e-22,1,215,130.07,-1.01666e-06,2.89383e-07,-2.75709e-09,1.05704e-06,19.875,-12.93,132.49,6.95812e+06,812500,-1.04894e-07,1.5675e-07,-6.76759e-09,-0.0114038,0.0302311,0.00111203,0.037886,2,151
12,4.94451e-22,2,216,153.64,-1.13134e-06,3.17053e-07,-5.00142e-09,1.17494e-06,23.3125,-177.01,-156.76,5.6665e+06,750000,-1.13394e-07,1.71401e-07,-9.67979e-09,-0.0105369,0.0313302,0.000828324,0.0387443,3,63
12,4.87379e-22,1,217,129.57,-1.24344e-06,3.42142e-07,-5.14835e-09,1.28967e-06,28.3125,77.66,-43.22,6.95812e+06,812500,-1.00031e-07,1.67381e-07,-1.02172e-08,-0.00881603,0.0337564,0.000936027,0.0395631,2,152
12,5.1496e-22,1,218,129.57,-1.3314e-06,3.59271e-07,-5.05486e-09,1.37903e-06,31.125,77.66,-43.22,8.89556e+06,906250,-8.23902e-08,1.62221e-07,-1.06065e-08,-0.00708512,0.0382803,0.00124509,0.0423527,2,153
12,5.3844e-22,1,219,129.57,-1.40822e-06,3.77482e-07,-6.27625e-09,1.45795e-06,32.375,77.66,-43.22,1.01872e+07,968750,-7.35305e-08,1.55614e-07,-1.21732e-08,-0.00702402,0.040575,0.000635064,0.0445182,2,154
12,5.50179e-22,1,220,129.57,-1.47846e-06,3.69875e-07,-5.02624e-09,1.52404e-06,33,77.66,-43.22,1.0833e+07,1e+06,-7.11217e-08,1.4488e-07,-9.69801e-09,-0.00763911,0.0389994,0.000394374,0.0432666,2,155
12,5.59286e-22,1,221,129.57,-1.55047e-06,3.45372e-07,-4.97232e-09,1.58847e-06,33.1875,77.66,-43.22,1.0833e+07,1e+06,-7.49054e-08,1.43088e-07,-9.80835e-09,-0.00850821,0.0368735,0.000570502,0.0418347,2,156
12,5.77499e-22,1,222,129.57,-1.62827e-06,3.15954e-07,-6.86973e-09,1.65866e-06,33.5625,77.66,-43.22,1.0833e+07,1e+06,-7.96893e-08,1.46102e-07,-1.39466e-08,-0.00896354,0.0339618,0.00100926,0.0393164,2,157
12,5.86606e-22,1,223,129.57,-1.70984e-06,3.0132e-07,-8.55584e-09,1.73621e-06,33.75,77.66,-43.22,1.0833e+07,1e+06,-8.00438e-08,1.47973e-07,-1.74983e-08,-0.00858467,0.0323547,0.00122833,0.0373651,2,158
12,5.77499e-22,1,224,129.57,-1.78836e-06,3.1196e-07,-7.88962e-09,1.81538e-06,33.5625,77.66,-43.22,1.0833e+07,1e+06,-7.50648e-08,1.45231e-07,-1.59421e-08,-0.0081127,0.0339578,0.00103381,0.0385959,2,159
12,5.59286e-22,1,225,129.57,-1.85997e-06,3.33335e-07,-5.81615e-09,1.88962e-06,33.1875,77.66,-43.22,1.0833e+07,1e+06,-7.0056e-08,1.40465e-07,-1.14064e-08,-0.00777498,0.0363483,0.000673944,0.0407096,2,160
12,5.50179e-22,1,226,129.57,-1.92847e-06,3.49095e-07,-4.75887e-09,1.95982e-06,33,77.66,-43.22,1.0833e+07,1e+06,-7.00238e-08,1.40054e-07,-9.20078e-09,-0.00789256,0.0376008,0.000444668,0.0419721,2,161
12,5.59286e-22,1,227,129.57,-2.00002e-06,3.63885e-07,-6.37428e-09,2.03287e-06,33.1875,77.66,-43.22,1.0833e+07,1e+06,-7.39106e-08,1.49271e-07,-1.29162e-08,-0.0084753,0.0385813,0.000847636,0.0433967,2,162
12,5.06924e-22,1,228,129.57,-2.0763e-06,4.12484e-07,-1.39383e-08,2.11692e-06,35.875,77.66,-43.22,8.24975e+06,875000,-8.1978e-08,1.68188e-07,-2.86183e-08,-0.00938782,0.0363226,0.000807063,0.0422,2,163
12,3.74882e-22,2,229,91.8,-2.16398e-06,4.78976e-07,-2.64556e-08,2.21651e-06,40.6875,144.53,-35.18,3.08325e+06,625000,-9.24116e-08,1.903e-07,-5.27879e-08,-0.0106634,0.0307991,-9.62947e-05,0.0382652,3,64
12,3.04307e-22,2,230,91.8,-2.26112e-06,5.11049e-07,-3.29524e-08,2.31839e-06,43,144.53,-35.18,500000,500000,-9.79701e-08,2.0058e-07,-6.51929e-08,-0.011569,0.027612,-0.000402744,0.035866,3,65
12,3.04307e-22,2,231,91.8,-2.35992e-06,5.12552e-07,-3.28396e-08,2.41516e-06,43,144.53,-35.18,500000,500000,-9.8827e-08,2.00123e-07,-6.52971e-08,-0.0117797,0.0271141,-0.000286825,0.035342,3,66
12,3.20623e-22,2,232,91.8,-2.45877e-06,4.92077e-07,-2.9106e-08,2.5077e-06,44.375,144.53,-35.18,1.14581e+06,531250,-9.83265e-08,1.87408e-07,-5.85497e-08,-0.0118952,0.0250892,-0.000263036,0.0334246,3,67
12,3.85884e-22,2,233,91.8,-2.55657e-06,4.74362e-07,-2.62634e-08,2.60034e-06,49.875,144.53,-35.18,3.72906e+06,656250,-9.97878e-08,1.85002e-07,-5.33527e-08,-0.0107969,0.0249853,0.000221897,0.0324478,3,68
12,4.83777e-22,1,234,80.41,-2.65835e-06,4.90777e-07,-2.98515e-08,2.70344e-06,58.125,-123.18,-170.23,7.60394e+06,843750,-1.06761e-07,2.07735e-07,-5.93404e-08,-0.00889231,0.0281452,0.000614521,0.0339061,2,164
12,5.49039e-22,1,235,80.41,-2.77009e-06,5.33786e-07,-3.3687e-08,2.82125e-06,63.625,-123.18,-170.23,1.01872e+07,968750,-1.16299e-07,2.25733e-07,-6.66367e-08,-0.00865661,0.0296366,4.53553e-05,0.0349987,2,165
12,5.65354e-22,1,236,80.41,-2.89095e-06,5.79239e-07,-3.40969e-08,2.9486e-06,65,-123.18,-170.23,1.0833e+07,1e+06,-1.2377e-07,2.32794e-07,-6.83221e-08,-0.00959381,0.0299876,-0.000217986,0.0359897,2,166
12,5.65354e-22,1,237,80.41,-3.01763e-06,6.12705e-07,-3.40707e-08,3.0794e-06,65,-123.18,-170.23,1.0833e+07,1e+06,-1.28797e-07,2.39159e-07,-6.84302e-08,-0.0101687,0.0309267,2.73521e-05,0.037364,2,167
12,5.65354e-22,1,238,80.41,-3.14854e-06,6.32495e-07,-3.51187e-08,3.21163e-06,65,-123.18,-170.23,1.0833e+07,1e+06,-1.32049e-07,2.46624e-07,-7.02597e-08,-0.0102518,0.0321048,0.000114163,0.0386316,2,168
12,5.65354e-22,1,239,80.41,-3.28173e-06,6.40888e-07,-3.61964e-08,3.34392e-06,65,-123.18,-170.23,1.0833e+07,1e+06,-1.3268e-07,2.51157e-07,-7.23909e-08,-0.0100237,0.0328383,3.03574e-05,0.0392468,2,169
12,5.65354e-22,1,240,80.41,-3.4139e-06,6.41437e-07,-3.69765e-08,3.47383e-06,65,-123.18,-170.23,1.0833e+07,1e+06,-1.30558e-07,2.52529e-07,-7.39443e-08,-0.00939372,0.0332249,-2.46466e-05,0.0391981,2,170
12,5.65354e-22,1,241,80.41,-3.54285e-06,6.36587e-07,-3.74361e-08,3.59978e-06,65,-123.18,-170.23,1.0833e+07,1e+06,-1.2679e-07,2.51541e-07,-7.48658e-08,-0.0085618,0.0333383,-4.85356e-05,0.0387276,2,171
12,5.65354e-22,1,242,80.41,-3.66748e-06,6.28011e-07,-3.76306e-08,3.72105e-06,65,-123.18,-170.23,1.0833e+07,1e+06,-1.22215e-07,2.48941e-07,-7.52576e-08,-0.00767242,0.0332416,-5.647e-05,0.0380153,2,172
12,5.65354e-22,1,243,80.41,-3.78728e-06,6.16911e-07,-3.76209e-08,3.83738e-06,65,-123.18,-170.23,1.0833e+07,1e+06,-1.17268e-07,2.45252e-07,-7.52399e-08,-0.00678833,0.0329909,-5.75068e-05,0.0371667,2,173
12,5.65354e-22,1,244,80.41,-3.90202e-06,6.04169e-07,-3.74582e-08,3.94869e-06,65,-123.18,-170.23,1.0833e+07,1e+06,-1.12159e-07,2.40828e-07,-7.49155e-08,-0.00593015,0.0326314,-5.57662e-05,0.0362427,2,174
12,5.65354e-22,1,245,80.41,-4.0116e-06,5.90422e-07,-3.71837e-08,4.05498e-06,65,-123.18,-170.23,1.0833e+07,1e+06,-1.06985e-07,2.35911e-07,-7.43668e-08,-0.00510067,0.0321984,-5.29613e-05,0.0352803,2,175
12,5.65354e-22,1,246,80.41,-4.11599e-06,5.76112e-07,-3.68295e-08,4.15627e-06,65,-123.18,-170.23,1.0833e+07,1e+06,-1.01791e-07,2.3067e-07,-7.36586e-08,-0.00429563,0.031718,-4.98231e-05,0.0343023,2,176
12,5.65354e-22,1,247,80.41,-4.21518e-06,5.61522e-07,-3.64203e-08,4.25257e-06,65,-123.18,-170.23,1.0833e+07,1e+06,-9.65879e-08,2.25217e-07,-7.28403e-08,-0.00350796,0.0312092,-4.67457e-05,0.0333228,2,177
12,5.65354e-22,1,248,80.41,-4.30916e-06,5.46798e-07,-3.59743e-08,4.34386e-06,65,-123.18,-170.23,1.0833e+07,1e+06,-9.13721e-08,2.19626e-07,-7.19485e-08,-0.00273009,0.0306847,-4.41744e-05,0.0323503,2,178
12,5.65354e-22,1,249,80.41,-4.39792e-06,5.31964e-07,-3.5505e-08,4.43012e-06,65,-123.18,-170.23,1.0833e+07,1e+06,-8.61411e-08,2.13948e-07,-7.101e-08,-0.00195689,0.0301539,-4.28533e-05,0.031392,2,179
12,5.65354e-22,1,250,80.41,-4.48144e-06,5.16913e-07,-3.50221e-08,4.51129e-06,65,-123.18,-170.23,1.0833e+07,1e+06,-8.09251e-08,2.08242e-07,-7.00399e-08,-0.00119065,0.029626,-4.35209e-05,0.0304613,2,180
12,5.65354e-22,1,251,80.41,-4.55977e-06,5.0133e-07,-3.45253e-08,4.58738e-06,65,-123.18,-170.23,1.0833e+07,1e+06,-7.58477e-08,2.02588e-07,-6.90289e-08,-0.000456721,0.0291112,-4.68129e-05,0.02959,2,181
12,5.65354e-22,1,252,80.41,-4.63314e-06,4.84517e-07,-3.38708e-08,4.65853e-06,65,-123.18,-170.23,1.0833e+07,1e+06,-7.10236e-08,1.97128e-07,-6.77784e-08,0.000267673,0.0286592,-1.50973e-05,0.0288082,2,182
12,5.97401e-22,1,253,80.41,-4.70182e-06,4.66231e-07,-3.46619e-08,4.72501e-06,65.25,-123.18,-170.23,1.0833e+07,1e+06,-5.95089e-08,1.91422e-07,-6.94096e-08,0.00106616,0.0296439,0.000272556,0.0293222,2,183
12,6.61494e-22,1,254,162.01,-4.75216e-06,4.6443e-07,-3.89648e-08,4.77496e-06,65.75,-127.97,-104.66,1.0833e+07,1e+06,-4.0577e-08,1.87774e-07,-7.77274e-08,0.00169577,0.0320588,0.000681232,0.0311731,2,184
12,7.08473e-22,1,255,162.01,-4.78297e-06,4.86432e-07,-4.8577e-08,4.80789e-06,71.5,-127.97,-104.66,1.0833e+07,1e+06,-1.83829e-08,1.887e-07,-9.71894e-08,0.00157702,0.0351427,-0.000470299,0.0350203,2,185
12,7.38338e-22,1,256,179.529,-4.78892e-06,4.77059e-07,-5.59553e-08,4.81295e-06,82.5,-34.91,-168.19,1.0833e+07,1e+06,5.77688e-09,1.84655e-07,-1.121e-07,0.00154358,0.0380102,-0.000724956,0.0379278,2,186
12,7.5327e-22,1,257,179.529,-4.77142e-06,4.41422e-07,-5.65199e-08,4.79213e-06,88,-34.91,-168.19,1.0833e+07,1e+06,1.88691e-08,1.74932e-07,-1.12954e-07,0.00200879,0.0379833,8.37231e-05,0.0369823,2,187
12,7.5327e-22,1,258,179.529,-4.75118e-06,4.23971e-07,-5.56024e-08,4.77039e-06,88,-34.91,-168.19,1.0833e+07,1e+06,2.04638e-08,1.68809e-07,-1.11189e-07,0.00227681,0.036545,-0.00011572,0.0355532,2,188
12,7.5327e-22,1,259,179.529,-4.73049e-06,4.16541e-07,-5.46601e-08,4.74911e-06,88,-34.91,-168.19,1.0833e+07,1e+06,2.03499e-08,1.66197e-07,-1.09307e-07,0.00230869,0.0360293,-5.04844e-05,0.034999,2,189
12,7.5327e-22,1,260,179.529,-4.71049e-06,4.15064e-07,-5.42196e-08,4.72905e-06,88,-34.91,-168.19,1.0833e+07,1e+06,1.9461e-08,1.65807e-07,-1.08434e-07,0.00213215,0.0359759,-2.19417e-05,0.0350134,2,190
12,7.5327e-22,1,261,179.529,-4.69157e-06,4.17339e-07,-5.41577e-08,4.71041e-06,88,-34.91,-168.19,1.0833e+07,1e+06,1.82766e-08,1.66865e-07,-1.08313e-07,0.00186845,0.0362262,-1.11935e-05,0.0353765,2,191
12,7.5327e-22,1,262,179.529,-4.67393e-06,4.21916e-07,-5.43336e-08,4.69325e-06,88,-34.91,-168.19,1.0833e+07,1e+06,1.69661e-08,1.68822e-07,-1.08666e-07,0.00156685,0.0366678,-5.35981e-06,0.0359495,2,192
12,7.5327e-22,1,263,179.529,-4.65764e-06,4.27789e-07,-5.46557e-08,4.67756e-06,88,-34.91,-168.19,1.0833e+07,1e+06,1.56249e-08,1.71294e-07,-1.09311e-07,0.00125373,0.0372179,-1.62715e-06,0.0366381,2,193
12,7.5327e-22,1,264,179.529,-4.64268e-06,4.34215e-07,-5.50554e-08,4.66327e-06,88,-34.91,-168.19,1.0833e+07,1e+06,1.43109e-08,1.73991e-07,-1.1011e-07,0.00094529,0.0378138,6.14728e-07,0.0373724,2,194
12,7.5327e-22,1,265,179.529,-4.62902e-06,4.40623e-07,-5.54753e-08,4.65027e-06,88,-34.91,-168.19,1.0833e+07,1e+06,1.30542e-08,1.76689e-07,-1.10949e-07,0.000650733,0.0384059,1.3721e-06,0.0380991,2,195
12,7.5327e-22,1,266,179.529,-4.61657e-06,4.46591e-07,-5.58678e-08,4.63846e-06,88,-34.91,-168.19,1.0833e+07,1e+06,1.18584e-08,1.79216e-07,-1.11733e-07,0.00037259,0.0389564,8.25079e-08,0.0387801,2,196
12,7.5327e-22,1,267,179.529,-4.6053e-06,4.51877e-07,-5.6196e-08,4.62776e-06,88,-34.91,-168.19,1.0833e+07,1e+06,1.06941e-08,1.81466e-07,-1.12387e-07,0.000104824,0.0394425,-4.32287e-06,0.0393965,2,197
12,7.5327e-22,1,268,179.529,-4.59519e-06,4.56482e-07,-5.6436e-08,4.61815e-06,88,-34.91,-168.19,1.0833e+07,1e+06,9.48542e-09,1.83426e-07,-1.12862e-07,-0.000169976,0.0398625,-1.24973e-05,0.0399564,2,198
12,7.5327e-22,1,269,179.529,-4.58633e-06,4.60816e-07,-5.6584e-08,4.60977e-06,88,-34.91,-168.19,1.0833e+07,1e+06,8.10587e-09,1.85202e-07,-1.13146e-07,-0.000482121,0.0402425,-2.42656e-05,0.0405015,2,199
12,7.5327e-22,1,270,179.529,-4.57897e-06,4.65918e-07,-5.66803e-08,4.60297e-06,88,-34.91,-168.19,1.0833e+07,1e+06,6.40547e-09,1.87021e-07,-1.13349e-07,-0.000881291,0.0406302,-5.49044e-05,0.0411117,2,200
12,7.5327e-22,1,271,179.529,-4.57352e-06,4.74968e-07,-5.68154e-08,4.59847e-06,88,-34.91,-168.19,1.0833e+07,1e+06,4.94e-09,1.89565e-07,-1.13741e-07,-0.00120639,0.041241,-4.1778e-07,0.0418662,2,201
12,7.5327e-22,1,272,179.529,-4.56909e-06,4.9446e-07,-5.67172e-08,4.59612e-06,88,-34.91,-168.19,1.0833e+07,1e+06,3.64416e-09,1.88542e-07,-1.13122e-07,-0.00161353,0.0409754,-0.000169867,0.0419,2,202
12,6.82395e-22,1,273,179.529,-4.56623e-06,5.33633e-07,-5.22604e-08,4.5976e-06,90.0625,-34.9101,-168.19,8.89556e+06,906250,-6.27486e-09,1.88237e-07,-1.04643e-07,-0.00180583,0.0392254,-5.72193e-05,0.0403792,2,203
12,5.17021e-22,2,274,93.06,-4.58164e-06,5.59699e-07,-4.74143e-08,4.61595e-06,94.875,38.02,137.36,4.37488e+06,687500,-2.62212e-08,2.03873e-07,-9.53264e-08,-0.00138637,0.0378538,0.000383869,0.0387892,3,69
12,3.98896e-22,2,275,93.06,-4.61867e-06,5.44275e-07,-4.68246e-08,4.65087e-06,98.3125,38.02,137.36,1.14581e+06,531250,-3.88266e-08,2.15706e-07,-9.33483e-08,-0.00124072,0.0362691,0.000258818,0.0371172,3,70
12,3.75271e-22,2,276,93.06,-4.6593e-06,5.10998e-07,-4.53538e-08,4.68745e-06,99,38.02,137.36,500000,500000,-3.9416e-08,2.06396e-07,-9.05788e-08,-0.00154806,0.0334999,-1.61609e-05,0.0344996,3,71
12,3.75271e-22,2,277,93.06,-4.6975e-06,4.73524e-07,-4.19794e-08,4.7215e-06,99,38.02,137.36,500000,500000,-3.73796e-08,1.89911e-07,-8.40748e-08,-0.00184228,0.0305171,-5.99667e-05,0.0316374,3,72
12,3.75271e-22,2,278,93.06,-4.73406e-06,4.3509e-07,-3.80174e-08,4.75416e-06,99,38.02,137.36,500000,500000,-3.61578e-08,1.73228e-07,-7.60154e-08,-0.0021346,0.027681,-2.5575e-05,0.0289176,3,73
12,3.75271e-22,2,279,93.06,-4.76982e-06,4.00516e-07,-3.40656e-08,4.78673e-06,99,38.02,137.36,500000,500000,-3.57376e-08,1.58367e-07,-6.81244e-08,-0.0024424,0.025238,-1.26625e-05,0.0266387,3,74
12,3.75271e-22,2,280,93.06,-4.80553e-06,3.71657e-07,-3.04558e-08,4.81998e-06,99,38.02,137.36,500000,500000,-3.60541e-08,1.45926e-07,-6.08918e-08,-0.00276736,0.0232493,-8.16055e-06,0.0248474,3,75
12,3.75271e-22,2,281,93.06,-4.84193e-06,3.49662e-07,-2.71742e-08,4.85461e-06,99,38.02,137.36,500000,500000,-3.70294e-08,1.3595e-07,-5.43933e-08,-0.0030922,0.0217273,-2.26709e-05,0.023556,3,76
12,3.75271e-22,2,282,93.06,-4.87959e-06,3.37349e-07,-2.41897e-08,4.8913e-06,99,38.02,137.36,500000,500000,-3.89173e-08,1.28501e-07,-4.85294e-08,-0.003453,0.0206873,-7.33916e-05,0.022829,3,77
12,3.75271e-22,2,283,93.06,-4.91976e-06,3.39198e-07,-2.28902e-08,4.93149e-06,99,38.02,137.36,500000,500000,-4.23065e-08,1.27477e-07,-4.53048e-08,-0.0038862,0.0207196,-0.00016941,0.0232767,3,78
12,4.32671e-22,2,284,93.06,-4.9642e-06,3.50395e-07,-2.10657e-08,4.9766e-06,102.75,38.02,137.36,2.43744e+06,593750,-4.88637e-08,1.33904e-07,-4.22225e-08,-0.00423886,0.0227124,1.07042e-06,0.025426,3,79
12,5.66603e-22,1,285,64.15,-5.01749e-06,3.71469e-07,-1.96321e-08,5.03126e-06,111.5,-139.18,-156.59,6.95812e+06,812500,-5.79217e-08,1.49171e-07,-3.96204e-08,-0.00388007,0.0276002,0.000356275,0.0298089,2,204
12,6.62269e-22,1,286,64.15,-5.08005e-06,4.02538e-07,-2.04758e-08,5.09601e-06,117.75,-139.18,-156.59,1.01872e+07,968750,-6.5087e-08,1.63216e-07,-4.0699e-08,-0.00365437,0.0316108,0.000183776,0.0336069,2,205
12,6.81402e-22,1,287,64.15,-5.14766e-06,4.31581e-07,-2.12706e-08,5.16577e-06,119,-139.18,-156.59,1.0833e+07,1e+06,-6.96177e-08,1.71181e-07,-4.26113e-08,-0.00402229,0.0332729,-2.83469e-05,0.0355314,2,206
12,6.81402e-22,1,288,64.15,-5.21928e-06,4.5433e-07,-2.23264e-08,5.23907e-06,119,-139.18,-156.59,1.0833e+07,1e+06,-7.30947e-08,1.80145e-07,-4.46742e-08,-0.00417934,0.035073,2.60565e-05,0.0374137,2,207
12,6.81402e-22,1,289,64.15,-5.29385e-06,4.72381e-07,-2.34685e-08,5.31494e-06,119,-139.18,-156.59,1.0833e+07,1e+06,-7.5356e-08,1.87786e-07,-4.69309e-08,-0.00412998,0.0366191,-2.1308e-05,0.0389521,2,208
12,6.81402e-22,1,290,64.15,-5.36999e-06,4.87631e-07,-2.44991e-08,5.39214e-06,119,-139.18,-156.59,1.0833e+07,1e+06,-7.64827e-08,1.9424e-07,-4.89974e-08,-0.00385716,0.037987,-4.5834e-05,0.0401663,2,209
12,6.81402e-22,1,291,64.15,-5.44682e-06,5.01121e-07,-2.54539e-08,5.46988e-06,119,-139.18,-156.59,1.0833e+07,1e+06,-7.69088e-08,1.99844e-07,-5.09073e-08,-0.00345864,0.0392205,-5.78127e-05,0.0411687,2,210
12,6.81402e-22,1,292,64.15,-5.52381e-06,5.13547e-07,-2.63525e-08,5.54769e-06,119,-139.18,-156.59,1.0833e+07,1e+06,-7.69453e-08,2.04872e-07,-5.27048e-08,-0.00299969,0.0403525,-6.54549e-05,0.0420359,2,211
12,6.81402e-22,1,293,64.15,-5.60071e-06,5.25451e-07,-2.72154e-08,5.62537e-06,119,-139.18,-156.59,1.0833e+07,1e+06,-7.68096e-08,2.09558e-07,-5.44306e-08,-0.00252027,0.0414142,-7.18942e-05,0.0428238,2,212
12,6.81402e-22,1,294,64.15,-5.67743e-06,5.37308e-07,-2.8063e-08,5.70287e-06,119,-139.18,-156.59,1.0833e+07,1e+06,-7.66774e-08,2.14122e-07,-5.61255e-08,-0.00204937,0.0424374,-7.85332e-05,0.0435809,2,213
12,6.81402e-22,1,295,64.15,-5.75406e-06,5.49544e-07,-2.89152e-08,5.78032e-06,119,-139.18,-156.59,1.0833e+07,1e+06,-7.67095e-08,2.18783e-07,-5.78292e-08,-0.00161168,0.0434569,-8.54363e-05,0.0443559,2,214
12,6.81402e-22,1,296,64.15,-5.83085e-06,5.62452e-07,-2.97883e-08,5.85799e-06,119,-139.18,-156.59,1.0833e+07,1e+06,-7.7046e-08,2.2375e-07,-5.95722e-08,-0.00122817,0.0445102,-9.10375e-05,0.0451978,2,215
12,6.81402e-22,1,297,64.15,-5.90816e-06,5.75972e-07,-3.06784e-08,5.93624e-06,119,-139.18,-156.59,1.0833e+07,1e+06,-7.77421e-08,2.29148e-07,-6.13609e-08,-0.000905786,0.0456325,-9.14908e-05,0.0461448,2,216
12,6.81402e-22,1,298,64.15,-5.98633e-06,5.89137e-07,-3.15601e-08,6.01534e-06,119,-139.18,-156.59,1.0833e+07,1e+06,-7.84875e-08,2.34853e-07,-6.31028e-08,-0.000574137,0.046864,-5.95717e-05,0.0471887,2,217
12,6.81402e-22,1,299,64.15,-6.06513e-06,5.99022e-07,-3.22564e-08,6.09473e-06,119,-139.18,-156.59,1.0833e+07,1e+06,-7.79826e-08,2.39782e-07,-6.47717e-08,1.27591e-06,0.0481241,-2.91372e-05,0.0481559,2,218
12,6.81402e-22,1,300,64.15,-6.1423e-06,5.9936e-07,-3.22381e-08,6.17156e-06,119,-139.18,-156.59,1.0833e+07,1e+06,-7.41968e-08,2.40986e-07,-6.37027e-08,0.00121627,0.0492725,0.000611068,0.0484621,2,219
12,6.58967e-22,1,301,64.15,-6.21352e-06,5.77188e-07,-3.31067e-08,6.24036e-06,119.375,-139.18,-156.59,1.01872e+07,968750,-6.49886e-08,2.39259e-07,-6.6175e-08,0.00296451,0.0491915,0.00077034,0.0481377,2,220
12,5.76205e-22,1,302,64.15,-6.27228e-06,5.12044e-07,-3.8411e-08,6.29326e-06,121.312,-139.18,-156.59,7.60394e+06,843750,-5.12729e-08,2.20579e-07,-7.77716e-08,0.00225071,0.042114,-0.00124079,0.0433375,2,221
12,4.77987e-22,2,303,106.24,-6.31607e-06,3.89892e-07,-3.76671e-08,6.3282e-06,124.062,-1.3,-30.28,4.37488e+06,687500,-4.04469e-08,1.8877e-07,-7.49561e-08,0.000741288,0.0311316,0.000599012,0.031873,3,80
12,6.2365e-22,1,304,73.27,-5.57905e-08,7.03501e-07,-2.57583e-08,7.0618e-07,8.4375,-129.16,-171.71,1.01872e+07,968750,-1.08858e-07,1.97049e-07,-5.09372e-08,-0.00966266,0.0267918,0.00109377,0.0327128,2,222
12,5.15609e-22,1,305,73.27,-1.61925e-07,7.4843e-07,-3.34773e-08,7.66477e-07,10.625,-129.16,-171.71,6.95812e+06,812500,-9.46893e-08,2.0164e-07,-6.80027e-08,-0.00907372,0.0269817,-0.000321822,0.0334078,2,223
12,3.64351e-22,2,306,91.58,-2.45169e-07,7.60794e-07,-4.63479e-08,8.00664e-07,13.6875,16.06,146.57,2.43744e+06,593750,-7.34145e-08,2.10753e-07,-9.27056e-08,-0.00846375,0.0275875,-9.21183e-05,0.0337742,3,81
12,2.99527e-22,2,307,91.58,-3.08754e-07,7.49793e-07,-5.25279e-08,8.12575e-07,15,16.06,146.57,500000,500000,-6.32769e-08,2.097e-07,-1.0451e-07,-0.00883718,0.0264838,-0.000126947,0.032857,3,82
12,2.99527e-22,2,308,91.58,-3.71723e-07,7.48457e-07,-5.12559e-08,8.37253e-07,15,16.06,146.57,500000,500000,-6.48105e-08,2.08741e-07,-1.02577e-07,-0.0090821,0.0263933,-2.52212e-05,0.0329093,3,83
12,2.99527e-22,2,309,91.58,-4.38375e-07,7.44627e-07,-5.046e-08,8.65557e-07,15,16.06,146.57,500000,500000,-6.9081e-08,2.10033e-07,-1.00889e-07,-0.00954983,0.0263399,-4.35919e-05,0.0330964,3,84
12,2.99527e-22,2,310,91.58,-5.09885e-07,7.23592e-07,-4.98932e-08,8.86599e-07,15,16.06,146.57,500000,500000,-7.42433e-08,2.12699e-07,-9.96303e-08,-0.0099294,0.0262195,-6.09626e-05,0.0330463,3,85
12,2.99527e-22,2,311,91.58,-5.86862e-07,6.71983e-07,-4.78395e-08,8.93452e-07,15,16.06,146.57,500000,500000,-7.79537e-08,2.10385e-07,-9.62269e-08,-0.010133,0.0254096,-0.000142929,0.0322082,3,86
12,2.99527e-22,2,312,91.58,-6.65792e-07,5.99749e-07,-4.49479e-08,8.97217e-07,15,16.06,146.57,500000,500000,-7.85145e-08,1.97983e-07,-9.04073e-08,-0.0105219,0.0233339,-0.000664266,0.0304898,3,87
12,3.03453e-22,2,313,91.58,-7.43891e-07,5.26842e-07,-4.17156e-08,9.12511e-07,15.5,16.06,146.57,500000,500000,-8.00717e-08,1.88716e-07,-8.24135e-08,-0.0106041,0.0224761,-0.000907633,0.0300712,3,88
12,3.42461e-22,2,314,91.58,-8.25936e-07,4.62328e-07,-3.31562e-08,9.47109e-07,17.6875,16.06,146.57,1.14581e+06,531250,-8.78277e-08,1.95273e-07,-6.59154e-08,-0.00862128,0.0259728,-4.52444e-05,0.0325685,3,89
12,4.08698e-22,2,315,153.64,-9.19546e-07,4.46408e-07,-2.43382e-08,1.02247e-06,20.5625,-177.01,-156.76,2.43744e+06,593750,-9.71819e-08,2.04251e-07,-4.94121e-08,-0.00582246,0.0294927,0.000377326,0.0340293,3,90
12,4.20476e-22,2,316,153.64,-1.0203e-06,4.77303e-07,-2.27541e-08,1.12665e-06,22.0625,-177.01,-156.76,2.43744e+06,593750,-1.0584e-07,2.15559e-07,-4.52231e-08,-0.00412467,0.0307475,0.00060648,0.0338133,3,91
12,3.93461e-22,2,317,153.64,-1.13123e-06,5.17521e-07,-2.3117e-08,1.2442e-06,23.3125,-177.01,-156.76,1.79162e+06,562500,-1.12938e-07,2.20478e-07,-4.5896e-08,-0.00438873,0.0304571,0.00020045,0.0339179,3,92
12,3.97563e-22,2,318,153.64,-1.24618e-06,5.35555e-07,-2.14631e-08,1.35655e-06,24.875,-177.01,-156.76,2.43744e+06,593750,-1.1002e-07,2.1919e-07,-4.30382e-08,-0.00428234,0.0317736,0.000575579,0.0350156,3,93
12,4.53628e-22,2,319,153.64,-1.35127e-06,5.41965e-07,-2.10158e-08,1.45605e-06,27.5625,-177.01,-156.76,5.02069e+06,718750,-9.3466e-08,2.13012e-07,-4.17383e-08,-0.00313715,0.037185,0.00084893,0.0394925,3,94
12,5.4228e-22,1,320,129.57,-1.43311e-06,5.37923e-07,-1.88758e-08,1.53085e-06,31.6875,77.66,-43.22,8.89556e+06,906250,-7.19085e-08,1.88106e-07,-3.79067e-08,-0.00271709,0.0400879,0.000564308,0.0417827,2,224
12,5.86606e-22,1,321,129.57,-1.49508e-06,5.12742e-07,-1.55535e-08,1.58064e-06,33.75,77.66,-43.22,1.0833e+07,1e+06,-6.26834e-08,1.70054e-07,-3.19915e-08,-0.00289082,0.0391969,0.00105892,0.0404761,2,225
12,6.04819e-22,1,322,129.57,-1.55847e-06,4.93697e-07,-1.78352e-08,1.6349e-06,34.125,77.66,-43.22,1.0833e+07,1e+06,-7.0744e-08,1.75581e-07,-3.64811e-08,-0.00424149,0.037238,0.000887531,0.0396185,2,226
12,6.41245e-22,1,323,80.81,-1.63657e-06,4.81572e-07,-2.52471e-08,1.70614e-06,34.875,-129.97,-177.44,1.0833e+07,1e+06,-8.60929e-08,1.93534e-07,-5.00036e-08,-0.00553184,0.0335829,0.000420657,0.037098,2,227
12,6.59458e-22,1,324,80.81,-1.73066e-06,4.76433e-07,-2.97632e-08,1.79529e-06,35.25,-129.97,-177.44,1.0833e+07,1e+06,-9.44091e-08,2.03261e-07,-5.80925e-08,-0.00604006,0.0311295,7.19401e-05,0.0350272,2,228
12,6.41245e-22,1,325,80.81,-1.82539e-06,4.76667e-07,-2.53908e-08,1.88677e-06,34.875,-129.97,-177.44,1.0833e+07,1e+06,-8.81516e-08,1.92278e-07,-5.01304e-08,-0.00636987,0.0329883,0.000147442,0.0370727,2,229
12,6.04819e-22,1,326,129.57,-1.90696e-06,4.79558e-07,-1.69148e-08,1.96641e-06,34.125,77.66,-43.22,1.0833e+07,1e+06,-7.65858e-08,1.73305e-07,-3.45238e-08,-0.00601468,0.0361225,0.00072232,0.0396169,2,230
12,5.86606e-22,1,327,129.57,-1.97856e-06,4.88561e-07,-1.29311e-08,2.03803e-06,33.75,77.66,-43.22,1.0833e+07,1e+06,-7.31155e-08,1.66612e-07,-2.70829e-08,-0.00587273,0.0375799,0.00121368,0.040624,2,231
12,6.04819e-22,1,328,129.57,-2.05319e-06,5.17267e-07,-1.67524e-08,2.11742e-06,34.125,77.66,-43.22,1.0833e+07,1e+06,-8.17631e-08,1.79467e-07,-3.39658e-08,-0.00704855,0.0373317,0.00131138,0.0414982,2,232
12,5.57443e-22,1,329,80.81,-2.14209e-06,5.90339e-07,-2.50267e-08,2.22209e-06,36.5625,-129.97,-177.44,8.24975e+06,875000,-9.15915e-08,1.95052e-07,-4.93624e-08,-0.00855838,0.0336041,0.000743147,0.0394567,2,233
12,4.08052e-22,2,330,91.8,-2.23638e-06,6.73198e-07,-3.05256e-08,2.3357e-06,40.3125,144.53,-35.18,3.08325e+06,625000,-8.91509e-08,1.95677e-07,-6.06293e-08,-0.00915607,0.0293908,-0.000266953,0.0360558,3,95
12,3.2425e-22,2,331,91.8,-2.32039e-06,7.08607e-07,-3.11856e-08,2.42638e-06,42,144.53,-35.18,500000,500000,-8.09198e-08,1.89435e-07,-6.27761e-08,-0.00851245,0.0278934,-0.000261983,0.0339801,3,96
12,3.19264e-22,2,332,91.8,-2.39822e-06,7.10309e-07,-3.27929e-08,2.50141e-06,42.25,144.53,-35.18,500000,500000,-7.58596e-08,1.88345e-07,-6.51771e-08,-0.00760806,0.0273718,1.14015e-05,0.0326671,3,97
12,3.58239e-22,2,333,91.8,-2.47211e-06,6.77267e-07,-3.24853e-08,2.56341e-06,46.875,144.53,-35.18,2.43744e+06,593750,-7.83472e-08,1.85548e-07,-6.48733e-08,-0.00751885,0.025821,-0.000211224,0.0310643,3,98
12,4.67461e-22,1,334,80.41,-2.55491e-06,6.63471e-07,-3.1764e-08,2.63984e-06,56.75,-123.18,-170.23,6.95812e+06,812500,-9.15665e-08,1.97322e-07,-6.37437e-08,-0.00696738,0.0265691,-1.43221e-05,0.031118,2,234
12,5.49039e-22,1,335,80.41,-2.65524e-06,7.07432e-07,-3.4243e-08,2.74808e-06,63.625,-123.18,-170.23,1.01872e+07,968750,-1.06303e-07,2.21181e-07,-6.81586e-08,-0.00658069,0.0293746,0.000140263,0.0332541,2,235
12,5.65354e-22,1,336,80.41,-2.76752e-06,7.62956e-07,-3.54427e-08,2.87098e-06,65,-123.18,-170.23,1.0833e+07,1e+06,-1.15408e-07,2.31872e-07,-7.10623e-08,-0.00757508,0.030232,-0.000151033,0.034716,2,236
12,5.65354e-22,1,337,80.41,-2.88606e-06,8.13067e-07,-3.53619e-08,2.99861e-06,65,-123.18,-170.23,1.0833e+07,1e+06,-1.20114e-07,2.36769e-07,-7.088e-08,-0.0082493,0.0309525,-1.2473e-05,0.0359111,2,237
12,5.65354e-22,1,338,80.41,-3.00774e-06,8.51679e-07,-3.55206e-08,3.1262e-06,65,-123.18,-170.23,1.0833e+07,1e+06,-1.22622e-07,2.40623e-07,-7.09554e-08,-0.00848819,0.0317143,9.43247e-05,0.036941,2,238
12,5.65354e-22,1,339,80.41,-3.1313e-06,8.76666e-07,-3.5812e-08,3.2519e-06,65,-123.18,-170.23,1.0833e+07,1e+06,-1.23957e-07,2.43957e-07,-7.16528e-08,-0.0085223,0.0323893,9.87394e-05,0.0377911,2,239
12,5.65354e-22,1,340,80.41,-3.25566e-06,8.88959e-07,-3.62348e-08,3.37504e-06,65,-123.18,-170.23,1.0833e+07,1e+06,-1.24185e-07,2.46315e-07,-7.24856e-08,-0.00837063,0.0328885,9.06454e-05,0.0382889,2,240
12,5.65354e-22,1,341,80.41,-3.37967e-06,8.90949e-07,-3.66033e-08,3.49533e-06,65,-123.18,-170.23,1.0833e+07,1e+06,-1.23173e-07,2.47093e-07,-7.32107e-08,-0.00805988,0.0331333,6.30355e-05,0.0383679,2,241
12,5.65354e-22,1,342,80.41,-3.502e-06,8.85404e-07,-3.68376e-08,3.61238e-06,65,-123.18,-170.23,1.0833e+07,1e+06,-1.20977e-07,2.46327e-07,-7.36748e-08,-0.00759379,0.0331678,4.12943e-05,0.0380883,2,242
12,5.65354e-22,1,343,80.41,-3.62163e-06,8.74587e-07,-3.69217e-08,3.72591e-06,65,-123.18,-170.23,1.0833e+07,1e+06,-1.17931e-07,2.44308e-07,-7.38419e-08,-0.0070281,0.0330406,2.92625e-05,0.0375633,2,243
12,5.65354e-22,1,344,80.41,-3.73786e-06,8.60166e-07,-3.68669e-08,3.83574e-06,65,-123.18,-170.23,1.0833e+07,1e+06,-1.14328e-07,2.41327e-07,-7.37325e-08,-0.00641086,0.0327912,2.37185e-05,0.036883,2,244
12,5.65354e-22,1,345,80.41,-3.85028e-06,8.43348e-07,-3.66948e-08,3.94173e-06,65,-123.18,-170.23,1.0833e+07,1e+06,-1.10353e-07,2.37617e-07,-7.33889e-08,-0.00576742,0.0324514,2.16263e-05,0.0361062,2,245
12,5.65354e-22,1,346,80.41,-3.95857e-06,8.24995e-07,-3.64297e-08,4.04379e-06,65,-123.18,-170.23,1.0833e+07,1e+06,-1.06109e-07,2.33357e-07,-7.2859e-08,-0.00510738,0.0320469,2.11115e-05,0.0352693,2,246
12,5.65354e-22,1,347,80.41,-4.0625e-06,8.05711e-07,-3.60941e-08,4.14178e-06,65,-123.18,-170.23,1.0833e+07,1e+06,-1.01651e-07,2.28685e-07,-7.2188e-08,-0.00443243,0.0315981,2.11408e-05,0.0343956,2,247
12,5.65354e-22,1,348,80.41,-4.16187e-06,7.8589e-07,-3.57079e-08,4.23557e-06,65,-123.18,-170.23,1.0833e+07,1e+06,-9.701e-08,2.23704e-07,-7.14156e-08,-0.00374079,0.0311211,2.1219e-05,0.0335008,2,248
12,5.65354e-22,1,349,80.41,-4.25652e-06,7.65753e-07,-3.52876e-08,4.32499e-06,65,-123.18,-170.23,1.0833e+07,1e+06,-9.22025e-08,2.18499e-07,-7.05753e-08,-0.00302907,0.0306286,2.11023e-05,0.0325966,2,249
12,5.65354e-22,1,350,80.41,-4.34628e-06,7.45389e-07,-3.48491e-08,4.40987e-06,65,-123.18,-170.23,1.0833e+07,1e+06,-8.72398e-08,2.13141e-07,-6.96998e-08,-0.00229333,0.0301321,2.01026e-05,0.0316943,2,250
12,5.65354e-22,1,351,80.41,-4.431e-06,7.24786e-07,-3.44135e-08,4.49002e-06,65,-123.18,-170.23,1.0833e+07,1e+06,-8.21731e-08,2.07738e-07,-6.8831e-08,-0.00153681,0.0296447,1.5033e-05,0.0308123,2,251
12,5.65354e-22,1,352,80.41,-4.51062e-06,7.03857e-07,-3.40173e-08,4.56534e-06,65,-123.18,-170.23,1.0833e+07,1e+06,-7.72666e-08,2.02543e-07,-6.80365e-08,-0.000805149,0.0291826,-3.9344e-06,0.0299978,2,252
12,5.65354e-22,1,353,80.41,-4.58553e-06,6.82472e-07,-3.36115e-08,4.63616e-06,65,-123.18,-170.23,1.0833e+07,1e+06,-7.30142e-08,1.98115e-07,-6.71999e-08,-0.000144636,0.0288418,3.94238e-06,0.0293707,2,253
12,5.89389e-22,1,354,80.41,-4.65665e-06,6.59062e-07,-3.42399e-08,4.70318e-06,65.1875,-123.18,-170.23,1.0833e+07,1e+06,-6.44771e-08,1.94837e-07,-6.84704e-08,0.000578931,0.0298183,0.000281278,0.0298804,2,254
12,6.4547e-22,1,355,162.01,-4.71449e-06,6.51464e-07,-3.67199e-08,4.75943e-06,65.625,-127.97,-104.66,1.0833e+07,1e+06,-4.84128e-08,1.89461e-07,-7.34264e-08,0.00106274,0.0316643,0.000792799,0.0311529,2,255
12,7.00461e-22,1,356,162.01,-4.75348e-06,6.72024e-07,-4.53294e-08,4.80096e-06,71.4375,-127.97,-104.66,1.0833e+07,1e+06,-2.45763e-08,1.84458e-07,-9.07072e-08,0.000700299,0.0339549,-0.000365398,0.03423,2,256
12,7.38338e-22,1,357,179.529,-4.76364e-06,6.59007e-07,-5.33704e-08,4.8093e-06,82.5,-34.91,-168.19,1.0833e+07,1e+06,1.74819e-09,1.78946e-07,-1.06789e-07,0.000653886,0.0367401,-0.000759153,0.0370592,2,257
12,7.5327e-22,1,358,179.529,-4.74998e-06,6.14973e-07,-5.438e-08,4.78993e-06,88,-34.91,-168.19,1.0833e+07,1e+06,1.49914e-08,1.71583e-07,-1.08712e-07,0.00122597,0.0372829,8.7302e-05,0.0366443,2,258
12,7.5327e-22,1,359,179.529,-4.73366e-06,5.9218e-07,-5.38805e-08,4.77086e-06,88,-34.91,-168.19,1.0833e+07,1e+06,1.65103e-08,1.67213e-07,-1.07742e-07,0.00146292,0.0362707,-6.9643e-05,0.0356284,2,259
12,7.5327e-22,1,360,179.529,-4.71696e-06,5.82399e-07,-5.32133e-08,4.75308e-06,88,-34.91,-168.19,1.0833e+07,1e+06,1.64461e-08,1.65291e-07,-1.0643e-07,0.00146603,0.0358991,-3.58579e-05,0.0352582,2,260
12,7.5327e-22,1,361,179.529,-4.70076e-06,5.8069e-07,-5.29832e-08,4.73679e-06,88,-34.91,-168.19,1.0833e+07,1e+06,1.5777e-08,1.6532e-07,-1.05968e-07,0.00131961,0.0359372,-1.57034e-05,0.0353666,2,261
12,7.5327e-22,1,362,179.529,-4.68541e-06,5.84124e-07,-5.30817e-08,4.72198e-06,88,-34.91,-168.19,1.0833e+07,1e+06,1.48316e-08,1.66648e-07,-1.06163e-07,0.0010978,0.0362453,-9.30038e-06,0.0357795,2,262
12,7.5327e-22,1,363,179.529,-4.6711e-06,5.90736e-07,-5.33757e-08,4.70861e-06,88,-34.91,-168.19,1.0833e+07,1e+06,1.37116e-08,1.68801e-07,-1.06751e-07,0.000832021,0.0367282,-5.46254e-06,0.0363841,2,263
12,7.5327e-22,1,364,179.529,-4.65798e-06,5.99149e-07,-5.3779e-08,4.69667e-06,88,-34.91,-168.19,1.0833e+07,1e+06,1.24795e-08,1.71433e-07,-1.07557e-07,0.00053952,0.0373122,-2.62399e-06,0.0371006,2,264
12,7.5327e-22,1,365,179.529,-4.64614e-06,6.08337e-07,-5.42261e-08,4.68611e-06,88,-34.91,-168.19,1.0833e+07,1e+06,1.11789e-08,1.74276e-07,-1.08451e-07,0.000232208,0.0379391,-8.2977e-07,0.0378672,2,265
12,7.5327e-22,1,366,179.529,-4.63563e-06,6.17504e-07,-5.46591e-08,4.67689e-06,88,-34.91,-168.19,1.0833e+07,1e+06,9.83362e-09,1.77106e-07,-1.09316e-07,-8.25852e-05,0.0385602,-2.35016e-07,0.0386336,2,266
12,7.5327e-22,1,367,179.529,-4.62647e-06,6.26057e-07,-5.50265e-08,4.66897e-06,88,-34.91,-168.19,1.0833e+07,1e+06,8.44731e-09,1.79741e-07,-1.10051e-07,-0.000402572,0.0391362,-1.16719e-06,0.0393608,2,267
12,7.5327e-22,1,368,179.529,-4.61873e-06,6.33636e-07,-5.52864e-08,4.66232e-06,88,-34.91,-168.19,1.0833e+07,1e+06,7.00144e-09,1.82055e-07,-1.1057e-07,-0.000731294,0.0396404,-3.91542e-06,0.0400254,2,268
12,7.5327e-22,1,369,179.529,-4.61247e-06,6.40218e-07,-5.5411e-08,4.65702e-06,88,-34.91,-168.19,1.0833e+07,1e+06,5.45689e-09,1.83997e-07,-1.1082e-07,-0.00107769,0.0400643,-7.67631e-06,0.0406243,2,269
12,7.5327e-22,1,370,179.529,-4.60782e-06,6.46257e-07,-5.53907e-08,4.65325e-06,88,-34.91,-168.19,1.0833e+07,1e+06,3.76057e-09,1.85589e-07,-1.1078e-07,-0.00145642,0.0404155,-1.27244e-05,0.0411734,2,270
12,7.5327e-22,1,371,179.529,-4.60495e-06,6.5301e-07,-5.52357e-08,4.65135e-06,88,-34.91,-168.19,1.0833e+07,1e+06,1.91351e-09,1.86935e-07,-1.10456e-07,-0.00186586,0.0407303,-5.53919e-06,0.0417019,2,271
12,7.5327e-22,1,372,179.529,-4.60399e-06,6.63349e-07,-5.48631e-08,4.65186e-06,88,-34.91,-168.19,1.0833e+07,1e+06,-1.41139e-10,1.87616e-07,-1.09671e-07,-0.00233404,0.0409108,-9.60838e-06,0.042139,2,272
12,7.5327e-22,1,373,179.529,-4.60523e-06,6.81713e-07,-5.37946e-08,4.65573e-06,88,-34.91,-168.19,1.0833e+07,1e+06,-2.47141e-09,1.86175e-07,-1.07798e-07,-0.00290047,0.0406128,-8.63636e-05,0.042202,2,273
12,7.29645e-22,1,374,179.529,-4.60893e-06,7.1576e-07,-5.08345e-08,4.66446e-06,88.6875,-34.91,-168.19,1.01872e+07,968750,-6.12344e-09,1.79052e-07,-1.01519e-07,-0.00314978,0.0384735,-0.000309202,0.0404018,2,274
12,6.35145e-22,1,375,179.529,-4.61748e-06,7.52288e-07,-4.66228e-08,4.67859e-06,91.4375,-34.91,-168.19,7.60394e+06,843750,-1.55046e-08,1.80858e-07,-9.32206e-08,-0.00255428,0.0364642,-0.000180964,0.0382566,2,275
12,4.93396e-22,2,376,93.06,-4.63994e-06,7.55694e-07,-4.46365e-08,4.70129e-06,95.5625,38.02,137.36,3.72906e+06,656250,-2.97025e-08,1.98166e-07,-8.95176e-08,-0.00171151,0.0360945,0.000268005,0.0373369,3,99
12,3.98896e-22,2,377,93.06,-4.67688e-06,7.18711e-07,-4.43506e-08,4.73199e-06,98.3125,38.02,137.36,1.14581e+06,531250,-3.8207e-08,2.05135e-07,-8.84798e-08,-0.00150227,0.0344065,0.000232514,0.0353869,3,100
12,3.75271e-22,2,378,93.06,-4.71636e-06,6.63766e-07,-4.20047e-08,4.76302e-06,99,38.02,137.36,500000,500000,-3.79122e-08,1.91674e-07,-8.39677e-08,-0.00174897,0.0309863,-6.35321e-05,0.0320899,3,101
12,3.75271e-22,2,379,93.06,-4.75271e-06,6.08028e-07,-3.78477e-08,4.79159e-06,99,38.02,137.36,500000,500000,-3.53772e-08,1.72857e-07,-7.57691e-08,-0.00190114,0.0277742,-7.79239e-05,0.0289344,3,102
12,3.75271e-22,2,380,93.06,-4.78711e-06,5.58057e-07,-3.36935e-08,4.81965e-06,99,38.02,137.36,500000,500000,-3.40878e-08,1.5716e-07,-6.74009e-08,-0.00201605,0.0252805,6.24443e-06,0.0264674,3,103
12,3.75271e-22,2,381,93.06,-4.82088e-06,5.16335e-07,-2.99004e-08,4.84855e-06,99,38.02,137.36,500000,500000,-3.38293e-08,1.43694e-07,-5.9861e-08,-0.00224852,0.0231574,-7.43441e-06,0.0245013,3,104
12,3.75271e-22,2,382,93.06,-4.85477e-06,4.83944e-07,-2.65153e-08,4.8789e-06,99,38.02,137.36,500000,500000,-3.44326e-08,1.3283e-07,-5.2897e-08,-0.00250506,0.0215277,-3.57506e-06,0.0230566,3,105
12,3.75271e-22,2,383,93.06,-4.88975e-06,4.62982e-07,-2.28404e-08,4.91167e-06,99,38.02,137.36,500000,500000,-3.5505e-08,1.23137e-07,-4.56414e-08,-0.00269837,0.0202314,1.93102e-05,0.0219766,3,106
12,3.94405e-22,2,384,93.06,-4.92578e-06,4.62639e-07,-2.01925e-08,4.9475e-06,100.25,38.02,137.36,1.14581e+06,531250,-3.84016e-08,1.20096e-07,-4.05026e-08,-0.00289632,0.0202092,7.34459e-05,0.0221797,3,107
12,4.9007e-22,2,385,93.06,-4.96655e-06,4.83413e-07,-1.93084e-08,4.99006e-06,106.5,38.02,137.36,4.37488e+06,687500,-4.68556e-08,1.34105e-07,-3.85948e-08,-0.00284778,0.0241107,0.000491697,0.0257704,3,108
12,6.24002e-22,1,386,64.15,-5.01949e-06,5.21492e-07,-1.96251e-08,5.04655e-06,115.25,-139.18,-156.59,8.89556e+06,906250,-5.78951e-08,1.53214e-07,-3.92939e-08,-0.00286088,0.029309,0.00042184,0.0307636,2,276
12,6.81402e-22,1,387,64.15,-5.08234e-06,5.65783e-07,-2.07792e-08,5.11378e-06,119,-139.18,-156.59,1.0833e+07,1e+06,-6.46075e-08,1.64193e-07,-4.15429e-08,-0.00320087,0.0319973,-2.465e-05,0.033749,2,277
12,6.81402e-22,1,388,64.15,-5.14871e-06,6.02822e-07,-2.1704e-08,5.18392e-06,119,-139.18,-156.59,1.0833e+07,1e+06,-6.75439e-08,1.71994e-07,-4.33699e-08,-0.00333702,0.0336155,-1.39986e-06,0.0354556,2,278
12,6.81402e-22,1,389,64.15,-5.21743e-06,6.33627e-07,-2.25996e-08,5.25581e-06,119,-139.18,-156.59,1.0833e+07,1e+06,-6.97955e-08,1.79387e-07,-4.52038e-08,-0.00331263,0.0351977,3.1944e-05,0.0370386,2,279
12,6.81402e-22,1,390,64.15,-5.2883e-06,6.59112e-07,-2.35514e-08,5.32926e-06,119,-139.18,-156.59,1.0833e+07,1e+06,-7.16923e-08,1.86334e-07,-4.71105e-08,-0.00322724,0.0366709,3.15778e-05,0.0384846,2,280
12,6.81402e-22,1,391,64.15,-5.36082e-06,6.80789e-07,-2.44766e-08,5.40393e-06,119,-139.18,-156.59,1.0833e+07,1e+06,-7.30135e-08,1.92513e-07,-4.89538e-08,-0.00304206,0.0379899,2.13071e-05,0.0397142,2,281
12,6.81402e-22,1,392,64.15,-5.43432e-06,6.99878e-07,-2.53552e-08,5.47927e-06,119,-139.18,-156.59,1.0833e+07,1e+06,-7.37118e-08,1.97959e-07,-5.0711e-08,-0.00274133,0.039181,1.21482e-05,0.0407431,2,282
12,6.81402e-22,1,393,64.15,-5.50824e-06,7.17293e-07,-2.61961e-08,5.55481e-06,119,-139.18,-156.59,1.0833e+07,1e+06,-7.38999e-08,2.02806e-07,-5.23927e-08,-0.00234617,0.0402685,5.00324e-06,0.0416107,2,283
12,6.81402e-22,1,394,64.15,-5.58212e-06,7.3379e-07,-2.70133e-08,5.63021e-06,119,-139.18,-156.59,1.0833e+07,1e+06,-7.37266e-08,2.07224e-07,-5.40271e-08,-0.001883,0.0412777,-1.4609e-06,0.0423601,2,284
12,6.81402e-22,1,395,64.15,-5.65569e-06,7.50068e-07,-2.78272e-08,5.70528e-06,119,-139.18,-156.59,1.0833e+07,1e+06,-7.33511e-08,2.11423e-07,-5.56546e-08,-0.0013771,0.0422395,-8.44294e-06,0.0430384,2,285
12,6.81402e-22,1,396,64.15,-5.72883e-06,7.66794e-07,-2.86641e-08,5.77999e-06,119,-139.18,-156.59,1.0833e+07,1e+06,-7.29427e-08,2.15663e-07,-5.73282e-08,-0.000851861,0.0431967,-1.64018e-05,0.0437036,2,286
12,6.81402e-22,1,397,64.15,-5.80158e-06,7.84514e-07,-2.9556e-08,5.85445e-06,119,-139.18,-156.59,1.0833e+07,1e+06,-7.2673e-08,2.20255e-07,-5.91109e-08,-0.0003278,0.0442075,-2.49423e-05,0.0444287,2,287
12,6.81402e-22,1,398,64.15,-5.87417e-06,8.03384e-07,-3.05325e-08,5.92893e-06,119,-139.18,-156.59,1.0833e+07,1e+06,-7.27157e-08,2.25522e-07,-6.10496e-08,0.000172107,0.0453426,-3.09822e-05,0.0452994,2,288
12,6.81402e-22,1,399,64.15,-5.94701e-06,8.22533e-07,-3.1525e-08,6.0037e-06,119,-139.18,-156.59,1.0833e+07,1e+06,-7.31946e-08,2.3179e-07,-6.31191e-08,0.000632748,0.0467098,-1.50068e-05,0.0464248,2,289
12,6.81402e-22,1,400,64.15,-6.02056e-06,8.38129e-07,-3.25616e-08,6.07871e-06,119,-139.18,-156.59,1.0833e+07,1e+06,-7.3562e-08,2.38907e-07,-6.43629e-08,0.00119088,0.0485794,0.000286025,0.0478959,2,290
12,6.81402e-22,1,401,64.15,-6.09413e-06,8.39968e-07,-3.07146e-08,6.15182e-06,119,-139.18,-156.59,1.0833e+07,1e+06,-7.10791e-08,2.44037e-07,-6.27374e-08,0.00246299,0.0507871,0.00138573,0.0490409,2,291
12,6.14097e-22,1,402,64.15,-6.16272e-06,8.21582e-07,-3.97546e-08,6.21737e-06,120.125,-139.18,-156.59,8.89556e+06,906250,-6.02716e-08,2.46692e-07,-7.98029e-08,0.00307756,0.0486857,-0.000512448,0.0487298,2,292
12,4.57051e-22,2,403,106.24,-6.21468e-06,7.43928e-07,-5.40472e-08,6.25928e-06,122.75,-1.3,-30.28,4.37488e+06,687500,-4.53148e-08,2.38963e-07,-1.07867e-07,0.0013652,0.0386962,-0.00177913,0.0405414,3,109
12,3.44876e-22,2,404,106.24,-6.25335e-06,6.01761e-07,-6.10537e-08,6.28253e-06,124.625,-1.3,-30.28,1.14581e+06,531250,-3.80746e-08,2.2928e-07,-1.21436e-07,-0.000636785,0.0300669,-2.06018e-05,0.0309314,3,110
12,6.45258e-22,1,405,73.27,-5.31943e-08,8.9504e-07,-2.38939e-08,8.96938e-07,8,-129.16,-171.71,1.0833e+07,1e+06,-1.06098e-07,1.88273e-07,-4.7977e-08,-0.00931149,0.0253642,0.000899464,0.0310113,2,293
12,5.58825e-22,1,406,73.27,-1.59001e-07,9.43921e-07,-3.00569e-08,9.5769e-07,9.75,-129.16,-171.71,8.24975e+06,875000,-9.70669e-08,1.89447e-07,-6.02895e-08,-0.0093742,0.0249278,-0.000637517,0.0314774,2,294
12,3.8596e-22,2,407,91.58,-2.47328e-07,9.65793e-07,-4.21581e-08,9.9785e-07,13.25,16.06,146.57,3.08325e+06,625000,-7.93065e-08,1.99192e-07,-8.37888e-08,-0.00969922,0.0257526,-0.000601723,0.0329887,3,111
12,2.99527e-22,2,408,91.58,-3.17614e-07,9.58066e-07,-5.0153e-08,1.01059e-06,15,16.06,146.57,500000,500000,-6.91753e-08,2.07224e-07,-1.0021e-07,-0.00992722,0.0261496,-0.000406089,0.0334546,3,112
12,2.99527e-22,2,409,91.58,-3.85679e-07,9.56705e-07,-5.04624e-08,1.03275e-06,15,16.06,146.57,500000,500000,-6.7572e-08,2.08407e-07,-1.01742e-07,-0.00971506,0.026324,-0.000267937,0.033433,3,113
12,2.99527e-22,2,410,91.58,-4.52758e-07,9.55045e-07,-5.10793e-08,1.05816e-06,15,16.06,146.57,500000,500000,-6.8339e-08,2.10189e-07,-1.02627e-07,-0.00969716,0.026338,-0.000245505,0.0333256,3,114
12,2.99527e-22,2,411,91.58,-5.22357e-07,9.39365e-07,-5.2896e-08,1.07613e-06,15,16.06,146.57,500000,500000,-7.15579e-08,2.15998e-07,-1.05105e-07,-0.0097853,0.0265256,-0.000298407,0.0333774,3,115
12,2.99527e-22,2,412,91.58,-5.95873e-07,8.85893e-07,-5.32209e-08,1.06897e-06,15,16.06,146.57,500000,500000,-7.28123e-08,2.14178e-07,-1.05298e-07,-0.00972533,0.0254473,-0.000645673,0.0320711,3,116
12,3.03453e-22,2,413,91.58,-6.67981e-07,7.97986e-07,-4.84558e-08,1.04179e-06,15.5,16.06,146.57,500000,500000,-6.88812e-08,1.95787e-07,-9.65546e-08,-0.00910549,0.0229264,-0.00113414,0.0293852,3,117
12,3.19157e-22,2,414,91.58,-7.33636e-07,7.14909e-07,-4.1226e-08,1.02519e-06,17.5,16.06,146.57,500000,500000,-6.71454e-08,1.91569e-07,-8.37996e-08,-0.00655765,0.0240198,-0.000481366,0.0292887,3,118
12,3.42713e-22,2,415,153.64,-8.02272e-07,6.72056e-07,-3.77371e-08,1.04725e-06,20.5,-177.01,-156.76,500000,500000,-7.72135e-08,2.1817e-07,-7.6524e-08,-0.00270062,0.0289162,0.00071733,0.0316214,3,119
12,3.58417e-22,2,416,153.64,-8.88063e-07,6.81796e-07,-3.82652e-08,1.12025e-06,22.5,-177.01,-156.76,500000,500000,-9.29508e-08,2.4077e-07,-7.5654e-08,-0.00100177,0.0308787,0.000288037,0.0322004,3,120
12,3.62343e-22,2,417,153.64,-9.88174e-07,7.20501e-07,-3.86406e-08,1.22356e-06,23,-177.01,-156.76,500000,500000,-1.01017e-07,2.46412e-07,-7.66317e-08,-0.0012035,0.0304813,-0.000534775,0.0318774,3,121
12,3.62343e-22,2,418,153.64,-1.0901e-06,7.58009e-07,-3.78738e-08,1.32828e-06,23,-177.01,-156.76,500000,500000,-1.01866e-07,2.44963e-07,-7.62105e-08,-0.00150253,0.0301497,-0.000688319,0.0317833,3,122
12,3.62343e-22,2,419,153.64,-1.19191e-06,7.80522e-07,-3.78756e-08,1.42523e-06,23,-177.01,-156.76,500000,500000,-1.03167e-07,2.48796e-07,-7.56558e-08,-0.00145809,0.031039,-0.000332101,0.032613,3,123
12,4.36622e-22,2,420,153.64,-1.29643e-06,7.85295e-07,-3.96354e-08,1.51624e-06,26.0625,-177.01,-156.76,3.08325e+06,625000,-1.00248e-07,2.51842e-07,-7.88168e-08,-0.00136895,0.0344026,-0.00105482,0.0365005,3,124
12,5.85179e-22,1,421,80.81,-1.3924e-06,7.53694e-07,-3.90412e-08,1.58378e-06,32.1875,-129.97,-177.44,8.24975e+06,875000,-8.91771e-08,2.40598e-07,-7.8353e-08,-0.00086885,0.0371374,-0.00120829,0.038863,2,295
12,6.59458e-22,1,422,80.81,-1.47479e-06,7.09982e-07,-3.73125e-08,1.63721e-06,35.25,-129.97,-177.44,1.0833e+07,1e+06,-7.96081e-08,2.30093e-07,-7.48909e-08,0.000157549,0.0374699,-0.000155492,0.0378421,2,296
12,6.68565e-22,1,423,80.81,-1.55162e-06,6.96535e-07,-3.85192e-08,1.70122e-06,35.4375,-129.97,-177.44,1.0833e+07,1e+06,-7.91239e-08,2.2864e-07,-7.70819e-08,0.000220424,0.0359551,-0.000270085,0.0362854,2,297
12,6.86778e-22,1,424,80.81,-1.63303e-06,7.03023e-07,-4.15502e-08,1.77842e-06,35.8125,-129.97,-177.44,1.0833e+07,1e+06,-8.58116e-08,2.32459e-07,-8.29324e-08,-0.000520096,0.032975,-0.000871562,0.0338054,2,298
12,6.95884e-22,1,425,80.81,-1.72324e-06,7.07843e-07,-4.29251e-08,1.86345e-06,36,-129.97,-177.44,1.0833e+07,1e+06,-9.22998e-08,2.34234e-07,-8.56429e-08,-0.00159036,0.0308278,-0.0013342,0.0323689,2,299
12,6.86778e-22,1,426,80.81,-1.81763e-06,6.96516e-07,-4.03461e-08,1.94693e-06,35.8125,-129.97,-177.44,1.0833e+07,1e+06,-9.35952e-08,2.30393e-07,-8.06141e-08,-0.00279699,0.0318418,-0.00119467,0.0341515,2,300
12,6.68565e-22,1,427,80.81,-1.91043e-06,6.79945e-07,-3.61761e-08,2.02815e-06,35.4375,-129.97,-177.44,1.0833e+07,1e+06,-9.19363e-08,2.2544e-07,-7.25303e-08,-0.00337962,0.0341674,-0.00056362,0.0366195,2,301
12,6.59458e-22,1,428,80.81,-2.00151e-06,6.82319e-07,-3.44205e-08,2.11489e-06,35.25,-129.97,-177.44,1.0833e+07,1e+06,-9.26638e-08,2.252e-07,-6.90904e-08,-0.00382422,0.0352845,-1.04917e-05,0.0378221,2,302
12,6.68565e-22,1,429,80.81,-2.09576e-06,7.22818e-07,-3.58358e-08,2.2172e-06,35.4375,-129.97,-177.44,1.0833e+07,1e+06,-9.73964e-08,2.27791e-07,-7.12147e-08,-0.00487113,0.0341459,6.08106e-05,0.0376016,2,303
12,6.03841e-22,1,430,80.81,-2.1963e-06,8.02588e-07,-3.652e-08,2.33863e-06,36.8125,-129.97,-177.44,8.24975e+06,875000,-9.37884e-08,2.17395e-07,-7.22449e-08,-0.00629058,0.0308915,-0.000436929,0.0357745,2,304
12,4.47073e-22,2,431,152.99,-2.28334e-06,8.70331e-07,-3.22283e-08,2.4438e-06,39,-64.12,170.81,3.08325e+06,625000,-7.66844e-08,1.94068e-07,-6.49681e-08,-0.00648039,0.0292937,-0.000387673,0.0341511,3,125
12,3.64136e-22,2,432,152.99,-2.34967e-06,8.89919e-07,-2.76544e-08,2.5127e-06,40,-64.12,170.81,500000,500000,-6.3133e-08,1.76533e-07,-5.62022e-08,-0.00531216,0.0288387,0.000382165,0.0323651,3,126
12,3.54164e-22,2,433,152.99,-2.4096e-06,8.89243e-07,-2.83449e-08,2.56861e-06,40.5,-64.12,170.81,500000,500000,-5.8477e-08,1.69558e-07,-5.70531e-08,-0.00469941,0.0271042,0.000178814,0.0302985,3,127
12,3.94497e-22,2,434,91.8,-2.46662e-06,8.63172e-07,-3.20962e-08,2.61349e-06,47.25,144.53,-35.18,3.08325e+06,625000,-6.71898e-08,1.82798e-07,-6.34824e-08,-0.00477529,0.0270769,0.000124303,0.0303437,3,128
12,5.05078e-22,1,435,80.41,-2.54398e-06,8.69005e-07,-3.49074e-08,2.68854e-06,59.25,-123.18,-170.23,8.24975e+06,875000,-9.08522e-08,2.0979e-07,-6.92921e-08,-0.00534938,0.0284312,0.000128825,0.0317377,2,305
12,5.65354e-22,1,436,80.41,-2.64833e-06,9.33139e-07,-3.59629e-08,2.80814e-06,65,-123.18,-170.23,1.0833e+07,1e+06,-1.09446e-07,2.29371e-07,-7.24499e-08,-0.00632331,0.0299353,-7.91461e-05,0.0336246,2,306
12,5.65354e-22,1,437,80.41,-2.76287e-06,9.97531e-07,-3.68311e-08,2.93767e-06,65,-123.18,-170.23,1.0833e+07,1e+06,-1.16367e-07,2.39018e-07,-7.37445e-08,-0.0071023,0.0313282,1.67429e-05,0.0354434,2,307
12,5.65354e-22,1,438,80.41,-2.88106e-06,1.05278e-06,-3.71495e-08,3.06761e-06,65,-123.18,-170.23,1.0833e+07,1e+06,-1.18442e-07,2.43063e-07,-7.42534e-08,-0.00724743,0.0321896,2.48472e-05,0.0364597,2,308
12,5.65354e-22,1,439,80.41,-2.99976e-06,1.09395e-06,-3.71337e-08,3.19322e-06,65,-123.18,-170.23,1.0833e+07,1e+06,-1.18331e-07,2.44128e-07,-7.42419e-08,-0.00714262,0.03269,8.10122e-06,0.0370654,2,309
12,5.65354e-22,1,440,80.41,-3.11772e-06,1.12041e-06,-3.69955e-08,3.31314e-06,65,-123.18,-170.23,1.0833e+07,1e+06,-1.17526e-07,2.43984e-07,-7.39705e-08,-0.00696614,0.0329672,1.69346e-05,0.0374168,2,310
12,5.65354e-22,1,441,80.41,-3.23481e-06,1.13352e-06,-3.68603e-08,3.42786e-06,65,-123.18,-170.23,1.0833e+07,1e+06,-1.16672e-07,2.43511e-07,-7.37293e-08,-0.00680109,0.0330999,2.72798e-05,0.0375815,2,311
12,5.65354e-22,1,442,80.41,-3.35107e-06,1.13562e-06,-3.67872e-08,3.53845e-06,65,-123.18,-170.23,1.0833e+07,1e+06,-1.15758e-07,2.42847e-07,-7.35841e-08,-0.00663489,0.0331242,3.3201e-05,0.0375644,2,312
12,5.65354e-22,1,443,80.41,-3.46633e-06,1.12924e-06,-3.67335e-08,3.64581e-06,65,-123.18,-170.23,1.0833e+07,1e+06,-1.14537e-07,2.41747e-07,-7.34721e-08,-0.00643378,0.0330418,2.97509e-05,0.037363,2,313
12,5.65354e-22,1,444,80.41,-3.58014e-06,1.11663e-06,-3.66484e-08,3.75042e-06,65,-123.18,-170.23,1.0833e+07,1e+06,-1.12833e-07,2.40038e-07,-7.32988e-08,-0.00616872,0.032866,2.37991e-05,0.0369968,2,314
12,5.65354e-22,1,445,80.41,-3.69199e-06,1.09956e-06,-3.65017e-08,3.85243e-06,65,-123.18,-170.23,1.0833e+07,1e+06,-1.10616e-07,2.37674e-07,-7.30039e-08,-0.00583596,0.0326114,1.93252e-05,0.0364999,2,315
12,5.65354e-22,1,446,80.41,-3.80137e-06,1.0794e-06,-3.62831e-08,3.95182e-06,65,-123.18,-170.23,1.0833e+07,1e+06,-1.07915e-07,2.34685e-07,-7.25664e-08,-0.00544083,0.032292,1.69837e-05,0.0359041,2,316
12,5.65354e-22,1,447,80.41,-3.90782e-06,1.05714e-06,-3.5996e-08,4.04845e-06,65,-123.18,-170.23,1.0833e+07,1e+06,-1.04769e-07,2.31127e-07,-7.19923e-08,-0.00498742,0.0319203,1.599e-05,0.0352324,2,317
12,5.65354e-22,1,448,80.41,-4.01091e-06,1.03348e-06,-3.56509e-08,4.14207e-06,65,-123.18,-170.23,1.0833e+07,1e+06,-1.01207e-07,2.2707e-07,-7.13024e-08,-0.00447751,0.0315077,1.52538e-05,0.0345014,2,318
12,5.65354e-22,1,449,80.41,-4.11024e-06,1.00893e-06,-3.5262e-08,4.2324e-06,65,-123.18,-170.23,1.0833e+07,1e+06,-9.72674e-08,2.22596e-07,-7.05243e-08,-0.00391301,0.0310652,1.39844e-05,0.0337249,2,319
12,5.65354e-22,1,450,80.41,-4.20545e-06,9.83796e-07,-3.48441e-08,4.31913e-06,65,-123.18,-170.23,1.0833e+07,1e+06,-9.29997e-08,2.17799e-07,-6.96879e-08,-0.00329775,0.0306042,1.20306e-05,0.032918,2,320
12,5.65354e-22,1,451,80.41,-4.29624e-06,9.58246e-07,-3.44126e-08,4.40194e-06,65,-123.18,-170.23,1.0833e+07,1e+06,-8.84672e-08,2.12793e-07,-6.8825e-08,-0.00263673,0.0301386,9.78536e-06,0.032099,2,321
12,5.65354e-22,1,452,80.41,-4.38238e-06,9.32389e-07,-3.39883e-08,4.4806e-06,65,-123.18,-170.23,1.0833e+07,1e+06,-8.37324e-08,2.0772e-07,-6.79832e-08,-0.00193212,0.0296867,6.79639e-06,0.0312896,2,322
12,5.65354e-22,1,453,80.41,-4.4637e-06,9.06416e-07,-3.36249e-08,4.55493e-06,65,-123.18,-170.23,1.0833e+07,1e+06,-7.88195e-08,2.02805e-07,-6.72712e-08,-0.00116848,0.0292824,-6.88092e-07,0.0305176,2,323
12,5.65354e-22,1,454,80.41,-4.54002e-06,8.80746e-07,-3.33852e-08,4.62478e-06,65,-123.18,-170.23,1.0833e+07,1e+06,-7.40924e-08,1.98535e-07,-6.68261e-08,-0.000389472,0.0289733,-2.35176e-05,0.0298537,2,324
12,5.73366e-22,1,455,80.41,-4.61189e-06,8.55905e-07,-3.39534e-08,4.69076e-06,65.0625,-123.18,-170.23,1.0833e+07,1e+06,-6.93559e-08,1.97286e-07,-6.75239e-08,0.000343537,0.0294657,0.000133792,0.0298613,2,325
12,6.13424e-22,1,456,80.41,-4.67873e-06,8.43351e-07,-3.47876e-08,4.75426e-06,65.375,-123.18,-170.23,1.0833e+07,1e+06,-5.77622e-08,1.93974e-07,-6.98064e-08,0.000918101,0.0311104,0.000888338,0.0307082,2,326
12,6.84438e-22,1,457,162.01,-4.72741e-06,8.55349e-07,-4.26778e-08,4.80436e-06,71.3125,-127.97,-104.66,1.0833e+07,1e+06,-2.98296e-08,1.82393e-07,-8.5737e-08,0.000497036,0.0328474,-0.000218576,0.0331518,2,327
12,7.38338e-22,1,458,179.529,-4.73839e-06,8.34952e-07,-5.12774e-08,4.81166e-06,82.5,-34.91,-168.19,1.0833e+07,1e+06,6.33568e-10,1.72098e-07,-1.02221e-07,0.000387499,0.0352881,-0.00072406,0.0356934,2,328
12,7.5327e-22,1,459,179.529,-4.72614e-06,7.84588e-07,-5.22422e-08,4.79111e-06,88,-34.91,-168.19,1.0833e+07,1e+06,1.25732e-08,1.67719e-07,-1.04455e-07,0.000831126,0.0365401,0.000220647,0.0360299,2,329
12,7.5327e-22,1,460,179.529,-4.71324e-06,7.58398e-07,-5.2056e-08,4.77415e-06,88,-34.91,-168.19,1.0833e+07,1e+06,1.28947e-08,1.64999e-07,-1.04146e-07,0.000726176,0.0358573,-2.7217e-05,0.0355458,2,330
12,7.5327e-22,1,461,179.529,-4.70035e-06,7.47122e-07,-5.17134e-08,4.75964e-06,88,-34.91,-168.19,1.0833e+07,1e+06,1.27023e-08,1.63967e-07,-1.03433e-07,0.000662205,0.035669,-2.81119e-05,0.0354174,2,331
12,7.5327e-22,1,462,179.529,-4.68784e-06,7.45703e-07,-5.17162e-08,4.74706e-06,88,-34.91,-168.19,1.0833e+07,1e+06,1.21904e-08,1.64578e-07,-1.03436e-07,0.000531698,0.0358345,-1.54811e-05,0.0356609,2,332
12,7.5327e-22,1,463,179.529,-4.67597e-06,7.50634e-07,-5.19864e-08,4.73613e-06,88,-34.91,-168.19,1.0833e+07,1e+06,1.14307e-08,1.66288e-07,-1.03974e-07,0.000339574,0.0362271,-1.1431e-05,0.0361552,2,333
12,7.5327e-22,1,464,179.529,-4.66498e-06,7.59517e-07,-5.24088e-08,4.72669e-06,88,-34.91,-168.19,1.0833e+07,1e+06,1.04729e-08,1.68711e-07,-1.04817e-07,0.00010234,0.0367695,-8.38174e-06,0.036813,2,334
12,7.5327e-22,1,465,179.529,-4.65503e-06,7.70655e-07,-5.29092e-08,4.71869e-06,88,-34.91,-168.19,1.0833e+07,1e+06,9.3601e-09,1.71554e-07,-1.05817e-07,-0.000168777,0.0373997,-5.82842e-06,0.0375699,2,335
12,7.5327e-22,1,466,179.529,-4.64626e-06,7.82766e-07,-5.34287e-08,4.71204e-06,88,-34.91,-168.19,1.0833e+07,1e+06,8.13079e-09,1.74575e-07,-1.06856e-07,-0.000463664,0.0380657,-3.84497e-06,0.0383719,2,336
12,7.5327e-22,1,467,179.529,-4.63877e-06,7.94834e-07,-5.39113e-08,4.70668e-06,88,-34.91,-168.19,1.0833e+07,1e+06,6.812e-09,1.77554e-07,-1.07822e-07,-0.000774631,0.03872,-2.53577e-06,0.0391701,2,337
12,7.5327e-22,1,468,179.529,-4.63263e-06,8.06073e-07,-5.4304e-08,4.70255e-06,88,-34.91,-168.19,1.0833e+07,1e+06,5.41892e-09,1.80293e-07,-1.08607e-07,-0.001097,0.0393199,-2.14108e-06,0.039922,2,338
12,7.5327e-22,1,469,179.529,-4.62793e-06,8.15986e-07,-5.45626e-08,4.69963e-06,88,-34.91,-168.19,1.0833e+07,1e+06,3.95431e-09,1.82638e-07,-1.09125e-07,-0.00142972,0.0398329,-2.84595e-06,0.0405964,2,339
12,7.5327e-22,1,470,179.529,-4.62473e-06,8.24477e-07,-5.46577e-08,4.69796e-06,88,-34.91,-168.19,1.0833e+07,1e+06,2.408e-09,1.84495e-07,-1.09315e-07,-0.00177593,0.040241,-4.75581e-06,0.0411787,2,340
12,7.5327e-22,1,471,179.529,-4.62311e-06,8.31993e-07,-5.45747e-08,4.6977e-06,88,-34.91,-168.19,1.0833e+07,1e+06,7.61684e-10,1.85834e-07,-1.09145e-07,-0.00214164,0.0405408,-6.93363e-06,0.0416696,2,341
12,7.5327e-22,1,472,179.529,-4.6232e-06,8.39788e-07,-5.42829e-08,4.69917e-06,88,-34.91,-168.19,1.0833e+07,1e+06,-1.00035e-09,1.86588e-07,-1.0855e-07,-0.00253161,0.0407245,-5.87354e-06,0.042063,2,342
12,7.5327e-22,1,473,179.529,-4.62511e-06,8.502e-07,-5.36411e-08,4.70291e-06,88,-34.91,-168.19,1.0833e+07,1e+06,-2.85531e-09,1.86282e-07,-1.07266e-07,-0.00293977,0.0406935,-1.13773e-06,0.0422602,2,343
12,7.5327e-22,1,474,179.529,-4.62891e-06,8.66809e-07,-5.22862e-08,4.70966e-06,88,-34.91,-168.19,1.0833e+07,1e+06,-4.47909e-09,1.83834e-07,-1.04634e-07,-0.00325379,0.0402367,5.61555e-05,0.0419697,2,344
12,7.5327e-22,1,475,179.529,-4.63407e-06,8.91736e-07,-4.98372e-08,4.71935e-06,88,-34.91,-168.19,1.0833e+07,1e+06,-5.55848e-09,1.75874e-07,-9.96526e-08,-0.00345449,0.038496,-1.4305e-05,0.040382,2,345
12,7.29645e-22,1,476,179.529,-4.64003e-06,9.21415e-07,-4.64776e-08,4.73086e-06,88.6875,-34.91,-168.19,1.01872e+07,968750,-8.57855e-09,1.67184e-07,-9.27551e-08,-0.00350539,0.0360066,-0.00021699,0.0381015,2,346
12,6.35145e-22,1,477,179.529,-4.65123e-06,9.40606e-07,-4.35129e-08,4.74558e-06,91.4375,-34.91,-168.19,7.60394e+06,843750,-1.84016e-08,1.73469e-07,-8.74701e-08,-0.00315999,0.0349329,-0.000167642,0.0370369,2,347
12,4.93396e-22,2,478,93.06,-4.67683e-06,9.21269e-07,-4.28728e-08,4.7669e-06,95.5625,38.02,137.36,3.72906e+06,656250,-3.11083e-08,1.91014e-07,-8.57098e-08,-0.0022955,0.0346462,0.000206674,0.0361773,3,129
12,3.98896e-22,2,479,93.06,-4.71345e-06,8.56871e-07,-4.17875e-08,4.79088e-06,98.3125,38.02,137.36,1.14581e+06,531250,-3.65796e-08,1.91316e-07,-8.31589e-08,-0.00178983,0.0318789,0.000162942,0.0329831,3,130
12,3.75271e-22,2,480,93.06,-4.74999e-06,7.80804e-07,-3.80014e-08,4.81389e-06,99,38.02,137.36,500000,500000,-3.52884e-08,1.73964e-07,-7.62108e-08,-0.00182197,0.0280064,-7.42401e-05,0.0291244,3,131
12,3.75271e-22,2,481,93.06,-4.78402e-06,7.14836e-07,-3.36218e-08,4.83725e-06,99,38.02,137.36,500000,500000,-3.32333e-08,1.56581e-07,-6.73452e-08,-0.00183296,0.0252653,-2.33394e-05,0.0263766,3,132
12,3.75271e-22,2,482,93.06,-4.81646e-06,6.59044e-07,-2.95115e-08,4.86143e-06,99,38.02,137.36,500000,500000,-3.22758e-08,1.41756e-07,-5.88113e-08,-0.00189394,0.0230309,4.28131e-05,0.024179,3,133
12,3.75271e-22,2,483,93.06,-4.84857e-06,6.15322e-07,-2.54074e-08,4.88753e-06,99,38.02,137.36,500000,500000,-3.20369e-08,1.29296e-07,-5.07404e-08,-0.00194901,0.0212689,0.000125173,0.0224538,3,134
12,3.73449e-22,2,484,93.06,-4.88053e-06,5.83624e-07,-2.14959e-08,4.91535e-06,98.8125,38.02,137.36,500000,500000,-3.57027e-08,1.21699e-07,-4.31622e-08,-0.00205365,0.0198451,0.000113256,0.0214502,3,135
12,4.29026e-22,2,485,93.06,-4.91998e-06,5.79391e-07,-1.82695e-08,4.95401e-06,102.375,38.02,137.36,2.43744e+06,593750,-4.53078e-08,1.23202e-07,-3.66539e-08,-0.00259938,0.0203022,9.45849e-05,0.0225731,3,136
12,5.6478e-22,1,486,64.15,-4.97115e-06,6.18604e-07,-1.81545e-08,5.00952e-06,111.312,-139.18,-156.59,6.95812e+06,812500,-5.46162e-08,1.39986e-07,-3.6388e-08,-0.00279341,0.0254516,0.000260751,0.0273617,2,348
12,6.62269e-22,1,487,64.15,-5.02921e-06,6.77898e-07,-2.02267e-08,5.07473e-06,117.75,-139.18,-156.59,1.01872e+07,968750,-6.02322e-08,1.58171e-07,-4.03182e-08,-0.00259963,0.0306571,0.000188862,0.0320195,2,349
12,6.81402e-22,1,488,64.15,-5.09161e-06,7.30925e-07,-2.13467e-08,5.14385e-06,119,-139.18,-156.59,1.0833e+07,1e+06,-6.35678e-08,1.66457e-07,-4.26494e-08,-0.00268424,0.0325755,-3.05905e-05,0.0340321,2,350
12,6.81402e-22,1,489,64.15,-5.15635e-06,7.75568e-07,-2.21816e-08,5.21439e-06,119,-139.18,-156.59,1.0833e+07,1e+06,-6.57361e-08,1.73481e-07,-4.43703e-08,-0.00268512,0.0341085,-9.00825e-06,0.0355827,2,351
12,6.81402e-22,1,490,64.15,-5.22308e-06,8.13105e-07,-2.30025e-08,5.28605e-06,119,-139.18,-156.59,1.0833e+07,1e+06,-6.75878e-08,1.79905e-07,-4.59952e-08,-0.00264718,0.0355144,8.22615e-06,0.036997,2,352
12,6.81402e-22,1,491,64.15,-5.29152e-06,8.4505e-07,-2.38134e-08,5.35863e-06,119,-139.18,-156.59,1.0833e+07,1e+06,-6.91579e-08,1.86029e-07,-4.7631e-08,-0.00255037,0.0368526,1.96799e-05,0.0383112,2,353
12,6.81402e-22,1,492,64.15,-5.3614e-06,8.72656e-07,-2.46212e-08,5.43201e-06,119,-139.18,-156.59,1.0833e+07,1e+06,-7.03801e-08,1.91695e-07,-4.92448e-08,-0.00239068,0.0380923,2.32266e-05,0.0394879,2,354
12,6.81402e-22,1,493,64.15,-5.43228e-06,8.9704e-07,-2.54064e-08,5.50591e-06,119,-139.18,-156.59,1.0833e+07,1e+06,-7.11204e-08,1.96782e-07,-5.08141e-08,-0.00214219,0.0392225,2.14362e-05,0.0405001,2,355
12,6.81402e-22,1,494,64.15,-5.50364e-06,9.19159e-07,-2.61668e-08,5.57993e-06,119,-139.18,-156.59,1.0833e+07,1e+06,-7.13351e-08,2.01286e-07,-5.23349e-08,-0.00179296,0.0402496,1.75735e-05,0.0413474,2,356
12,6.81402e-22,1,495,64.15,-5.57495e-06,9.39899e-07,-2.69117e-08,5.65369e-06,119,-139.18,-156.59,1.0833e+07,1e+06,-7.107e-08,2.05293e-07,-5.38247e-08,-0.0013476,0.0411885,1.22268e-05,0.0420479,2,357
12,6.81402e-22,1,496,64.15,-5.64578e-06,9.60154e-07,-2.76617e-08,5.72691e-06,119,-139.18,-156.59,1.0833e+07,1e+06,-7.04398e-08,2.08982e-07,-5.53245e-08,-0.000820877,0.0420668,4.76067e-06,0.042639,2,358
12,6.81402e-22,1,497,64.15,-5.71583e-06,9.80869e-07,-2.84513e-08,5.79945e-06,119,-139.18,-156.59,1.0833e+07,1e+06,-6.96185e-08,2.1266e-07,-5.6903e-08,-0.000232737,0.0429364,-5.16531e-06,0.0431862,2,359
12,6.81402e-22,1,498,64.15,-5.78502e-06,1.00296e-06,-2.93301e-08,5.87139e-06,119,-139.18,-156.59,1.0833e+07,1e+06,-6.88135e-08,2.16785e-07,-5.86643e-08,0.000399658,0.0438863,-1.67556e-05,0.043794,2,360
12,6.81402e-22,1,499,64.15,-5.85346e-06,1.02702e-06,-3.03699e-08,5.94295e-06,119,-139.18,-156.59,1.0833e+07,1e+06,-6.82251e-08,2.21927e-07,-6.07332e-08,0.00106757,0.045044,-2.72323e-05,0.0446037,2,361
12,6.81402e-22,1,500,64.15,-5.92147e-06,1.05272e-06,-3.15732e-08,6.0144e-06,119,-139.18,-156.59,1.0833e+07,1e+06,-6.80069e-08,2.28771e-07,-6.33234e-08,0.00176562,0.0465938,-5.85522e-05,0.0458247,2,362
12,6.81402e-22,1,501,64.15,-5.98947e-06,1.07684e-06,-3.24975e-08,6.08559e-06,119,-139.18,-156.59,1.0833e+07,1e+06,-6.83742e-08,2.38417e-07,-6.39554e-08,0.00263593,0.0492681,0.000682974,0.0477506,2,363
12,6.58967e-22,1,502,64.15,-6.05822e-06,1.08743e-06,-3.44508e-08,6.15513e-06,119.375,-139.18,-156.59,1.01872e+07,968750,-6.74201e-08,2.56141e-07,-6.96192e-08,0.00378901,0.0530917,0.00140282,0.0512945,2,364
12,5.46792e-22,1,503,64.15,-6.12431e-06,1.07057e-06,-4.68256e-08,6.21736e-06,121.25,-139.18,-156.59,6.95813e+06,812500,-5.91666e-08,2.56694e-07,-9.48831e-08,0.00202467,0.047154,-0.00124489,0.0484987,2,365
12,3.89746e-22,2,504,106.24,-6.17655e-06,9.89969e-07,-6.29202e-08,6.2557e-06,123.875,-1.3,-30.28,2.43744e+06,593750,-4.54732e-08,2.50402e-07,-1.25105e-07,-0.000334324,0.0358247,-0.001234,0.0377012,3,137
12,3.22441e-22,2,505,106.24,-6.21526e-06,8.48451e-07,-7.23097e-08,6.27332e-06,125,-1.3,-30.28,500000,500000,-3.72451e-08,2.57597e-07,-1.44266e-07,-0.000598911,0.031945,0.000458213,0.0320893,3,138
12,6.45258e-22,1,506,73.27,-5.42712e-08,1.08005e-06,-2.26233e-08,1.08165e-06,8,-129.16,-171.71,1.0833e+07,1e+06,-1.07926e-07,1.82087e-07,-4.51672e-08,-0.0104703,0.0240085,0.000833775,0.0306063,2,366
12,5.80434e-22,1,507,73.27,-1.61581e-07,1.12732e-06,-2.57168e-08,1.13914e-06,9.3125,-129.16,-171.71,8.89556e+06,906250,-1.00735e-07,1.77985e-07,-5.16804e-08,-0.0105242,0.0229905,-0.00040282,0.0302931,2,367
12,4.29176e-22,2,508,91.58,-2.55741e-07,1.15918e-06,-3.41301e-08,1.18754e-06,12.375,16.06,146.57,4.37488e+06,687500,-8.48573e-08,1.86662e-07,-6.8643e-08,-0.0100592,0.024453,1.39402e-06,0.0317794,3,139
12,3.21135e-22,2,509,91.58,-3.31295e-07,1.16424e-06,-4.52404e-08,1.2113e-06,14.5625,16.06,146.57,1.14581e+06,531250,-7.23271e-08,2.00776e-07,-9.05978e-08,-0.00976897,0.0258573,-0.000150215,0.0330322,3,140
12,2.99527e-22,2,510,91.58,-4.00396e-07,1.16527e-06,-4.91955e-08,1.23312e-06,15,16.06,146.57,500000,500000,-7.04049e-08,2.05527e-07,-9.78566e-08,-0.0101157,0.0260306,-0.000337928,0.0335132,3,141
12,3.21633e-22,2,511,91.58,-4.72105e-07,1.165e-06,-4.67526e-08,1.2579e-06,14.75,16.06,146.57,1.14581e+06,531250,-7.13813e-08,2.01471e-07,-9.32702e-08,-0.010206,0.0266202,-0.000951099,0.0343351,3,142
12,3.65845e-22,2,512,91.58,-5.43158e-07,1.15559e-06,-4.2735e-08,1.27759e-06,14.25,16.06,146.57,2.43744e+06,593750,-6.74956e-08,1.94739e-07,-8.58318e-08,-0.00902395,0.0275851,-0.00112506,0.0343357,3,143
12,3.69771e-22,2,513,91.58,-6.07096e-07,1.10034e-06,-4.27133e-08,1.25743e-06,14.75,16.06,146.57,2.43744e+06,593750,-5.84444e-08,1.90368e-07,-8.44136e-08,-0.00649191,0.0269367,-0.000427856,0.0316097,3,144
12,3.41263e-22,2,514,91.58,-6.60047e-07,9.91323e-07,-4.2501e-08,1.19172e-06,17.25,16.06,146.57,1.14581e+06,531250,-5.06651e-08,1.85706e-07,-8.50306e-08,-0.00380805,0.0249201,-0.000103775,0.0282149,3,145
12,3.42713e-22,2,515,153.64,-7.08427e-07,9.0998e-07,-4.05559e-08,1.15394e-06,20.5,-177.01,-156.76,500000,500000,-5.61628e-08,2.01534e-07,-8.21728e-08,-0.000914366,0.0268439,0.000487568,0.0284936,3,146
12,3.58417e-22,2,516,153.64,-7.72373e-07,8.98668e-07,-4.06389e-08,1.18567e-06,22.5,-177.01,-156.76,500000,500000,-7.46986e-08,2.30265e-07,-8.08642e-08,0.000554184,0.0301869,0.000484636,0.0305563,3,147
12,3.62343e-22,2,517,153.64,-8.57824e-07,9.27948e-07,-4.06164e-08,1.26436e-06,23,-177.01,-156.76,500000,500000,-9.04927e-08,2.46156e-07,-8.10231e-08,0.000116427,0.0310792,4.21024e-06,0.031507,3,148
12,3.62343e-22,2,518,153.64,-9.53358e-07,9.70127e-07,-4.00663e-08,1.36075e-06,23,-177.01,-156.76,500000,500000,-9.62143e-08,2.50174e-07,-8.0527e-08,-0.00032282,0.0311493,-0.000131452,0.031807,3,149
12,3.62343e-22,2,519,153.64,-1.05025e-06,1.00745e-06,-4.04812e-08,1.45589e-06,23,-177.01,-156.76,500000,500000,-9.62446e-08,2.50961e-07,-8.09224e-08,-0.000404516,0.0313402,-8.98591e-05,0.03209,3,150
12,3.62343e-22,2,520,153.64,-1.14585e-06,1.03315e-06,-4.07478e-08,1.54338e-06,23,-177.01,-156.76,500000,500000,-9.4577e-08,2.53494e-07,-8.18267e-08,-0.000134231,0.0320815,0.000276662,0.0326358,3,151
12,4.45729e-22,2,521,153.64,-1.23941e-06,1.04565e-06,-4.40874e-08,1.62218e-06,26.25,-177.01,-156.76,3.08325e+06,625000,-9.49645e-08,2.59481e-07,-8.86313e-08,3.69562e-05,0.0337021,-0.000736519,0.0348973,3,152
12,6.12499e-22,1,522,80.81,-1.33578e-06,1.01912e-06,-4.80439e-08,1.68084e-06,32.75,-129.97,-177.44,8.24975e+06,875000,-9.73076e-08,2.65191e-07,-9.56013e-08,0.000165791,0.0355783,-0.00141852,0.0368792,2,368
12,6.95884e-22,1,523,80.81,-1.43402e-06,9.72929e-07,-4.87489e-08,1.7336e-06,36,-129.97,-177.44,1.0833e+07,1e+06,-9.61954e-08,2.64713e-07,-9.6707e-08,0.000592125,0.0359749,-0.000970708,0.0364233,2,369
12,6.95884e-22,1,524,80.81,-1.52817e-06,9.50978e-07,-4.75935e-08,1.80053e-06,36,-129.97,-177.44,1.0833e+07,1e+06,-9.19608e-08,2.56833e-07,-9.46531e-08,0.000867161,0.0348875,-0.000947256,0.0350736,2,370
12,6.95884e-22,1,525,80.81,-1.61794e-06,9.4649e-07,-4.46084e-08,1.87499e-06,36,-129.97,-177.44,1.0833e+07,1e+06,-8.85419e-08,2.45802e-07,-8.96152e-08,0.000731676,0.0334139,-0.000614338,0.0334394,2,371
12,6.95884e-22,1,526,80.81,-1.70525e-06,9.449e-07,-4.25502e-08,1.95001e-06,36,-129.97,-177.44,1.0833e+07,1e+06,-8.8616e-08,2.39445e-07,-8.61265e-08,0.000147526,0.0323842,-0.00045898,0.0325617,2,372
12,6.95884e-22,1,527,80.81,-1.79518e-06,9.37453e-07,-4.31314e-08,2.02567e-06,36,-129.97,-177.44,1.0833e+07,1e+06,-9.36904e-08,2.43308e-07,-8.67757e-08,-0.000817726,0.0325303,-0.0005619,0.0332268,2,373
12,6.95884e-22,1,528,80.81,-1.89263e-06,9.30437e-07,-4.52588e-08,2.10946e-06,36,-129.97,-177.44,1.0833e+07,1e+06,-1.01587e-07,2.52724e-07,-9.00367e-08,-0.00209313,0.0332234,-0.000843114,0.0348063,2,374
12,6.95884e-22,1,529,80.81,-1.99835e-06,9.3896e-07,-4.6298e-08,2.20844e-06,36,-129.97,-177.44,1.0833e+07,1e+06,-1.07663e-07,2.57574e-07,-9.15972e-08,-0.00337994,0.0332823,-0.000996249,0.0358569,2,375
12,6.95884e-22,1,530,80.81,-2.10796e-06,9.7285e-07,-4.38793e-08,2.32203e-06,36,-129.97,-177.44,1.0833e+07,1e+06,-1.06926e-07,2.48612e-07,-8.72937e-08,-0.00413322,0.0317955,-0.000700219,0.0349789,2,376
12,6.17933e-22,1,531,80.81,-2.2122e-06,1.02513e-06,-3.92001e-08,2.4385e-06,36.75,-129.97,-177.44,8.24975e+06,875000,-9.07114e-08,2.22696e-07,-7.89371e-08,-0.00477086,0.0302354,-0.000640164,0.0340078,2,377
12,4.6203e-22,2,532,152.99,-2.28938e-06,1.06133e-06,-3.3705e-08,2.52365e-06,38.25,-64.12,170.81,3.08325e+06,625000,-6.68553e-08,1.93706e-07,-6.78352e-08,-0.00480464,0.0303849,-0.000298136,0.0339148,3,153
12,3.84079e-22,2,533,152.99,-2.34591e-06,1.06167e-06,-2.83917e-08,2.57512e-06,39,-64.12,170.81,500000,500000,-5.59586e-08,1.73485e-07,-5.64102e-08,-0.00428446,0.0294416,0.000389559,0.0321389,3,154
12,3.79093e-22,2,534,152.99,-2.4013e-06,1.04942e-06,-2.55127e-08,2.62072e-06,39.25,-64.12,170.81,500000,500000,-5.49291e-08,1.57201e-07,-5.09392e-08,-0.00467249,0.0262375,-0.000108096,0.0294304,3,155
12,4.19426e-22,2,535,152.99,-2.45577e-06,1.04286e-06,-2.77641e-08,2.66817e-06,46,-64.12,170.81,3.08325e+06,625000,-6.68398e-08,1.76265e-07,-5.63325e-08,-0.00498914,0.0274422,0.000453887,0.0308775,3,156
12,5.15049e-22,1,536,80.41,-2.53498e-06,1.08305e-06,-3.4229e-08,2.75686e-06,58.75,-123.18,-170.23,8.24975e+06,875000,-9.42225e-08,2.1812e-07,-6.85827e-08,-0.00538318,0.0303134,0.000818765,0.033632,2,378
12,5.65354e-22,1,537,80.41,-2.64422e-06,1.16617e-06,-3.81645e-08,2.89021e-06,65,-123.18,-170.23,1.0833e+07,1e+06,-1.13002e-07,2.3962e-07,-7.58767e-08,-0.0062199,0.0313082,6.3912e-05,0.0349772,2,379
12,5.65354e-22,1,538,80.41,-2.76098e-06,1.24099e-06,-3.88125e-08,3.02731e-06,65,-123.18,-170.23,1.0833e+07,1e+06,-1.17005e-07,2.48032e-07,-7.76655e-08,-0.00644731,0.0328604,3.841e-05,0.0365792,2,380
12,5.65354e-22,1,539,80.41,-2.87822e-06,1.29919e-06,-3.89842e-08,3.1581e-06,65,-123.18,-170.23,1.0833e+07,1e+06,-1.16036e-07,2.49233e-07,-7.79335e-08,-0.00612392,0.03354,-2.20295e-05,0.037151,2,381
12,5.65354e-22,1,540,80.41,-2.99305e-06,1.33993e-06,-3.86136e-08,3.27952e-06,65,-123.18,-170.23,1.0833e+07,1e+06,-1.13459e-07,2.47019e-07,-7.71985e-08,-0.00570665,0.0336826,-3.81619e-05,0.0372268,2,382
12,5.65354e-22,1,541,80.41,-3.10514e-06,1.36463e-06,-3.80696e-08,3.39199e-06,65,-123.18,-170.23,1.0833e+07,1e+06,-1.11095e-07,2.43989e-07,-7.61295e-08,-0.00540298,0.0335703,-2.93523e-05,0.0371131,2,383
12,5.65354e-22,1,542,80.41,-3.21524e-06,1.37598e-06,-3.75647e-08,3.4975e-06,65,-123.18,-170.23,1.0833e+07,1e+06,-1.09551e-07,2.41427e-07,-7.51291e-08,-0.00525077,0.0333858,-5.77045e-06,0.0369606,2,384
12,5.65354e-22,1,543,80.41,-3.32425e-06,1.37664e-06,-3.71688e-08,3.59821e-06,65,-123.18,-170.23,1.0833e+07,1e+06,-1.08711e-07,2.39514e-07,-7.43434e-08,-0.00521245,0.0331866,1.25119e-05,0.0367997,2,385
12,5.65354e-22,1,544,80.41,-3.43267e-06,1.3689e-06,-3.68682e-08,3.69573e-06,65,-123.18,-170.23,1.0833e+07,1e+06,-1.08171e-07,2.37961e-07,-7.37416e-08,-0.00521628,0.0329778,2.15772e-05,0.0366073,2,386
12,5.65354e-22,1,545,80.41,-3.54059e-06,1.35466e-06,-3.6614e-08,3.79107e-06,65,-123.18,-170.23,1.0833e+07,1e+06,-1.07556e-07,2.36401e-07,-7.32311e-08,-0.00520364,0.0327477,2.37673e-05,0.0363562,2,387
12,5.65354e-22,1,546,80.41,-3.64778e-06,1.33551e-06,-3.63602e-08,3.88474e-06,65,-123.18,-170.23,1.0833e+07,1e+06,-1.06618e-07,2.34563e-07,-7.27222e-08,-0.00513718,0.0324876,2.35739e-05,0.0360333,2,388
12,5.65354e-22,1,547,80.41,-3.75382e-06,1.31272e-06,-3.60761e-08,3.9769e-06,65,-123.18,-170.23,1.0833e+07,1e+06,-1.05214e-07,2.32279e-07,-7.21534e-08,-0.00499697,0.0321927,2.34935e-05,0.0356349,2,389
12,5.65354e-22,1,548,80.41,-3.85821e-06,1.28725e-06,-3.57459e-08,4.06744e-06,65,-123.18,-170.23,1.0833e+07,1e+06,-1.03262e-07,2.29451e-07,-7.14933e-08,-0.00477137,0.0318602,2.38494e-05,0.03516,2,390
12,5.65354e-22,1,549,80.41,-3.96035e-06,1.25985e-06,-3.53668e-08,4.15606e-06,65,-123.18,-170.23,1.0833e+07,1e+06,-1.00715e-07,2.26039e-07,-7.07356e-08,-0.00445306,0.0314888,2.3701e-05,0.0346073,2,391
12,5.65354e-22,1,550,80.41,-4.05963e-06,1.23108e-06,-3.49463e-08,4.24234e-06,65,-123.18,-170.23,1.0833e+07,1e+06,-9.75737e-08,2.2206e-07,-6.98946e-08,-0.00404095,0.0310803,2.1731e-05,0.0339795,2,392
12,5.65354e-22,1,551,80.41,-4.15549e-06,1.20135e-06,-3.45e-08,4.3258e-06,65,-123.18,-170.23,1.0833e+07,1e+06,-9.39131e-08,2.17615e-07,-6.90009e-08,-0.00354428,0.0306423,1.70756e-05,0.0332891,2,393
12,5.65354e-22,1,552,80.41,-4.24746e-06,1.17098e-06,-3.4047e-08,4.40605e-06,65,-123.18,-170.23,1.0833e+07,1e+06,-8.98891e-08,2.12886e-07,-6.80933e-08,-0.00298475,0.0301901,1.0146e-05,0.0325622,2,394
12,5.65354e-22,1,553,80.41,-4.33527e-06,1.14023e-06,-3.36068e-08,4.48284e-06,65,-123.18,-170.23,1.0833e+07,1e+06,-8.5711e-08,2.08112e-07,-6.72096e-08,-0.00239142,0.0297461,3.70584e-06,0.031836,2,395
12,5.65354e-22,1,554,80.41,-4.41888e-06,1.10947e-06,-3.3196e-08,4.55616e-06,65,-123.18,-170.23,1.0833e+07,1e+06,-8.16127e-08,2.03548e-07,-6.63964e-08,-0.00179884,0.0293313,-1.96501e-06,0.0311478,2,396
12,5.65354e-22,1,555,80.41,-4.4985e-06,1.07954e-06,-3.28714e-08,4.62633e-06,65,-123.18,-170.23,1.0833e+07,1e+06,-7.78955e-08,1.99598e-07,-6.57508e-08,-0.00124785,0.0289746,8.16077e-06,0.0305063,2,397
12,5.65354e-22,1,556,80.41,-4.57467e-06,1.05363e-06,-3.26836e-08,4.69456e-06,65,-123.18,-170.23,1.0833e+07,1e+06,-7.40916e-08,1.97033e-07,-6.55417e-08,-0.000505636,0.0288317,0.000126971,0.0297841,2,398
12,6.01134e-22,1,557,80.41,-4.64668e-06,1.03941e-06,-3.42397e-08,4.76164e-06,66.625,-123.18,-170.23,1.0833e+07,1e+06,-5.9408e-08,1.91212e-07,-6.84712e-08,0.000374758,0.0303687,0.000650551,0.0304689,2,399
12,6.83892e-22,1,558,162.01,-4.69349e-06,1.03681e-06,-4.1928e-08,4.80683e-06,74,-127.97,-104.66,1.0833e+07,1e+06,-2.84869e-08,1.74285e-07,-8.33676e-08,-0.000381264,0.0318866,-0.000558736,0.032895,2,400
12,7.42071e-22,1,559,179.529,-4.70365e-06,1.0032e-06,-4.85526e-08,4.80969e-06,83.875,-34.91,-168.19,1.0833e+07,1e+06,-2.47009e-09,1.64076e-07,-9.71854e-08,-0.00111234,0.0340232,-0.000977892,0.0353323,2,401
12,7.5327e-22,1,560,179.529,-4.69843e-06,9.50411e-07,-4.9606e-08,4.79385e-06,88,-34.91,-168.19,1.0833e+07,1e+06,6.41599e-09,1.64204e-07,-9.95438e-08,-0.000557924,0.0357389,5.13373e-05,0.0360249,2,402
12,7.5327e-22,1,561,179.529,-4.69082e-06,9.22178e-07,-5.00996e-08,4.78087e-06,88,-34.91,-168.19,1.0833e+07,1e+06,8.25982e-09,1.62248e-07,-1.00125e-07,-0.000287009,0.0352708,-9.53439e-05,0.035496,2,403
12,7.5327e-22,1,562,179.529,-4.68191e-06,9.10333e-07,-5.0173e-08,4.76985e-06,88,-34.91,-168.19,1.0833e+07,1e+06,8.96528e-09,1.62257e-07,-1.00323e-07,-0.000147192,0.035337,-4.53775e-05,0.0355014,2,404
12,7.5327e-22,1,563,179.529,-4.67289e-06,9.09845e-07,-5.0452e-08,4.76091e-06,88,-34.91,-168.19,1.0833e+07,1e+06,8.82137e-09,1.63562e-07,-1.00898e-07,-0.000206571,0.0356633,-2.15782e-05,0.0358767,2,405
12,7.5327e-22,1,564,179.529,-4.66427e-06,9.167e-07,-5.09124e-08,4.75377e-06,88,-34.91,-168.19,1.0833e+07,1e+06,8.27595e-09,1.65752e-07,-1.01822e-07,-0.000360082,0.0361652,-1.30694e-05,0.0364695,2,406
12,7.5327e-22,1,565,179.529,-4.65634e-06,9.28158e-07,-5.14762e-08,4.74822e-06,88,-34.91,-168.19,1.0833e+07,1e+06,7.47837e-09,1.68509e-07,-1.02951e-07,-0.000569236,0.0367825,-9.04757e-06,0.0371955,2,407
12,7.5327e-22,1,566,179.529,-4.64931e-06,9.42256e-07,-5.2092e-08,4.74412e-06,88,-34.91,-168.19,1.0833e+07,1e+06,6.50591e-09,1.7161e-07,-1.04183e-07,-0.00081508,0.0374695,-6.30094e-06,0.0380015,2,408
12,7.5327e-22,1,567,179.529,-4.64333e-06,9.57486e-07,-5.27113e-08,4.74131e-06,88,-34.91,-168.19,1.0833e+07,1e+06,5.40569e-09,1.74845e-07,-1.05422e-07,-0.00108582,0.0381825,-4.06058e-06,0.0388408,2,409
12,7.5327e-22,1,568,179.529,-4.6385e-06,9.72612e-07,-5.32799e-08,4.73967e-06,88,-34.91,-168.19,1.0833e+07,1e+06,4.21077e-09,1.78001e-07,-1.0656e-07,-0.00137247,0.0388751,-2.04732e-06,0.0396653,2,410
12,7.5327e-22,1,569,179.529,-4.63491e-06,9.86644e-07,-5.37423e-08,4.73906e-06,88,-34.91,-168.19,1.0833e+07,1e+06,2.94767e-09,1.80858e-07,-1.07485e-07,-0.00166781,0.0395003,-4.81934e-07,0.0404273,2,411
12,7.5327e-22,1,570,179.529,-4.6326e-06,9.98912e-07,-5.40503e-08,4.73939e-06,88,-34.91,-168.19,1.0833e+07,1e+06,1.63783e-09,1.83227e-07,-1.08101e-07,-0.0019667,0.0400182,2.68444e-07,0.0410869,2,412
12,7.5327e-22,1,571,179.529,-4.63163e-06,1.00921e-06,-5.4171e-08,4.74062e-06,88,-34.91,-168.19,1.0833e+07,1e+06,2.97038e-10,1.8498e-07,-1.08342e-07,-0.00226638,0.0404025,2.237e-07,0.041619,2,413
12,7.5327e-22,1,572,179.529,-4.63201e-06,1.01793e-06,-5.40838e-08,4.74285e-06,88,-34.91,-168.19,1.0833e+07,1e+06,-1.05851e-09,1.86038e-07,-1.08166e-07,-0.00256452,0.0406401,7.71943e-07,0.0420098,2,414
12,7.5327e-22,1,573,179.529,-4.63375e-06,1.02619e-06,-5.37509e-08,4.74632e-06,88,-34.91,-168.19,1.0833e+07,1e+06,-2.39246e-09,1.86266e-07,-1.075e-07,-0.0028531,0.0407061,5.13731e-06,0.0422301,2,415
12,7.5327e-22,1,574,179.529,-4.6368e-06,1.03591e-06,-5.30593e-08,4.7514e-06,88,-34.91,-168.19,1.0833e+07,1e+06,-3.59772e-09,1.85254e-07,-1.0612e-07,-0.00310015,0.0405192,2.42044e-05,0.0421778,2,416
12,7.5327e-22,1,575,179.529,-4.64094e-06,1.04938e-06,-5.17689e-08,4.75839e-06,88,-34.91,-168.19,1.0833e+07,1e+06,-4.54366e-09,1.81968e-07,-1.03548e-07,-0.0032696,0.0398435,4.63709e-05,0.041603,2,417
12,7.5327e-22,1,576,179.529,-4.64588e-06,1.06751e-06,-4.96906e-08,4.76721e-06,88,-34.91,-168.19,1.0833e+07,1e+06,-5.14587e-09,1.75425e-07,-9.94325e-08,-0.00334141,0.0384279,3.19347e-05,0.0402504,2,418
12,7.5327e-22,1,577,179.529,-4.65124e-06,1.08666e-06,-4.72169e-08,4.77672e-06,88,-34.91,-168.19,1.0833e+07,1e+06,-5.20834e-09,1.66259e-07,-9.43802e-08,-0.0032859,0.0363817,-4.72398e-05,0.0381977,2,419
12,7.29645e-22,1,578,179.529,-4.6563e-06,1.10263e-06,-4.49088e-08,4.78528e-06,88.6875,-34.91,-168.19,1.01872e+07,968750,-7.32512e-09,1.59914e-07,-8.96169e-08,-0.00318465,0.0343423,-0.000275578,0.0362613,2,420
12,6.1152e-22,1,579,179.529,-4.66589e-06,1.10074e-06,-4.19956e-08,4.79415e-06,92.125,-34.91,-168.19,6.95812e+06,812500,-1.85357e-08,1.70533e-07,-8.42162e-08,-0.00252823,0.0338189,0.000319485,0.0352672,2,421
12,4.46146e-22,2,580,93.06,-4.69337e-06,1.0464e-06,-4.05392e-08,4.80878e-06,96.9375,38.02,137.36,2.43744e+06,593750,-3.30985e-08,1.85766e-07,-8.11754e-08,-0.00191942,0.0323807,0.0006424,0.0333248,3,157
12,3.75271e-22,2,581,93.06,-4.73208e-06,9.55955e-07,-3.88216e-08,4.82783e-06,99,38.02,137.36,500000,500000,-3.64046e-08,1.77043e-07,-7.75681e-08,-0.00200127,0.02842,-5.52216e-05,0.0296049,3,158
12,3.75271e-22,2,582,93.06,-4.76618e-06,8.71218e-07,-3.42505e-08,4.84527e-06,99,38.02,137.36,500000,500000,-3.22919e-08,1.55979e-07,-6.83263e-08,-0.00179735,0.0250433,-0.000104893,0.0261465,3,159
12,3.75271e-22,2,583,93.06,-4.79667e-06,7.99848e-07,-2.9044e-08,4.86298e-06,99,38.02,137.36,500000,500000,-2.92827e-08,1.39162e-07,-5.80086e-08,-0.00132355,0.0227811,0.000224565,0.023509,3,160
12,3.73449e-22,2,584,93.06,-4.82475e-06,7.42537e-07,-2.51358e-08,4.88161e-06,98.8125,38.02,137.36,500000,500000,-3.12345e-08,1.29352e-07,-5.06883e-08,-0.00120103,0.0209438,8.26339e-05,0.0219016,3,161
12,3.66159e-22,2,585,93.06,-4.85914e-06,7.0638e-07,-2.24983e-08,4.91026e-06,98.0625,38.02,137.36,500000,500000,-4.72056e-08,1.34446e-07,-4.4883e-08,-0.00145716,0.0192653,-0.000102806,0.0211083,3,162
12,4.39047e-22,2,586,29.09,-4.91916e-06,7.09043e-07,-1.88411e-08,4.97003e-06,102.688,38.11,-136.53,3.08325e+06,625000,-6.39948e-08,1.43598e-07,-3.75235e-08,-0.00198073,0.0206207,-2.21493e-06,0.0231816,3,163
12,5.99402e-22,1,587,64.15,-4.98712e-06,7.63385e-07,-1.87231e-08,5.04525e-06,113.438,-139.18,-156.59,8.24975e+06,875000,-6.36191e-08,1.51491e-07,-3.75638e-08,-0.00225078,0.0266165,-9.37739e-05,0.0286761,2,422
12,6.81402e-22,1,588,64.15,-5.04639e-06,8.37834e-07,-2.11469e-08,5.11552e-06,119,-139.18,-156.59,1.0833e+07,1e+06,-6.02541e-08,1.6155e-07,-4.22691e-08,-0.00211413,0.0314718,-9.83602e-05,0.0326875,2,423
12,6.81402e-22,1,589,64.15,-5.10763e-06,8.98697e-07,-2.1911e-08,5.18614e-06,119,-139.18,-156.59,1.0833e+07,1e+06,-6.21418e-08,1.68856e-07,-4.37943e-08,-0.00204691,0.0332471,-1.09132e-05,0.0343451,2,424
12,6.81402e-22,1,590,64.15,-5.17068e-06,9.49784e-07,-2.26858e-08,5.25723e-06,119,-139.18,-156.59,1.0833e+07,1e+06,-6.39444e-08,1.75003e-07,-4.53685e-08,-0.00203557,0.0346128,-1.47672e-05,0.0357318,2,425
12,6.81402e-22,1,591,64.15,-5.23552e-06,9.93437e-07,-2.34053e-08,5.32899e-06,119,-139.18,-156.59,1.0833e+07,1e+06,-6.57139e-08,1.8091e-07,-4.68103e-08,-0.00202497,0.0359175,6.02879e-06,0.037062,2,426
12,6.81402e-22,1,592,64.15,-5.30211e-06,1.03117e-06,-2.4127e-08,5.4015e-06,119,-139.18,-156.59,1.0833e+07,1e+06,-6.7322e-08,1.86531e-07,-4.82526e-08,-0.0019911,0.037149,1.49538e-05,0.0383152,2,427
12,6.81402e-22,1,593,64.15,-5.37017e-06,1.06418e-06,-2.48351e-08,5.47465e-06,119,-139.18,-156.59,1.0833e+07,1e+06,-6.85971e-08,1.91769e-07,-4.96716e-08,-0.00189297,0.0383057,2.09807e-05,0.0394574,2,428
12,6.81402e-22,1,594,64.15,-5.4393e-06,1.09344e-06,-2.55247e-08,5.54818e-06,119,-139.18,-156.59,1.0833e+07,1e+06,-6.94094e-08,1.96486e-07,-5.10508e-08,-0.00170693,0.0393691,2.36712e-05,0.0404549,2,429
12,6.81402e-22,1,595,64.15,-5.50898e-06,1.11987e-06,-2.61915e-08,5.62172e-06,119,-139.18,-156.59,1.0833e+07,1e+06,-6.96623e-08,2.00601e-07,-5.23843e-08,-0.001413,0.0403288,2.34489e-05,0.041285,2,430
12,6.81402e-22,1,596,64.15,-5.57862e-06,1.14438e-06,-2.68413e-08,5.69485e-06,119,-139.18,-156.59,1.0833e+07,1e+06,-6.93335e-08,2.0412e-07,-5.3684e-08,-0.00100324,0.0411853,2.00208e-05,0.0419419,2,431
12,6.81402e-22,1,597,64.15,-5.64765e-06,1.16803e-06,-2.74947e-08,5.76724e-06,119,-139.18,-156.59,1.0833e+07,1e+06,-6.85055e-08,2.07184e-07,-5.49915e-08,-0.000485656,0.0419571,1.20419e-05,0.0424466,2,432
12,6.81402e-22,1,598,64.15,-5.71564e-06,1.19211e-06,-2.81964e-08,5.8387e-06,119,-139.18,-156.59,1.0833e+07,1e+06,-6.73939e-08,2.10169e-07,-5.6394e-08,0.000115738,0.0427042,-8.97052e-07,0.0428717,2,433
12,6.81402e-22,1,599,64.15,-5.78244e-06,1.21808e-06,-2.90185e-08,5.90941e-06,119,-139.18,-156.59,1.0833e+07,1e+06,-6.63395e-08,2.13767e-07,-5.8036e-08,0.000768768,0.0435573,-1.49068e-05,0.0433694,2,434
12,6.81402e-22,1,600,64.15,-5.84831e-06,1.24724e-06,-3.00456e-08,5.97991e-06,119,-139.18,-156.59,1.0833e+07,1e+06,-6.5703e-08,2.18902e-07,-6.01153e-08,0.00145173,0.0447141,-2.45072e-05,0.0441604,2,435
12,6.81402e-22,1,601,64.15,-5.91385e-06,1.28007e-06,-3.14366e-08,6.05088e-06,119,-139.18,-156.59,1.0833e+07,1e+06,-6.59341e-08,2.26558e-07,-6.27522e-08,0.0020872,0.0464562,-2.87586e-05,0.0455836,2,436
12,6.81402e-22,1,602,64.15,-5.98018e-06,1.31496e-06,-3.08101e-08,6.12313e-06,119,-139.18,-156.59,1.0833e+07,1e+06,-6.7881e-08,2.39238e-07,-6.25448e-08,0.00291234,0.0498316,0.00119388,0.0479571,2,437
12,6.14097e-22,1,603,64.15,-6.04961e-06,1.35225e-06,-4.34422e-08,6.19905e-06,120.125,-139.18,-156.59,8.89556e+06,906250,-6.59638e-08,2.68737e-07,-8.58442e-08,0.00336166,0.0529174,-0.000147452,0.0525972,2,438
12,4.57051e-22,2,604,106.24,-6.11211e-06,1.33497e-06,-6.02899e-08,6.25649e-06,122.75,-1.3,-30.28,4.37488e+06,687500,-5.54125e-08,2.74138e-07,-1.19997e-07,0.00117154,0.0447143,-0.00167655,0.0466688,3,164
12,3.44876e-22,2,605,106.24,-6.16043e-06,1.24473e-06,-6.94692e-08,6.28531e-06,124.625,-1.3,-30.28,1.14581e+06,531250,-4.483e-08,2.64715e-07,-1.40065e-07,-0.000961573,0.0346451,-8.62724e-05,0.0357548,3,165
12,3.22441e-22,2,606,106.24,-6.20177e-06,1.11696e-06,-7.84103e-08,6.30204e-06,125,-1.3,-30.28,500000,500000,-4.0336e-08,2.75491e-07,-1.56484e-07,-0.000839132,0.0336729,5.10743e-05,0.0341629,3,166
12,6.45258e-22,1,607,73.27,-5.32881e-08,1.25921e-06,-2.18013e-08,1.26053e-06,8,-129.16,-171.71,1.0833e+07,1e+06,-1.0563e-07,1.75212e-07,-4.32789e-08,-0.0105888,0.0229286,0.000698761,0.0296736,2,439
12,6.2365e-22,1,608,73.27,-1.57972e-07,1.29989e-06,-2.24607e-08,1.30965e-06,8.4375,-129.16,-171.71,1.01872e+07,968750,-1.02145e-07,1.69068e-07,-4.50218e-08,-0.010572,0.0215347,-0.000289208,0.0286492,2,440
12,5.15609e-22,1,609,73.27,-2.57579e-07,1.33912e-06,-2.58471e-08,1.36391e-06,10.625,-129.16,-171.71,6.95813e+06,812500,-9.21456e-08,1.73478e-07,-5.28083e-08,-0.0101413,0.0228646,0.0001784,0.0301099,2,441
12,3.86458e-22,2,610,91.58,-3.42263e-07,1.35962e-06,-3.56713e-08,1.40249e-06,13.4375,16.06,146.57,3.08325e+06,625000,-7.71766e-08,1.82457e-07,-7.10558e-08,-0.00996239,0.0252062,-0.000567982,0.0328632,3,167
12,3.65845e-22,2,611,91.58,-4.11932e-07,1.36776e-06,-3.79336e-08,1.42895e-06,14.25,16.06,146.57,2.43744e+06,593750,-6.68475e-08,1.81697e-07,-7.44704e-08,-0.0091307,0.0267305,-0.000517657,0.0337329,3,168
12,4.32164e-22,2,612,91.58,-4.75958e-07,1.35799e-06,-3.13677e-08,1.43932e-06,13.5,16.06,146.57,4.37488e+06,687500,-5.84231e-08,1.69462e-07,-6.20374e-08,-0.00676978,0.0289768,-0.000558114,0.0342878,3,169
12,5.20589e-22,1,613,126.08,-5.28778e-07,1.32884e-06,-2.23324e-08,1.43036e-06,12.5,-20.36,125.34,6.95812e+06,812500,-4.66058e-08,1.49744e-07,-4.56124e-08,-0.00391813,0.0307499,-0.000293905,0.0338226,2,442
12,5.10261e-22,1,614,126.08,-5.69169e-07,1.26663e-06,-1.98863e-08,1.38878e-06,14.25,-20.36,125.34,6.31231e+06,781250,-4.05088e-08,1.46067e-07,-4.14832e-08,-0.00120917,0.0296264,0.000733991,0.0307268,2,443
12,4.05106e-22,2,615,153.64,-6.09796e-07,1.1694e-06,-3.02524e-08,1.31919e-06,19.25,-177.01,-156.76,2.43744e+06,593750,-4.76643e-08,1.73625e-07,-6.03609e-08,0.000343616,0.0272913,0.000711548,0.0279861,3,170
12,3.58417e-22,2,616,153.64,-6.64498e-07,1.11798e-06,-3.93888e-08,1.30115e-06,22.5,-177.01,-156.76,500000,500000,-6.46811e-08,2.11962e-07,-7.7637e-08,0.000814169,0.0279086,0.000388626,0.0282918,3,171
12,3.62343e-22,2,617,153.64,-7.39158e-07,1.13259e-06,-4.03528e-08,1.35305e-06,23,-177.01,-156.76,500000,500000,-8.15609e-08,2.3547e-07,-8.06e-08,0.000621492,0.029943,7.86733e-05,0.0300819,3,172
12,3.62343e-22,2,618,153.64,-8.2762e-07,1.17411e-06,-4.0397e-08,1.43705e-06,23,-177.01,-156.76,500000,500000,-9.08914e-08,2.46732e-07,-8.1071e-08,0.000253948,0.0309152,8.46129e-05,0.0311428,3,173
12,3.62343e-22,2,619,153.64,-9.20941e-07,1.22085e-06,-4.12167e-08,1.52981e-06,23,-177.01,-156.76,500000,500000,-9.33683e-08,2.51284e-07,-8.23826e-08,9.12883e-05,0.03142,6.17243e-05,0.0317743,3,174
12,3.62343e-22,2,620,153.64,-1.01436e-06,1.25993e-06,-4.1953e-08,1.61806e-06,23,-177.01,-156.76,500000,500000,-9.30216e-08,2.53098e-07,-8.40519e-08,-1.45225e-05,0.0317856,7.25798e-06,0.032317,3,175
12,3.62343e-22,2,621,153.64,-1.10698e-06,1.28751e-06,-4.19438e-08,1.69849e-06,23,-177.01,-156.76,500000,500000,-9.21043e-08,2.54584e-07,-8.37663e-08,0.000154647,0.0323659,0.000381912,0.0327569,3,176
12,4.45729e-22,2,622,153.64,-1.19857e-06,1.30426e-06,-4.36742e-08,1.77188e-06,26.25,-177.01,-156.76,3.08325e+06,625000,-9.31631e-08,2.56865e-07,-8.70858e-08,0.00014085,0.0335568,-0.000340348,0.0345623,3,177
12,6.12499e-22,1,623,80.81,-1.29331e-06,1.28408e-06,-4.53404e-08,1.82306e-06,32.75,-129.97,-177.44,8.24975e+06,875000,-9.68117e-08,2.59892e-07,-9.08353e-08,-0.00010836,0.0350635,-0.000615791,0.0360715,2,444
12,6.95884e-22,1,624,80.81,-1.39219e-06,1.23941e-06,-4.55304e-08,1.86451e-06,36,-129.97,-177.44,1.0833e+07,1e+06,-9.82883e-08,2.60711e-07,-9.11741e-08,-0.00015,0.0354718,-3.97743e-06,0.0356795,2,445
12,6.95884e-22,1,625,80.81,-1.48989e-06,1.2102e-06,-4.53908e-08,1.92e-06,36,-129.97,-177.44,1.0833e+07,1e+06,-9.62962e-08,2.56309e-07,-9.07974e-08,-0.000156403,0.0346572,-0.000191028,0.0348733,2,446
12,6.95884e-22,1,626,80.81,-1.58478e-06,1.19463e-06,-4.40389e-08,1.98509e-06,36,-129.97,-177.44,1.0833e+07,1e+06,-9.3956e-08,2.48966e-07,-8.80595e-08,-0.000279611,0.0335851,-0.000118541,0.0338317,2,447
12,6.95884e-22,1,627,80.81,-1.6778e-06,1.18673e-06,-4.30092e-08,2.05553e-06,36,-129.97,-177.44,1.0833e+07,1e+06,-9.40997e-08,2.44681e-07,-8.59448e-08,-0.000743858,0.0328426,-5.84498e-05,0.0333023,2,448
12,6.95884e-22,1,628,80.81,-1.77298e-06,1.18313e-06,-4.3003e-08,2.13193e-06,36,-129.97,-177.44,1.0833e+07,1e+06,-9.83553e-08,2.4718e-07,-8.59768e-08,-0.00164934,0.0328533,-5.05021e-05,0.0337985,2,449
12,6.95884e-22,1,629,80.81,-1.87451e-06,1.18539e-06,-4.35769e-08,2.2183e-06,36,-129.97,-177.44,1.0833e+07,1e+06,-1.04777e-07,2.52922e-07,-8.71648e-08,-0.00284257,0.0331511,-8.09413e-05,0.03484,2,450
12,6.95884e-22,1,630,80.81,-1.98253e-06,1.19747e-06,-4.34069e-08,2.31652e-06,36,-129.97,-177.44,1.0833e+07,1e+06,-1.08667e-07,2.53673e-07,-8.68448e-08,-0.00387136,0.0327933,-9.15984e-05,0.0352719,2,451
12,6.95884e-22,1,631,80.81,-2.09184e-06,1.22004e-06,-4.11405e-08,2.42198e-06,36,-129.97,-177.44,1.0833e+07,1e+06,-1.06361e-07,2.43086e-07,-8.24159e-08,-0.00433245,0.031169,8.40294e-05,0.0341686,2,452
12,6.17933e-22,1,632,80.81,-2.19526e-06,1.24798e-06,-3.88027e-08,2.52549e-06,36.75,-129.97,-177.44,8.24975e+06,875000,-9.06828e-08,2.22699e-07,-7.7589e-08,-0.0047143,0.0304247,-0.000234118,0.0339472,2,453
12,4.6203e-22,2,633,152.99,-2.27321e-06,1.25774e-06,-3.5514e-08,2.5982e-06,38.25,-64.12,170.81,3.08325e+06,625000,-6.72284e-08,1.99583e-07,-7.05653e-08,-0.0046709,0.0313932,-0.000195778,0.0347207,3,178
12,3.84079e-22,2,634,152.99,-2.32971e-06,1.23689e-06,-2.94695e-08,2.63787e-06,39,-64.12,170.81,500000,500000,-5.50707e-08,1.76092e-07,-5.83911e-08,-0.00414151,0.0298549,0.000466114,0.0324214,3,179
12,3.84139e-22,2,635,152.99,-2.38335e-06,1.20364e-06,-2.60141e-08,2.67017e-06,39.125,-64.12,170.81,500000,500000,-5.75993e-08,1.61728e-07,-5.28947e-08,-0.00450586,0.0259157,6.08287e-06,0.0292218,3,180
12,4.29518e-22,2,636,152.99,-2.44491e-06,1.2157e-06,-3.0448e-08,2.73065e-06,45.75,-64.12,170.81,3.08325e+06,625000,-7.62571e-08,1.912e-07,-6.18472e-08,-0.00485153,0.0273436,0.000501225,0.0311584,3,181
12,5.20096e-22,1,637,80.41,-2.53586e-06,1.30524e-06,-3.78144e-08,2.85232e-06,58.625,-123.18,-170.23,8.24975e+06,875000,-1.02114e-07,2.35735e-07,-7.50841e-08,-0.00503264,0.0315579,0.000878715,0.0350535,2,454
12,5.65354e-22,1,638,80.41,-2.64914e-06,1.41238e-06,-4.08806e-08,3.0024e-06,65,-123.18,-170.23,1.0833e+07,1e+06,-1.14582e-07,2.52969e-07,-8.14465e-08,-0.00536513,0.0334828,0.000107954,0.0368071,2,455
12,5.65354e-22,1,639,80.41,-2.76503e-06,1.4936e-06,-4.11771e-08,3.14291e-06,65,-123.18,-170.23,1.0833e+07,1e+06,-1.14487e-07,2.56814e-07,-8.23907e-08,-0.00505202,0.0347422,1.99214e-05,0.0376483,2,456
12,5.65354e-22,1,640,80.41,-2.87812e-06,1.55124e-06,-4.07473e-08,3.2698e-06,65,-123.18,-170.23,1.0833e+07,1e+06,-1.10823e-07,2.53464e-07,-8.14292e-08,-0.00448306,0.0348735,-4.76092e-05,0.0375809,2,457
12,5.65354e-22,1,641,80.41,-2.98667e-06,1.58799e-06,-3.98465e-08,3.38283e-06,65,-123.18,-170.23,1.0833e+07,1e+06,-1.06708e-07,2.47801e-07,-7.96747e-08,-0.00399367,0.0345042,-6.55794e-05,0.0371174,2,458
12,5.65354e-22,1,642,80.41,-3.09153e-06,1.60839e-06,-3.89515e-08,3.48511e-06,65,-123.18,-170.23,1.0833e+07,1e+06,-1.03826e-07,2.42811e-07,-7.79017e-08,-0.00372853,0.034047,-3.92889e-05,0.0366462,2,459
12,5.65354e-22,1,643,80.41,-3.19433e-06,1.61637e-06,-3.82093e-08,3.5802e-06,65,-123.18,-170.23,1.0833e+07,1e+06,-1.02393e-07,2.39142e-07,-7.64199e-08,-0.00370079,0.0336196,-1.38802e-05,0.0362859,2,460
12,5.65354e-22,1,644,80.41,-3.29632e-06,1.61465e-06,-3.76259e-08,3.67072e-06,65,-123.18,-170.23,1.0833e+07,1e+06,-1.01977e-07,2.36615e-07,-7.52529e-08,-0.00382152,0.0332553,3.46113e-06,0.0360306,2,461
12,5.65354e-22,1,645,80.41,-3.39828e-06,1.60516e-06,-3.71676e-08,3.75849e-06,65,-123.18,-170.23,1.0833e+07,1e+06,-1.02121e-07,2.34858e-07,-7.4337e-08,-0.00401188,0.032947,1.3755e-05,0.0358422,2,462
12,5.65354e-22,1,646,80.41,-3.50056e-06,1.58943e-06,-3.67916e-08,3.84468e-06,65,-123.18,-170.23,1.0833e+07,1e+06,-1.02453e-07,2.33498e-07,-7.3585e-08,-0.0042133,0.032676,1.98122e-05,0.0356825,2,463
12,5.65354e-22,1,647,80.41,-3.60319e-06,1.56869e-06,-3.6453e-08,3.93002e-06,65,-123.18,-170.23,1.0833e+07,1e+06,-1.02674e-07,2.32194e-07,-7.29076e-08,-0.00438284,0.0324217,2.38443e-05,0.0355195,2,464
12,5.65354e-22,1,648,80.41,-3.70591e-06,1.54396e-06,-3.61117e-08,4.01483e-06,65,-123.18,-170.23,1.0833e+07,1e+06,-1.02537e-07,2.30653e-07,-7.22249e-08,-0.00448664,0.0321643,2.73919e-05,0.0353253,2,465
12,5.65354e-22,1,649,80.41,-3.80826e-06,1.51604e-06,-3.57363e-08,4.09909e-06,65,-123.18,-170.23,1.0833e+07,1e+06,-1.01838e-07,2.28625e-07,-7.14748e-08,-0.00449696,0.0318846,3.07993e-05,0.035072,2,466
12,5.65354e-22,1,650,80.41,-3.90958e-06,1.48556e-06,-3.53085e-08,4.18246e-06,65,-123.18,-170.23,1.0833e+07,1e+06,-1.00414e-07,2.25919e-07,-7.06201e-08,-0.00439156,0.0315646,3.32563e-05,0.0347325,2,467
12,5.65354e-22,1,651,80.41,-4.00909e-06,1.45305e-06,-3.4826e-08,4.26443e-06,65,-123.18,-170.23,1.0833e+07,1e+06,-9.81751e-08,2.22438e-07,-6.96562e-08,-0.00415704,0.0311921,3.30889e-05,0.0342862,2,468
12,5.65354e-22,1,652,80.41,-4.10593e-06,1.41903e-06,-3.43051e-08,4.34437e-06,65,-123.18,-170.23,1.0833e+07,1e+06,-9.51527e-08,2.18229e-07,-6.86149e-08,-0.00379684,0.0307649,2.80971e-05,0.0337277,2,469
12,5.65354e-22,1,653,80.41,-4.19939e-06,1.38402e-06,-3.37764e-08,4.42171e-06,65,-123.18,-170.23,1.0833e+07,1e+06,-9.15527e-08,2.13515e-07,-6.75557e-08,-0.00334157,0.0302943,1.65214e-05,0.0330764,2,470
12,5.65354e-22,1,654,80.41,-4.28904e-06,1.34861e-06,-3.32714e-08,4.49619e-06,65,-123.18,-170.23,1.0833e+07,1e+06,-8.77924e-08,2.08684e-07,-6.65399e-08,-0.00285894,0.029802,-1.07234e-06,0.0323781,2,471
12,5.65354e-22,1,655,80.41,-4.37498e-06,1.31351e-06,-3.27967e-08,4.56802e-06,65,-123.18,-170.23,1.0833e+07,1e+06,-8.44835e-08,2.04193e-07,-6.55825e-08,-0.00245763,0.0293063,-1.79706e-05,0.0316887,2,472
12,5.65354e-22,1,656,80.41,-4.45801e-06,1.27994e-06,-3.23357e-08,4.63822e-06,65,-123.18,-170.23,1.0833e+07,1e+06,-8.21306e-08,2.00253e-07,-6.45415e-08,-0.00224703,0.0287996,7.25908e-06,0.0310166,2,473
12,5.65354e-22,1,657,80.41,-4.53924e-06,1.24997e-06,-3.12769e-08,4.7083e-06,65,-123.18,-170.23,1.0833e+07,1e+06,-7.92663e-08,1.95573e-07,-6.27883e-08,-0.00193484,0.0282384,0.000225104,0.0300818,2,474
12,5.96855e-22,1,658,80.41,-4.61654e-06,1.22578e-06,-3.20441e-08,4.77661e-06,67.9375,-123.18,-170.23,1.0833e+07,1e+06,-6.34277e-08,1.84253e-07,-6.39899e-08,-0.001384,0.0290777,0.000479242,0.0304998,2,475
12,6.75335e-22,1,659,179.529,-4.66609e-06,1.20392e-06,-3.80847e-08,4.81906e-06,76.625,-34.9099,-168.19,1.0833e+07,1e+06,-3.08913e-08,1.67068e-07,-7.60311e-08,-0.00134101,0.0313226,-0.000167721,0.0329572,2,476
12,7.37792e-22,1,660,179.529,-4.67832e-06,1.1631e-06,-4.51962e-08,4.82095e-06,85.1875,-34.91,-168.19,1.0833e+07,1e+06,-4.7196e-09,1.59454e-07,-9.06374e-08,-0.00143578,0.033659,-0.000450441,0.0349943,2,477
12,7.5327e-22,1,661,179.529,-4.67553e-06,1.113e-06,-4.81594e-08,4.80642e-06,88,-34.91,-168.19,1.0833e+07,1e+06,4.2559e-09,1.59559e-07,-9.62363e-08,-0.00104825,0.0346487,-0.000101968,0.0352571,2,478
12,7.5327e-22,1,662,179.529,-4.66981e-06,1.08289e-06,-4.84999e-08,4.79397e-06,88,-34.91,-168.19,1.0833e+07,1e+06,6.1161e-09,1.58885e-07,-9.69788e-08,-0.000717536,0.0345483,-0.000112212,0.0350018,2,479
12,7.5327e-22,1,663,179.529,-4.6633e-06,1.07164e-06,-4.87458e-08,4.7851e-06,88,-34.91,-168.19,1.0833e+07,1e+06,6.40847e-09,1.60109e-07,-9.74795e-08,-0.000672407,0.0349187,-2.42865e-05,0.0353485,2,480
12,7.5327e-22,1,664,179.529,-4.65699e-06,1.07283e-06,-4.92429e-08,4.77922e-06,88,-34.91,-168.19,1.0833e+07,1e+06,6.06985e-09,1.62287e-07,-9.8484e-08,-0.000795181,0.0354389,-8.03719e-06,0.0359651,2,481
12,7.5327e-22,1,665,179.529,-4.65116e-06,1.08214e-06,-4.98812e-08,4.77565e-06,88,-34.91,-168.19,1.0833e+07,1e+06,5.51095e-09,1.65049e-07,-9.97619e-08,-0.000965925,0.036066,-5.6335e-06,0.0367041,2,482
12,7.5327e-22,1,666,179.529,-4.64597e-06,1.09654e-06,-5.05942e-08,4.77389e-06,88,-34.91,-168.19,1.0833e+07,1e+06,4.80682e-09,1.68197e-07,-1.01189e-07,-0.00116416,0.0367677,-5.19017e-06,0.0375173,2,483
12,7.5327e-22,1,667,179.529,-4.64155e-06,1.11387e-06,-5.13463e-08,4.77361e-06,88,-34.91,-168.19,1.0833e+07,1e+06,3.98629e-09,1.71596e-07,-1.02693e-07,-0.00138368,0.0375189,-4.4079e-06,0.0383794,2,484
12,7.5327e-22,1,668,179.529,-4.638e-06,1.13246e-06,-5.20944e-08,4.77454e-06,88,-34.91,-168.19,1.0833e+07,1e+06,3.06722e-09,1.75084e-07,-1.04189e-07,-0.00161991,0.0382858,-2.9379e-06,0.0392573,2,485
12,7.5327e-22,1,669,179.529,-4.63541e-06,1.15084e-06,-5.2783e-08,4.77643e-06,88,-34.91,-168.19,1.0833e+07,1e+06,2.07021e-09,1.78454e-07,-1.05567e-07,-0.00186668,0.0390236,-6.43864e-07,0.0401063,2,486
12,7.5327e-22,1,670,179.529,-4.63386e-06,1.16779e-06,-5.33505e-08,4.77904e-06,88,-34.91,-168.19,1.0833e+07,1e+06,1.02416e-09,1.8146e-07,-1.06702e-07,-0.00211618,0.0396795,1.84779e-06,0.0408728,2,487
12,7.5327e-22,1,671,179.529,-4.63337e-06,1.18244e-06,-5.37415e-08,4.78217e-06,88,-34.91,-168.19,1.0833e+07,1e+06,-3.62152e-11,1.83873e-07,-1.07484e-07,-0.00236022,0.0402041,3.78101e-06,0.0415069,2,488
12,7.5327e-22,1,672,179.529,-4.63393e-06,1.19444e-06,-5.39183e-08,4.7857e-06,88,-34.91,-168.19,1.0833e+07,1e+06,-1.07571e-09,1.85526e-07,-1.07837e-07,-0.00259159,0.0405634,5.11378e-06,0.0419739,2,489
12,7.5327e-22,1,673,179.529,-4.63552e-06,1.20407e-06,-5.38585e-08,4.78965e-06,88,-34.91,-168.19,1.0833e+07,1e+06,-2.05765e-09,1.86317e-07,-1.07717e-07,-0.00280325,0.0407378,6.99137e-06,0.0422518,2,490
12,7.5327e-22,1,674,179.529,-4.63805e-06,1.21232e-06,-5.35316e-08,4.79417e-06,88,-34.91,-168.19,1.0833e+07,1e+06,-2.93104e-09,1.86111e-07,-1.07063e-07,-0.00298346,0.0407023,1.23225e-05,0.0423088,2,491
12,7.5327e-22,1,675,179.529,-4.64138e-06,1.22071e-06,-5.28556e-08,4.79951e-06,88,-34.91,-168.19,1.0833e+07,1e+06,-3.61909e-09,1.84574e-07,-1.05715e-07,-0.00311141,0.0403849,2.30883e-05,0.0420611,2,492
12,7.5327e-22,1,676,179.529,-4.64528e-06,1.23075e-06,-5.16866e-08,4.80584e-06,88,-34.91,-168.19,1.0833e+07,1e+06,-4.00556e-09,1.81086e-07,-1.03386e-07,-0.00315232,0.0396451,3.74099e-05,0.0413472,2,493
12,7.5327e-22,1,677,179.529,-4.64939e-06,1.24259e-06,-4.99537e-08,4.81283e-06,88,-34.91,-168.19,1.0833e+07,1e+06,-4.01969e-09,1.75139e-07,-9.99222e-08,-0.00308995,0.0383496,3.23476e-05,0.0400276,2,494
12,7.5327e-22,1,678,179.529,-4.65332e-06,1.25393e-06,-4.79296e-08,4.81955e-06,88,-34.91,-168.19,1.0833e+07,1e+06,-3.56077e-09,1.67674e-07,-9.59399e-08,-0.00290548,0.0366924,6.18805e-06,0.0382759,2,495
12,7.5327e-22,1,679,179.529,-4.65651e-06,1.26043e-06,-4.62701e-08,4.82431e-06,88,-34.91,-168.19,1.0833e+07,1e+06,-3.27567e-09,1.59289e-07,-9.21768e-08,-0.00285315,0.0347138,-0.000217114,0.0363438,2,496
12,6.82395e-22,1,680,179.529,-4.65988e-06,1.26233e-06,-4.26811e-08,4.82802e-06,90.0625,-34.91,-168.19,8.89556e+06,906250,-1.05993e-08,1.5848e-07,-8.56345e-08,-0.00277412,0.0329035,-6.31371e-05,0.0345067,2,497
12,5.17021e-22,2,681,93.06,-4.67771e-06,1.2284e-06,-4.06502e-08,4.83649e-06,94.875,38.02,137.36,4.37488e+06,687500,-2.50193e-08,1.74521e-07,-8.15702e-08,-0.00203933,0.0319977,0.000431825,0.0330872,3,182
12,3.98896e-22,2,682,93.06,-4.70991e-06,1.13489e-06,-4.00213e-08,4.84488e-06,98.3125,38.02,137.36,1.14581e+06,531250,-3.13953e-08,1.76698e-07,-7.94181e-08,-0.0014854,0.0291156,0.000227122,0.0299221,3,183
12,3.75271e-22,2,683,93.06,-4.7405e-06,1.02679e-06,-3.48802e-08,4.85055e-06,99,38.02,137.36,500000,500000,-2.83096e-08,1.55134e-07,-6.98905e-08,-0.00117397,0.0248812,9.10614e-05,0.0255016,3,184
12,3.73449e-22,2,684,93.06,-4.76653e-06,9.37369e-07,-2.9597e-08,4.85792e-06,98.8125,38.02,137.36,500000,500000,-2.86101e-08,1.40132e-07,-5.97645e-08,-0.000741708,0.0223072,6.91185e-05,0.0229223,3,185
12,3.66159e-22,2,685,93.06,-4.79772e-06,8.74026e-07,-2.754e-08,4.87676e-06,98.0625,38.02,137.36,500000,500000,-4.44467e-08,1.45177e-07,-5.47722e-08,-0.000854832,0.0204479,-0.000382384,0.0218848,3,186
12,3.55224e-22,2,686,29.09,-4.85543e-06,8.52515e-07,-2.44978e-08,4.92976e-06,96.9375,38.11,-136.53,500000,500000,-7.1615e-08,1.61204e-07,-4.86861e-08,-0.00101977,0.0182735,-0.000156504,0.0201077,3,187
12,4.31757e-22,2,687,29.09,-4.94095e-06,8.66587e-07,-1.96402e-08,5.01641e-06,101.938,38.11,-136.53,3.08325e+06,625000,-8.01216e-08,1.65116e-07,-3.96632e-08,-0.000870862,0.0208652,0.000333328,0.0226599,3,188
12,5.97579e-22,1,688,64.15,-5.01567e-06,9.21585e-07,-2.00199e-08,5.09967e-06,113.25,-139.18,-156.59,8.24975e+06,875000,-6.52796e-08,1.61866e-07,-3.99877e-08,-0.000780267,0.0282248,-1.90241e-05,0.0295094,2,498
12,6.81402e-22,1,689,64.15,-5.07151e-06,1.001e-06,-2.23558e-08,5.1694e-06,119,-139.18,-156.59,1.0833e+07,1e+06,-5.69482e-08,1.65176e-07,-4.45935e-08,-0.000837039,0.0325367,-0.000156307,0.0330746,2,499
12,6.81402e-22,1,690,64.15,-5.12957e-06,1.06864e-06,-2.25226e-08,5.23975e-06,119,-139.18,-156.59,1.0833e+07,1e+06,-5.94265e-08,1.71078e-07,-4.50938e-08,-0.00104345,0.0339877,4.80293e-05,0.0345186,2,500
12,6.81402e-22,1,691,64.15,-5.19036e-06,1.12558e-06,-2.32171e-08,5.31106e-06,119,-139.18,-156.59,1.0833e+07,1e+06,-6.19389e-08,1.76727e-07,-4.64228e-08,-0.00129392,0.0351753,6.88241e-06,0.0358792,2,501
12,6.81402e-22,1,692,64.15,-5.25344e-06,1.17492e-06,-2.38392e-08,5.38328e-06,119,-139.18,-156.59,1.0833e+07,1e+06,-6.41137e-08,1.82287e-07,-4.76794e-08,-0.00143744,0.0363678,1.30652e-05,0.0371868,2,502
12,6.81402e-22,1,693,64.15,-5.31859e-06,1.21811e-06,-2.44779e-08,5.45635e-06,119,-139.18,-156.59,1.0833e+07,1e+06,-6.60269e-08,1.87652e-07,-4.89555e-08,-0.0015195,0.0375238,1.77227e-05,0.038435,2,503
12,6.81402e-22,1,694,64.15,-5.3855e-06,1.25619e-06,-2.51038e-08,5.53012e-06,119,-139.18,-156.59,1.0833e+07,1e+06,-6.75745e-08,1.9265e-07,-5.02075e-08,-0.0015278,0.0386175,2.20638e-05,0.0395851,2,504
12,6.81402e-22,1,695,64.15,-5.45374e-06,1.29001e-06,-2.57042e-08,5.60429e-06,119,-139.18,-156.59,1.0833e+07,1e+06,-6.86345e-08,1.97121e-07,-5.14096e-08,-0.00144306,0.039624,2.55941e-05,0.0405995,2,505
12,6.81402e-22,1,696,64.15,-5.52277e-06,1.32036e-06,-2.62726e-08,5.67847e-06,119,-139.18,-156.59,1.0833e+07,1e+06,-6.90859e-08,2.00934e-07,-5.25469e-08,-0.00124266,0.0405237,2.83309e-05,0.0414432,2,506
12,6.81402e-22,1,697,64.15,-5.59191e-06,1.34814e-06,-2.68116e-08,5.75219e-06,119,-139.18,-156.59,1.0833e+07,1e+06,-6.88393e-08,2.04006e-07,-5.36265e-08,-0.000908088,0.0412998,2.73614e-05,0.0420868,2,507
12,6.81402e-22,1,698,64.15,-5.66045e-06,1.37452e-06,-2.73406e-08,5.82501e-06,119,-139.18,-156.59,1.0833e+07,1e+06,-6.79365e-08,2.06374e-07,-5.4682e-08,-0.000444539,0.0419445,1.72881e-05,0.0425187,2,508
12,6.81402e-22,1,699,64.15,-5.72778e-06,1.40121e-06,-2.79099e-08,5.89675e-06,119,-139.18,-156.59,1.0833e+07,1e+06,-6.66683e-08,2.08475e-07,-5.58189e-08,0.000111788,0.0425154,-3.49016e-06,0.0428057,2,509
12,6.81402e-22,1,700,64.15,-5.79378e-06,1.4305e-06,-2.86213e-08,5.96783e-06,119,-139.18,-156.59,1.0833e+07,1e+06,-6.55987e-08,2.11393e-07,-5.72399e-08,0.000705865,0.043212,-2.1599e-05,0.0431694,2,510
12,6.81402e-22,1,701,64.15,-5.85898e-06,1.46482e-06,-2.95901e-08,6.03939e-06,119,-139.18,-156.59,1.0833e+07,1e+06,-6.54532e-08,2.16556e-07,-5.91786e-08,0.00125905,0.0443259,-1.83881e-05,0.0439489,2,511
12,6.81402e-22,1,702,64.15,-5.92469e-06,1.50583e-06,-3.09306e-08,6.11314e-06,119,-139.18,-156.59,1.0833e+07,1e+06,-6.75816e-08,2.25325e-07,-6.17231e-08,0.00146054,0.0461517,-1.50444e-05,0.0456216,2,512
12,6.81402e-22,1,703,64.15,-5.99414e-06,1.55531e-06,-2.94833e-08,6.19271e-06,119,-139.18,-156.59,1.0833e+07,1e+06,-7.2735e-08,2.40986e-07,-5.98064e-08,0.00184742,0.0500464,0.00186191,0.0483343,2,513
12,5.91662e-22,1,704,64.15,-6.07016e-06,1.62491e-06,-4.6127e-08,6.28405e-06,120.5,-139.18,-156.59,8.24975e+06,875000,-7.05745e-08,2.68656e-07,-9.21857e-08,0.00110912,0.0504382,-0.00111734,0.0515434,2,514
12,4.12181e-22,2,705,106.24,-6.13529e-06,1.61885e-06,-6.91018e-08,6.34565e-06,123.5,-1.3,-30.28,3.08325e+06,625000,-5.45194e-08,2.82378e-07,-1.37073e-07,-0.000223448,0.0418829,-0.00215716,0.0441481,3,189
12,3.22441e-22,2,706,106.24,-6.1792e-06,1.5194e-06,-7.76862e-08,6.36373e-06,125,-1.3,-30.28,500000,500000,-4.0488e-08,2.80349e-07,-1.55437e-07,-0.000457486,0.035008,0.000738951,0.0349282,3,190
12,3.22441e-22,2,707,106.24,-6.21627e-06,1.39943e-06,-8.34852e-08,6.37239e-06,125,-1.3,-30.28,500000,500000,-3.70934e-08,2.8737e-07,-1.67403e-07,-0.000220333,0.0349461,-8.43382e-05,0.0351383,3,191
12,6.45258e-22,1,708,73.27,-5.11026e-08,1.43047e-06,-2.0751e-08,1.43153e-06,8,-129.16,-171.71,1.0833e+07,1e+06,-1.01065e-07,1.68035e-07,-4.15482e-08,-0.010108,0.0220728,0.000636885,0.0285059,2,515
12,6.45258e-22,1,709,73.27,-1.51027e-07,1.46546e-06,-2.15659e-08,1.47338e-06,8,-129.16,-171.71,1.0833e+07,1e+06,-9.82738e-08,1.62288e-07,-4.30612e-08,-0.00986451,0.020603,-0.000352049,0.0271127,2,516
12,5.80932e-22,1,710,73.27,-2.4765e-07,1.50613e-06,-2.17115e-08,1.52651e-06,9.5,-129.16,-171.71,8.89556e+06,906250,-8.9422e-08,1.56618e-07,-4.31737e-08,-0.00973756,0.0211649,-0.00020957,0.0282128,2,517
12,4.96491e-22,2,711,91.58,-3.29871e-07,1.52915e-06,-2.31221e-08,1.5645e-06,12,16.06,146.57,6.31231e+06,781250,-7.05828e-08,1.50981e-07,-4.56515e-08,-0.00872377,0.0251683,-0.000712782,0.0319793,3,192
12,5.20589e-22,1,712,126.08,-3.88816e-07,1.52866e-06,-1.88575e-08,1.57745e-06,12.5,-20.36,125.34,6.95813e+06,812500,-5.13739e-08,1.40207e-07,-3.8299e-08,-0.00569973,0.0288124,0.000158149,0.03286,2,518
12,5.86908e-22,1,713,126.08,-4.32619e-07,1.50393e-06,-1.45095e-08,1.56498e-06,11.75,-20.36,125.34,8.89556e+06,906250,-3.87074e-08,1.31247e-07,-2.96632e-08,-0.00231928,0.0312938,0.000836723,0.0326577,2,519
12,6.3112e-22,1,714,126.08,-4.66231e-07,1.45508e-06,-1.23819e-08,1.52799e-06,11.25,-20.36,125.34,1.01872e+07,968750,-3.1581e-08,1.23268e-07,-2.44343e-08,-0.000480796,0.032744,0.000694244,0.032931,2,520
12,5.80506e-22,1,715,126.08,-4.95781e-07,1.39247e-06,-1.18563e-08,1.47815e-06,14,-20.36,125.34,8.24975e+06,875000,-3.90378e-08,1.28792e-07,-2.41688e-08,0.00019449,0.0308,0.000629095,0.0309388,2,521
12,4.35064e-22,2,716,153.64,-5.44306e-07,1.33857e-06,-2.34614e-08,1.4452e-06,20,-177.01,-156.76,3.08325e+06,625000,-6.20412e-08,1.71472e-07,-4.68125e-08,-2.14977e-05,0.0275892,0.000234651,0.0283944,3,193
12,3.62343e-22,2,717,153.64,-6.19863e-07,1.3339e-06,-3.54915e-08,1.47132e-06,23,-177.01,-156.76,500000,500000,-8.19329e-08,2.16905e-07,-7.06592e-08,-0.00047722,0.0274262,-6.61277e-05,0.0284264,3,194
12,3.62343e-22,2,718,153.64,-7.08172e-07,1.36961e-06,-3.82737e-08,1.54234e-06,23,-177.01,-156.76,500000,500000,-9.06061e-08,2.3779e-07,-7.66186e-08,-0.000216079,0.0297029,9.45648e-06,0.0302646,3,195
12,3.62343e-22,2,719,153.64,-8.01075e-07,1.42141e-06,-4.01662e-08,1.6321e-06,23,-177.01,-156.76,500000,500000,-9.27907e-08,2.47374e-07,-8.03697e-08,3.12999e-05,0.0309087,8.16219e-05,0.0312754,3,196
12,3.62343e-22,2,720,153.64,-8.93754e-07,1.47269e-06,-4.1922e-08,1.72319e-06,23,-177.01,-156.76,500000,500000,-9.12161e-08,2.51608e-07,-8.40346e-08,0.000228779,0.0316496,3.90985e-05,0.0319965,3,197
12,3.62343e-22,2,721,153.64,-9.83507e-07,1.51364e-06,-4.29525e-08,1.80562e-06,23,-177.01,-156.76,500000,500000,-8.9066e-08,2.51924e-07,-8.51286e-08,0.000353785,0.0320096,0.000127636,0.0323427,3,198
12,3.62343e-22,2,722,153.64,-1.07189e-06,1.54232e-06,-4.14734e-08,1.87867e-06,23,-177.01,-156.76,500000,500000,-8.87606e-08,2.52228e-07,-8.2963e-08,0.000544315,0.032496,0.000610516,0.0326,3,199
12,4.45729e-22,2,723,153.64,-1.16103e-06,1.55938e-06,-4.13716e-08,1.94457e-06,26.25,-177.01,-156.76,3.08325e+06,625000,-9.05829e-08,2.51151e-07,-8.33897e-08,0.000427668,0.0331177,4.29244e-05,0.0337513,3,200
12,6.12499e-22,1,724,80.81,-1.25305e-06,1.5389e-06,-4.26254e-08,1.98499e-06,32.75,-129.97,-177.44,8.24975e+06,875000,-9.38302e-08,2.48999e-07,-8.49985e-08,-0.000141393,0.0336534,-0.000178657,0.0344104,2,522
12,6.95884e-22,1,725,80.81,-1.34869e-06,1.49435e-06,-4.29426e-08,2.01343e-06,36,-129.97,-177.44,1.0833e+07,1e+06,-9.65275e-08,2.50063e-07,-8.59119e-08,-0.000665781,0.033888,0.000298573,0.0341909,2,523
12,6.95884e-22,1,726,80.81,-1.44611e-06,1.4636e-06,-4.35548e-08,2.05797e-06,36,-129.97,-177.44,1.0833e+07,1e+06,-9.78456e-08,2.50668e-07,-8.71925e-08,-0.00109802,0.0336011,2.97121e-05,0.034188,2,524
12,6.95884e-22,1,727,80.81,-1.54438e-06,1.44442e-06,-4.34456e-08,2.11503e-06,36,-129.97,-177.44,1.0833e+07,1e+06,-9.85138e-08,2.49336e-07,-8.6847e-08,-0.00146446,0.0332077,-3.06715e-05,0.034052,2,525
12,6.95884e-22,1,728,80.81,-1.64313e-06,1.43426e-06,-4.31999e-08,2.18148e-06,36,-129.97,-177.44,1.0833e+07,1e+06,-9.97089e-08,2.48325e-07,-8.63112e-08,-0.0019214,0.0328622,-5.65592e-05,0.0340173,2,526
12,6.95884e-22,1,729,80.81,-1.7438e-06,1.43181e-06,-4.29502e-08,2.25672e-06,36,-129.97,-177.44,1.0833e+07,1e+06,-1.02268e-07,2.48775e-07,-8.58397e-08,-0.00258262,0.0326685,-1.29892e-05,0.0342338,2,527
12,6.95884e-22,1,730,80.81,-1.84767e-06,1.43628e-06,-4.25477e-08,2.34064e-06,36,-129.97,-177.44,1.0833e+07,1e+06,-1.0504e-07,2.48906e-07,-8.51132e-08,-0.00332815,0.0323956,5.62858e-05,0.034462,2,528
12,6.95884e-22,1,731,80.81,-1.95388e-06,1.44631e-06,-4.16571e-08,2.43129e-06,36,-129.97,-177.44,1.0833e+07,1e+06,-1.05852e-07,2.45423e-07,-8.34082e-08,-0.00391702,0.0316649,9.21325e-05,0.0342308,2,529
12,6.95884e-22,1,732,80.81,-2.05937e-06,1.45902e-06,-3.97829e-08,2.52415e-06,36,-129.97,-177.44,1.0833e+07,1e+06,-1.03033e-07,2.36482e-07,-7.95852e-08,-0.00404293,0.0304477,0.000295337,0.0332001,2,530
12,6.17933e-22,1,733,80.81,-2.15995e-06,1.47053e-06,-3.89467e-08,2.6133e-06,36.75,-129.97,-177.44,8.24975e+06,875000,-8.79362e-08,2.22551e-07,-7.79617e-08,-0.00407637,0.0306851,-0.000112244,0.0336829,2,531
12,4.6203e-22,2,734,152.99,-2.23524e-06,1.4605e-06,-3.71561e-08,2.67035e-06,38.25,-64.12,170.81,3.08325e+06,625000,-6.39579e-08,2.02777e-07,-7.40769e-08,-0.00397433,0.0319988,-0.000209031,0.034827,3,201
12,3.84139e-22,2,735,152.99,-2.28786e-06,1.41386e-06,-3.33743e-08,2.68969e-06,39.125,-64.12,170.81,500000,500000,-5.58063e-08,1.83188e-07,-6.65388e-08,-0.00399147,0.0295064,-8.24403e-05,0.0323394,3,202
12,3.84381e-22,2,736,152.99,-2.34686e-06,1.37288e-06,-3.6719e-08,2.71917e-06,39.625,-64.12,170.81,500000,500000,-7.5266e-08,1.99398e-07,-7.3647e-08,-0.0039012,0.025318,-0.000313961,0.0289574,3,203
12,4.29821e-22,2,737,150.54,-2.43839e-06,1.42526e-06,-4.37803e-08,2.82472e-06,46.375,178.09,96.28,3.08325e+06,625000,-1.02465e-07,2.44515e-07,-8.74689e-08,-0.00320254,0.0268964,0.000371073,0.030506,3,204
12,5.20216e-22,1,738,80.41,-2.55179e-06,1.55452e-06,-4.48834e-08,2.98834e-06,58.875,-123.18,-170.23,8.24975e+06,875000,-1.12392e-07,2.66701e-07,-9.03056e-08,-0.00294574,0.0329397,0.000627168,0.0356059,2,532
12,5.65354e-22,1,739,80.41,-2.66318e-06,1.67211e-06,-4.4273e-08,3.14491e-06,65,-123.18,-170.23,1.0833e+07,1e+06,-1.10968e-07,2.68655e-07,-8.87508e-08,-0.00292475,0.0367327,0.000363316,0.0385042,2,533
12,5.65354e-22,1,740,80.41,-2.77372e-06,1.75462e-06,-4.39283e-08,3.2824e-06,65,-123.18,-170.23,1.0833e+07,1e+06,-1.07758e-07,2.64391e-07,-8.73465e-08,-0.00267717,0.036884,0.000138568,0.0384198,2,534
12,5.65354e-22,1,741,80.41,-2.87869e-06,1.80612e-06,-4.23157e-08,3.39864e-06,65,-123.18,-170.23,1.0833e+07,1e+06,-1.0223e-07,2.54586e-07,-8.4613e-08,-0.00229369,0.0359527,-7.90531e-05,0.0375166,2,535
12,5.65354e-22,1,742,80.41,-2.97818e-06,1.83554e-06,-4.08265e-08,3.49863e-06,65,-123.18,-170.23,1.0833e+07,1e+06,-9.80089e-08,2.46381e-07,-8.16534e-08,-0.00198092,0.0350985,-4.53878e-05,0.03663,2,536
12,5.65354e-22,1,743,80.41,-3.07471e-06,1.85026e-06,-3.96684e-08,3.58871e-06,65,-123.18,-170.23,1.0833e+07,1e+06,-9.59214e-08,2.40529e-07,-7.93415e-08,-0.0019865,0.0343577,-1.88805e-05,0.0359732,2,537
12,5.65354e-22,1,744,80.41,-3.17003e-06,1.85427e-06,-3.87864e-08,3.67272e-06,65,-123.18,-170.23,1.0833e+07,1e+06,-9.52701e-08,2.3654e-07,-7.75727e-08,-0.00218168,0.0337614,-5.0066e-06,0.0355253,2,538
12,5.65354e-22,1,745,80.41,-3.26525e-06,1.84987e-06,-3.81028e-08,3.75304e-06,65,-123.18,-170.23,1.0833e+07,1e+06,-9.5541e-08,2.33892e-07,-7.62038e-08,-0.00248456,0.0332889,1.7411e-06,0.0352351,2,539
12,5.65354e-22,1,746,80.41,-3.36111e-06,1.83862e-06,-3.75652e-08,3.83131e-06,65,-123.18,-170.23,1.0833e+07,1e+06,-9.6409e-08,2.32227e-07,-7.51292e-08,-0.00284526,0.0329211,7.24327e-06,0.0350671,2,540
12,5.65354e-22,1,747,80.41,-3.45807e-06,1.82166e-06,-3.71318e-08,3.90872e-06,65,-123.18,-170.23,1.0833e+07,1e+06,-9.762e-08,2.31235e-07,-7.42632e-08,-0.00322935,0.0326368,1.29365e-05,0.0349932,2,541
12,5.65354e-22,1,748,80.41,-3.55635e-06,1.7999e-06,-3.6759e-08,3.98605e-06,65,-123.18,-170.23,1.0833e+07,1e+06,-9.89121e-08,2.30587e-07,-7.35183e-08,-0.00360276,0.0324117,1.90284e-05,0.0349824,2,542
12,5.65354e-22,1,749,80.41,-3.65589e-06,1.77402e-06,-3.6399e-08,4.06375e-06,65,-123.18,-170.23,1.0833e+07,1e+06,-1e-07,2.29914e-07,-7.27991e-08,-0.00392931,0.0322153,2.54617e-05,0.0349949,2,543
12,5.65354e-22,1,750,80.41,-3.75635e-06,1.7445e-06,-3.60041e-08,4.14183e-06,65,-123.18,-170.23,1.0833e+07,1e+06,-1.0059e-07,2.28825e-07,-7.20099e-08,-0.00417224,0.032011,3.18962e-05,0.0349807,2,544
12,5.65354e-22,1,751,80.41,-3.85707e-06,1.71169e-06,-3.55354e-08,4.21997e-06,65,-123.18,-170.23,1.0833e+07,1e+06,-1.00408e-07,2.26963e-07,-7.10736e-08,-0.00429653,0.0317611,3.78246e-05,0.0348857,2,545
12,5.65354e-22,1,752,80.41,-3.95716e-06,1.67596e-06,-3.49739e-08,4.29758e-06,65,-123.18,-170.23,1.0833e+07,1e+06,-9.92385e-08,2.24072e-07,-6.99525e-08,-0.00427236,0.0314347,4.22266e-05,0.0346598,2,546
12,5.65354e-22,1,753,80.41,-4.05555e-06,1.63781e-06,-3.43281e-08,4.37391e-06,65,-123.18,-170.23,1.0833e+07,1e+06,-9.69783e-08,2.20056e-07,-6.86639e-08,-0.00408254,0.0310127,4.25311e-05,0.0342645,2,547
12,5.65354e-22,1,754,80.41,-4.15112e-06,1.59801e-06,-3.36363e-08,4.44821e-06,65,-123.18,-170.23,1.0833e+07,1e+06,-9.37175e-08,2.15037e-07,-6.72829e-08,-0.00373856,0.0304904,3.38949e-05,0.0336806,2,548
12,5.65354e-22,1,755,80.41,-4.24298e-06,1.55759e-06,-3.2956e-08,4.51997e-06,65,-123.18,-170.23,1.0833e+07,1e+06,-8.98572e-08,2.09409e-07,-6.59197e-08,-0.00330436,0.0298779,1.17164e-05,0.0329182,2,549
12,5.65354e-22,1,756,80.41,-4.33083e-06,1.51785e-06,-3.23306e-08,4.58923e-06,65,-123.18,-170.23,1.0833e+07,1e+06,-8.60669e-08,2.03772e-07,-6.4652e-08,-0.00288902,0.0292025,-1.51649e-05,0.0320155,2,550
12,5.65354e-22,1,757,80.41,-4.41512e-06,1.48005e-06,-3.17333e-08,4.6567e-06,65,-123.18,-170.23,1.0833e+07,1e+06,-8.27889e-08,1.98415e-07,-6.34312e-08,-0.00257226,0.0284714,-2.60442e-05,0.0309907,2,551
12,5.65354e-22,1,758,80.41,-4.49641e-06,1.44478e-06,-3.08434e-08,4.72293e-06,65,-123.18,-170.23,1.0833e+07,1e+06,-7.95872e-08,1.92401e-07,-6.14772e-08,-0.00232086,0.0276538,0.000114539,0.0298498,2,552
12,5.77099e-22,1,759,80.41,-4.57429e-06,1.40792e-06,-2.99863e-08,4.78616e-06,66.4375,-123.18,-170.23,1.0833e+07,1e+06,-7.08791e-08,1.83906e-07,-6.01488e-08,-0.00182222,0.0276186,0.000415067,0.029348,2,553
12,6.35822e-22,1,760,80.41,-4.63817e-06,1.37095e-06,-3.433e-08,4.83666e-06,73.625,-123.18,-170.23,1.0833e+07,1e+06,-4.35951e-08,1.71397e-07,-6.91245e-08,-0.00107696,0.0299496,0.000213517,0.0313247,2,554
12,7.18036e-22,1,761,179.529,-4.66148e-06,1.32211e-06,-4.29856e-08,4.84554e-06,83.6875,-34.9099,-168.19,1.0833e+07,1e+06,-8.44018e-09,1.58215e-07,-8.5685e-08,-0.000577239,0.0324652,-0.000119044,0.0332764,2,555
12,7.5327e-22,1,762,179.529,-4.65505e-06,1.26953e-06,-4.69562e-08,4.82529e-06,88,-34.91,-168.19,1.0833e+07,1e+06,6.41183e-09,1.53326e-07,-9.36031e-08,-0.000480198,0.0333086,-4.56147e-05,0.0335979,2,556
12,7.5327e-22,1,763,179.529,-4.64866e-06,1.23995e-06,-4.69014e-08,4.81141e-06,88,-34.91,-168.19,1.0833e+07,1e+06,5.49085e-09,1.55173e-07,-9.39174e-08,-0.000750899,0.0338291,7.63517e-06,0.0342528,2,557
12,7.5327e-22,1,764,179.529,-4.64407e-06,1.23055e-06,-4.72456e-08,4.80457e-06,88,-34.91,-168.19,1.0833e+07,1e+06,4.12636e-09,1.57696e-07,-9.45325e-08,-0.0011265,0.0344601,2.16871e-05,0.0351228,2,558
12,7.5327e-22,1,765,179.529,-4.64041e-06,1.23442e-06,-4.79835e-08,4.80203e-06,88,-34.91,-168.19,1.0833e+07,1e+06,3.36807e-09,1.60894e-07,-9.59755e-08,-0.00136531,0.0351968,1.80038e-05,0.0360314,2,559
12,7.5327e-22,1,766,179.529,-4.63733e-06,1.2468e-06,-4.8837e-08,4.80227e-06,88,-34.91,-168.19,1.0833e+07,1e+06,2.82167e-09,1.64258e-07,-9.76793e-08,-0.00155017,0.0359465,5.1169e-06,0.0369116,2,560
12,7.5327e-22,1,767,179.529,-4.63476e-06,1.26455e-06,-4.97413e-08,4.80443e-06,88,-34.91,-168.19,1.0833e+07,1e+06,2.30848e-09,1.67811e-07,-9.94873e-08,-0.00171727,0.0367313,-1.76369e-06,0.0377991,2,561
12,7.5327e-22,1,768,179.529,-4.63272e-06,1.28545e-06,-5.06701e-08,4.80801e-06,88,-34.91,-168.19,1.0833e+07,1e+06,1.74682e-09,1.71528e-07,-1.01342e-07,-0.00188755,0.0375485,-3.99486e-06,0.0387061,2,562
12,7.5327e-22,1,769,179.529,-4.63127e-06,1.30765e-06,-5.15834e-08,4.81262e-06,88,-34.91,-168.19,1.0833e+07,1e+06,1.10078e-09,1.75301e-07,-1.03168e-07,-0.00206957,0.0383748,-3.33936e-06,0.0396173,2,563
12,7.5327e-22,1,770,179.529,-4.63051e-06,1.32952e-06,-5.24253e-08,4.81789e-06,88,-34.91,-168.19,1.0833e+07,1e+06,3.72316e-10,1.78931e-07,-1.04851e-07,-0.00226134,0.0391672,-4.27528e-07,0.0404911,2,564
12,7.5327e-22,1,771,179.529,-4.63052e-06,1.34956e-06,-5.31263e-08,4.82347e-06,88,-34.91,-168.19,1.0833e+07,1e+06,-4.05728e-10,1.82135e-07,-1.06254e-07,-0.00245397,0.0398635,3.2431e-06,0.0412647,2,565
12,7.5327e-22,1,772,179.529,-4.63133e-06,1.36666e-06,-5.3621e-08,4.82906e-06,88,-34.91,-168.19,1.0833e+07,1e+06,-1.18403e-09,1.84627e-07,-1.07243e-07,-0.00263586,0.0404017,6.22948e-06,0.0418749,2,566
12,7.5327e-22,1,773,179.529,-4.63289e-06,1.38026e-06,-5.38657e-08,4.83443e-06,88,-34.91,-168.19,1.0833e+07,1e+06,-1.91203e-09,1.86206e-07,-1.07732e-07,-0.00279639,0.0407395,8.12648e-06,0.0422776,2,567
12,7.5327e-22,1,774,179.529,-4.63515e-06,1.39056e-06,-5.384e-08,4.83954e-06,88,-34.91,-168.19,1.0833e+07,1e+06,-2.54469e-09,1.86762e-07,-1.0768e-07,-0.00292679,0.0408562,9.87563e-06,0.0424496,2,568
12,7.5327e-22,1,775,179.529,-4.63798e-06,1.39841e-06,-5.35258e-08,4.84451e-06,88,-34.91,-168.19,1.0833e+07,1e+06,-3.03815e-09,1.86205e-07,-1.07051e-07,-0.00301765,0.0407347,1.31772e-05,0.0423687,2,569
12,7.5327e-22,1,776,179.529,-4.64123e-06,1.40506e-06,-5.2876e-08,4.84953e-06,88,-34.91,-168.19,1.0833e+07,1e+06,-3.33989e-09,1.84334e-07,-1.05754e-07,-0.00305466,0.0403316,1.92997e-05,0.0419822,2,570
12,7.5327e-22,1,777,179.529,-4.64466e-06,1.41155e-06,-5.18124e-08,4.85469e-06,88,-34.91,-168.19,1.0833e+07,1e+06,-3.40758e-09,1.80797e-07,-1.03629e-07,-0.00302429,0.0395641,2.32558e-05,0.0411987,2,571
12,7.5327e-22,1,778,179.529,-4.64804e-06,1.41778e-06,-5.0304e-08,4.85973e-06,88,-34.91,-168.19,1.0833e+07,1e+06,-3.2389e-09,1.75425e-07,-1.00606e-07,-0.00292157,0.0383849,1.86545e-05,0.0399654,2,572
12,7.5327e-22,1,779,179.529,-4.65114e-06,1.422e-06,-4.84899e-08,4.8639e-06,88,-34.91,-168.19,1.0833e+07,1e+06,-3.00332e-09,1.68615e-07,-9.6937e-08,-0.00279792,0.036861,-2.134e-05,0.038384,2,573
12,7.5327e-22,1,780,179.529,-4.65405e-06,1.42121e-06,-4.65943e-08,4.86643e-06,88,-34.91,-168.19,1.0833e+07,1e+06,-2.9446e-09,1.61699e-07,-9.33404e-08,-0.00274114,0.035283,-0.000116262,0.0368073,2,574
12,7.29645e-22,1,781,179.529,-4.65703e-06,1.4177e-06,-4.43516e-08,4.86824e-06,88.6875,-34.91,-168.19,1.01872e+07,968750,-4.40977e-09,1.53795e-07,-8.85641e-08,-0.00261415,0.0328666,-0.000412913,0.0344989,2,575
12,6.1152e-22,1,782,179.529,-4.66287e-06,1.39544e-06,-4.15897e-08,4.86737e-06,92.125,-34.91,-168.19,6.95812e+06,812500,-1.25759e-08,1.60229e-07,-8.2961e-08,-0.00165252,0.0315059,0.000269751,0.0323953,2,576
12,4.46146e-22,2,783,93.06,-4.68218e-06,1.30935e-06,-3.97343e-08,4.86197e-06,96.9375,38.02,137.36,2.43744e+06,593750,-2.32381e-08,1.70709e-07,-7.96266e-08,-0.000774274,0.0294853,0.000791885,0.0296126,3,205
12,3.73449e-22,2,784,93.06,-4.70934e-06,1.18149e-06,-3.67042e-08,4.85543e-06,98.8125,38.02,137.36,500000,500000,-2.85948e-08,1.5917e-07,-7.38911e-08,-0.000809352,0.0246733,-0.000170053,0.0253946,3,206
12,3.66159e-22,2,785,93.06,-4.73937e-06,1.08011e-06,-3.29851e-08,4.861e-06,98.0625,38.02,137.36,500000,500000,-4.25993e-08,1.56461e-07,-6.57069e-08,-0.000634842,0.0214697,-0.000706372,0.0228577,3,207
12,3.55224e-22,2,786,29.09,-4.79454e-06,1.03289e-06,-2.9856e-08,4.90463e-06,96.9375,38.11,-136.53,500000,500000,-6.95787e-08,1.73932e-07,-5.93022e-08,-0.000322191,0.0195654,-0.000411934,0.0209071,3,208
12,3.47934e-22,2,787,29.09,-4.87853e-06,1.02879e-06,-2.59482e-08,4.98589e-06,96.1875,38.11,-136.53,500000,500000,-8.79602e-08,1.81614e-07,-5.22761e-08,-0.000198064,0.0173308,0.00016341,0.0182923,3,209
12,4.29934e-22,2,788,29.09,-4.97046e-06,1.03928e-06,-2.19045e-08,5.078e-06,101.75,38.11,-136.53,3.08325e+06,625000,-8.21094e-08,1.74462e-07,-4.37329e-08,5.39174e-05,0.0213156,0.000423536,0.0223885,3,210
12,5.97579e-22,1,789,64.15,-5.04275e-06,1.08712e-06,-2.17335e-08,5.15864e-06,113.25,-139.18,-156.59,8.24975e+06,875000,-6.34597e-08,1.68266e-07,-4.33601e-08,0.000125791,0.0296739,-0.00010461,0.0305181,2,577
12,6.81402e-22,1,790,64.15,-5.09738e-06,1.16819e-06,-2.33504e-08,5.22958e-06,119,-139.18,-156.59,1.0833e+07,1e+06,-5.56048e-08,1.69523e-07,-4.67657e-08,-6.49905e-05,0.0335947,-0.000242311,0.0337724,2,578
12,6.81402e-22,1,791,64.15,-5.15396e-06,1.24085e-06,-2.32342e-08,5.30127e-06,119,-139.18,-156.59,1.0833e+07,1e+06,-5.79059e-08,1.73848e-07,-4.64791e-08,-0.000329582,0.0347029,5.90394e-05,0.0348592,2,579
12,6.81402e-22,1,792,64.15,-5.21319e-06,1.30324e-06,-2.3774e-08,5.37368e-06,119,-139.18,-156.59,1.0833e+07,1e+06,-6.05335e-08,1.78909e-07,-4.75516e-08,-0.000672236,0.03576,1.95157e-05,0.0361198,2,580
12,6.81402e-22,1,793,64.15,-5.27502e-06,1.35801e-06,-2.43149e-08,5.44708e-06,119,-139.18,-156.59,1.0833e+07,1e+06,-6.30335e-08,1.84174e-07,-4.86281e-08,-0.000941255,0.0368655,2.0076e-05,0.037403,2,581
12,6.81402e-22,1,794,64.15,-5.33926e-06,1.40647e-06,-2.48784e-08,5.52146e-06,119,-139.18,-156.59,1.0833e+07,1e+06,-6.52978e-08,1.89377e-07,-4.97572e-08,-0.00114391,0.0379641,2.08079e-05,0.0386605,2,582
12,6.81402e-22,1,795,64.15,-5.40562e-06,1.44948e-06,-2.54328e-08,5.59664e-06,119,-139.18,-156.59,1.0833e+07,1e+06,-6.72192e-08,1.94262e-07,-5.0866e-08,-0.00127513,0.039013,2.28116e-05,0.0398404,2,583
12,6.81402e-22,1,796,64.15,-5.4737e-06,1.48768e-06,-2.59552e-08,5.67232e-06,119,-139.18,-156.59,1.0833e+07,1e+06,-6.8688e-08,1.98635e-07,-5.19094e-08,-0.00132264,0.0399794,2.63957e-05,0.0409001,2,584
12,6.81402e-22,1,797,64.15,-5.54299e-06,1.52173e-06,-2.64269e-08,5.74814e-06,119,-139.18,-156.59,1.0833e+07,1e+06,-6.95775e-08,2.02319e-07,-5.28599e-08,-0.00126746,0.0408343,3.02871e-05,0.0417989,2,585
12,6.81402e-22,1,798,64.15,-5.61285e-06,1.55239e-06,-2.68437e-08,5.82364e-06,119,-139.18,-156.59,1.0833e+07,1e+06,-6.97199e-08,2.05129e-07,-5.36881e-08,-0.00107729,0.0415487,3.74601e-05,0.0424841,2,586
12,6.81402e-22,1,799,64.15,-5.68243e-06,1.58078e-06,-2.721e-08,5.89828e-06,119,-139.18,-156.59,1.0833e+07,1e+06,-6.89826e-08,2.06873e-07,-5.4453e-08,-0.000731961,0.0420671,2.43732e-05,0.042887,2,587
12,6.81402e-22,1,800,64.15,-5.75082e-06,1.60906e-06,-2.76028e-08,5.97175e-06,119,-139.18,-156.59,1.0833e+07,1e+06,-6.76612e-08,2.07756e-07,-5.52061e-08,-0.000285248,0.0423783,-1.37861e-05,0.0429989,2,588
12,6.81402e-22,1,801,64.15,-5.81776e-06,1.64087e-06,-2.81673e-08,6.04479e-06,119,-139.18,-156.59,1.0833e+07,1e+06,-6.66461e-08,2.09599e-07,-5.63051e-08,0.000189148,0.0428152,-5.30093e-05,0.0431634,2,589
12,6.81402e-22,1,802,64.15,-5.88411e-06,1.68035e-06,-2.90636e-08,6.11941e-06,119,-139.18,-156.59,1.0833e+07,1e+06,-6.69483e-08,2.14651e-07,-5.80708e-08,0.000611635,0.0438563,-3.7736e-05,0.0438911,2,590
12,6.81402e-22,1,803,64.15,-5.95165e-06,1.73073e-06,-3.03528e-08,6.19827e-06,119,-139.18,-156.59,1.0833e+07,1e+06,-6.97286e-08,2.24184e-07,-6.08026e-08,0.000712059,0.0457534,-4.20995e-05,0.0456337,2,591
12,6.81402e-22,1,804,64.15,-6.02357e-06,1.79693e-06,-2.91887e-08,6.28595e-06,119,-139.18,-156.59,1.0833e+07,1e+06,-7.39131e-08,2.39388e-07,-5.82274e-08,0.0014442,0.0496066,0.00211151,0.0479738,2,592
12,5.91662e-22,1,805,64.15,-6.09948e-06,1.88956e-06,-4.42291e-08,6.38561e-06,120.5,-139.18,-156.59,8.24975e+06,875000,-6.91579e-08,2.59604e-07,-8.85394e-08,0.000944231,0.048606,-0.000966119,0.0496708,2,593
12,4.12181e-22,2,806,106.24,-6.16189e-06,1.89973e-06,-6.82625e-08,6.44845e-06,123.5,-1.3,-30.28,3.08325e+06,625000,-5.31077e-08,2.78802e-07,-1.36737e-07,-0.000210243,0.0409587,-0.00218872,0.0432142,3,211
12,3.22441e-22,2,807,106.24,-6.20569e-06,1.80543e-06,-8.02318e-08,6.46349e-06,125,-1.3,-30.28,500000,500000,-4.13387e-08,2.89603e-07,-1.60254e-07,-0.000295756,0.0362692,0.000814924,0.0361114,3,212
12,3.22441e-22,2,808,106.24,-6.24456e-06,1.6917e-06,-8.63506e-08,6.47023e-06,125,-1.3,-30.28,500000,500000,-3.85712e-08,2.97253e-07,-1.72719e-07,-0.000174462,0.036166,-5.89085e-05,0.0363277,3,213
12,6.45258e-22,1,809,73.27,-4.9e-08,1.59528e-06,-2.00493e-08,1.59616e-06,8,-129.16,-171.71,1.0833e+07,1e+06,-9.71881e-08,1.62386e-07,-4.01148e-08,-0.00964505,0.0214504,0.000628401,0.0275616,2,594
12,6.45258e-22,1,810,73.27,-1.45376e-07,1.62447e-06,-2.06507e-08,1.63109e-06,8,-129.16,-171.71,1.0833e+07,1e+06,-9.24544e-08,1.55577e-07,-4.10025e-08,-0.00900072,0.0201374,-0.000171995,0.0259364,2,595
12,6.25144e-22,1,811,73.27,-2.33909e-07,1.65235e-06,-1.77516e-08,1.66892e-06,9,-129.16,-171.71,1.01872e+07,968750,-7.67092e-08,1.37685e-07,-3.50276e-08,-0.00795806,0.020705,-0.000241444,0.0263302,2,596
12,6.07022e-22,1,812,126.08,-2.98795e-07,1.66158e-06,-1.29391e-08,1.68828e-06,10.75,-20.36,125.34,9.54138e+06,937500,-5.42666e-08,1.22002e-07,-2.64626e-08,-0.00587458,0.0257053,-3.4765e-07,0.0298123,2,597
12,6.3112e-22,1,813,126.08,-3.42442e-07,1.64817e-06,-9.07883e-09,1.6834e-06,11.25,-20.36,125.34,1.01872e+07,968750,-4.15082e-08,1.17149e-07,-1.88139e-08,-0.00350343,0.0303788,0.00102231,0.032054,2,598
12,6.53226e-22,1,814,126.08,-3.81811e-07,1.62048e-06,-9.20731e-09,1.66488e-06,11,-20.36,125.34,1.0833e+07,1e+06,-3.81094e-08,1.18938e-07,-1.86102e-08,-0.00225649,0.0322734,0.000824795,0.0332803,2,599
12,6.53226e-22,1,815,126.08,-4.18661e-07,1.57538e-06,-1.10928e-08,1.6301e-06,11,-20.36,125.34,1.0833e+07,1e+06,-3.59228e-08,1.21071e-07,-2.16865e-08,-0.00162164,0.0330506,2.86363e-05,0.0341612,2,600
12,5.80506e-22,1,816,126.08,-4.53657e-07,1.52421e-06,-1.22292e-08,1.59034e-06,14,-20.36,125.34,8.24975e+06,875000,-4.63875e-08,1.33575e-07,-2.38633e-08,-0.000807461,0.0314089,-6.20178e-05,0.0323903,2,601
12,4.35064e-22,2,817,153.64,-5.11436e-07,1.51234e-06,-2.11644e-08,1.59662e-06,20,-177.01,-156.76,3.08325e+06,625000,-7.2064e-08,1.77178e-07,-4.27936e-08,-0.00060344,0.0280817,0.000266825,0.0290122,3,214
12,3.62343e-22,2,818,153.64,-5.97784e-07,1.55179e-06,-3.30623e-08,1.66328e-06,23,-177.01,-156.76,500000,500000,-9.01695e-08,2.19392e-07,-6.63053e-08,-0.00109439,0.0273749,1.91469e-05,0.0285852,3,215
12,3.62343e-22,2,819,153.64,-6.91774e-07,1.60817e-06,-3.72272e-08,1.75104e-06,23,-177.01,-156.76,500000,500000,-9.41107e-08,2.37932e-07,-7.45343e-08,-0.000725132,0.0296783,8.79922e-06,0.0306023,3,216
12,3.62343e-22,2,820,153.64,-7.86006e-07,1.66886e-06,-3.99626e-08,1.84513e-06,23,-177.01,-156.76,500000,500000,-9.22897e-08,2.46116e-07,-7.94699e-08,-0.00014024,0.0310297,0.000191431,0.0315782,3,217
12,3.62343e-22,2,821,153.64,-8.76354e-07,1.72407e-06,-4.13511e-08,1.93445e-06,23,-177.01,-156.76,500000,500000,-8.79056e-08,2.49094e-07,-8.21594e-08,0.00049467,0.0320531,0.000486574,0.0322336,3,218
12,3.62343e-22,2,822,153.64,-9.61817e-07,1.76378e-06,-3.98477e-08,2.00938e-06,23,-177.01,-156.76,500000,500000,-8.34476e-08,2.45526e-07,-8.06588e-08,0.00101447,0.0321603,0.000858732,0.031923,3,219
12,3.60941e-22,2,823,153.64,-1.04325e-06,1.79197e-06,-4.02822e-08,2.07392e-06,23.1875,-177.01,-156.76,500000,500000,-7.97181e-08,2.40238e-07,-8.11205e-08,0.000799001,0.032231,0.00015902,0.0326184,3,220
12,4.42924e-22,2,824,153.64,-1.12125e-06,1.80656e-06,-4.16024e-08,2.12664e-06,26.625,-177.01,-156.76,3.08325e+06,625000,-8.15287e-08,2.35638e-07,-8.21636e-08,-0.000245357,0.0324349,-0.000983757,0.0341071,3,221
12,6.11097e-22,1,825,80.81,-1.20631e-06,1.78207e-06,-4.05253e-08,2.15235e-06,32.9375,-129.97,-177.44,8.24975e+06,875000,-9.05156e-08,2.36219e-07,-8.08733e-08,-0.00114139,0.0322265,-0.000409096,0.0335731,2,602
12,6.95884e-22,1,826,80.81,-1.30228e-06,1.73953e-06,-4.10691e-08,2.17339e-06,36,-129.97,-177.44,1.0833e+07,1e+06,-9.74119e-08,2.42327e-07,-8.26272e-08,-0.00170561,0.0323513,0.000230171,0.0331752,2,603
12,6.95884e-22,1,827,80.81,-1.40113e-06,1.71154e-06,-4.23192e-08,2.21231e-06,36,-129.97,-177.44,1.0833e+07,1e+06,-9.95638e-08,2.45504e-07,-8.45684e-08,-0.00210883,0.0325068,2.3814e-05,0.0336406,2,604
12,6.95884e-22,1,828,80.81,-1.50141e-06,1.6933e-06,-4.26762e-08,2.26348e-06,36,-129.97,-177.44,1.0833e+07,1e+06,-1.0101e-07,2.47116e-07,-8.53354e-08,-0.0023864,0.0325442,-3.38088e-05,0.0339217,2,605
12,6.95884e-22,1,829,80.81,-1.60315e-06,1.68338e-06,-4.27912e-08,2.32501e-06,36,-129.97,-177.44,1.0833e+07,1e+06,-1.02569e-07,2.48054e-07,-8.55459e-08,-0.00273998,0.0324918,-4.01415e-05,0.0341704,2,606
12,6.95884e-22,1,830,80.81,-1.70655e-06,1.68068e-06,-4.25833e-08,2.39558e-06,36,-129.97,-177.44,1.0833e+07,1e+06,-1.03984e-07,2.47883e-07,-8.51392e-08,-0.0031548,0.0322884,-6.57731e-06,0.0342978,2,607
12,6.95884e-22,1,831,80.81,-1.81112e-06,1.68321e-06,-4.19758e-08,2.47287e-06,36,-129.97,-177.44,1.0833e+07,1e+06,-1.04344e-07,2.45601e-07,-8.39672e-08,-0.00348788,0.0318406,4.53883e-05,0.0341312,2,608
12,6.95884e-22,1,832,80.81,-1.91524e-06,1.68831e-06,-4.09936e-08,2.55347e-06,36,-129.97,-177.44,1.0833e+07,1e+06,-1.02838e-07,2.40394e-07,-8.20364e-08,-0.00361651,0.0310685,6.85871e-05,0.0335287,2,609
12,6.95884e-22,1,833,80.81,-2.01679e-06,1.69301e-06,-3.9388e-08,2.63349e-06,36,-129.97,-177.44,1.0833e+07,1e+06,-9.92327e-08,2.32662e-07,-7.88304e-08,-0.0033988,0.0301863,0.000277028,0.0324951,2,610
12,6.17933e-22,1,834,80.81,-2.11371e-06,1.69308e-06,-3.97747e-08,2.70848e-06,36.75,-129.97,-177.44,8.24975e+06,875000,-8.30993e-08,2.2377e-07,-7.92967e-08,-0.00279178,0.0313121,9.17184e-05,0.0333132,2,611
12,4.6203e-22,2,835,152.99,-2.18299e-06,1.6633e-06,-3.86564e-08,2.74472e-06,38.25,-64.12,170.81,3.08325e+06,625000,-5.53019e-08,2.02524e-07,-7.71387e-08,-0.00225497,0.032256,0.000128293,0.0338065,3,222
12,3.8426e-22,2,836,152.99,-2.22431e-06,1.60327e-06,-3.81934e-08,2.74217e-06,39.375,-64.12,170.81,500000,500000,-5.73273e-08,1.99173e-07,-7.78341e-08,-0.00250349,0.0291764,8.41348e-05,0.0314105,3,223
12,3.84683e-22,2,837,150.54,-2.29765e-06,1.60244e-06,-5.10726e-08,2.80172e-06,40.25,178.09,96.28,500000,500000,-1.00636e-07,2.54619e-07,-1.01543e-07,-0.00232429,0.0243925,-0.000147951,0.0271756,3,224
12,4.18793e-22,2,838,150.54,-2.42558e-06,1.70473e-06,-6.18243e-08,2.96536e-06,45.375,178.09,96.28,2.43744e+06,593750,-1.3203e-07,3.06539e-07,-1.22868e-07,-0.00197486,0.0249273,-0.000533145,0.0278284,3,225
12,4.97738e-22,1,839,80.41,-2.56171e-06,1.83865e-06,-5.84605e-08,3.15379e-06,56,-123.18,-170.23,6.95813e+06,812500,-1.26229e-07,3.11318e-07,-1.17088e-07,-0.0012649,0.0336699,-0.000510209,0.0357793,2,612
12,5.54085e-22,1,840,80.41,-2.67804e-06,1.94969e-06,-5.16598e-08,3.31298e-06,63.5,-123.18,-170.23,1.01872e+07,968750,-1.09226e-07,2.92572e-07,-1.02891e-07,-0.000175764,0.039545,-2.34393e-05,0.0400508,2,613
12,5.65354e-22,1,841,80.41,-2.78016e-06,2.02238e-06,-4.65218e-08,3.43824e-06,65,-123.18,-170.23,1.0833e+07,1e+06,-9.7927e-08,2.69258e-07,-9.35683e-08,0.000115535,0.0385476,-0.000116488,0.0387863,2,614
12,5.65354e-22,1,842,80.41,-2.87389e-06,2.06042e-06,-4.36551e-08,3.53645e-06,65,-123.18,-170.23,1.0833e+07,1e+06,-9.18028e-08,2.53728e-07,-8.73002e-08,0.000207911,0.0368082,-2.45865e-05,0.037071,2,615
12,5.65354e-22,1,843,80.41,-2.96377e-06,2.08075e-06,-4.16529e-08,3.62149e-06,65,-123.18,-170.23,1.0833e+07,1e+06,-8.92029e-08,2.44151e-07,-8.3344e-08,-1.84161e-06,0.03549,5.75057e-06,0.0359411,2,616
12,5.65354e-22,1,844,80.41,-3.0523e-06,2.08945e-06,-4.03048e-08,3.69918e-06,65,-123.18,-170.23,1.0833e+07,1e+06,-8.84484e-08,2.38038e-07,-8.06128e-08,-0.000363598,0.0345412,1.41926e-05,0.0352226,2,617
12,5.65354e-22,1,845,80.41,-3.14066e-06,2.08945e-06,-3.93186e-08,3.77242e-06,65,-123.18,-170.23,1.0833e+07,1e+06,-8.86466e-08,2.33932e-07,-7.86345e-08,-0.000784366,0.0338168,6.14121e-06,0.0347378,2,618
12,5.65354e-22,1,846,80.41,-3.22959e-06,2.08243e-06,-3.85715e-08,3.84295e-06,65,-123.18,-170.23,1.0833e+07,1e+06,-8.95416e-08,2.31302e-07,-7.71404e-08,-0.00124095,0.0332712,1.64425e-06,0.0344317,2,619
12,5.65354e-22,1,847,80.41,-3.31975e-06,2.06962e-06,-3.80053e-08,3.91222e-06,65,-123.18,-170.23,1.0833e+07,1e+06,-9.1052e-08,2.29879e-07,-7.60081e-08,-0.00173803,0.0328754,2.01429e-06,0.0342887,2,620
12,5.65354e-22,1,848,80.41,-3.4117e-06,2.0519e-06,-3.75752e-08,3.98138e-06,65,-123.18,-170.23,1.0833e+07,1e+06,-9.30471e-08,2.29417e-07,-7.51487e-08,-0.00226695,0.0326084,5.86205e-06,0.0342979,2,621
12,5.65354e-22,1,849,80.41,-3.50584e-06,2.02986e-06,-3.72323e-08,4.05125e-06,65,-123.18,-170.23,1.0833e+07,1e+06,-9.53085e-08,2.29591e-07,-7.44643e-08,-0.00280442,0.0324443,1.20504e-05,0.0344349,2,622
12,5.65354e-22,1,850,80.41,-3.60231e-06,2.00379e-06,-3.6915e-08,4.12228e-06,65,-123.18,-170.23,1.0833e+07,1e+06,-9.75373e-08,2.29953e-07,-7.38303e-08,-0.00331846,0.03234,1.90694e-05,0.0346513,2,623
12,5.65354e-22,1,851,80.41,-3.70091e-06,1.97369e-06,-3.6553e-08,4.19447e-06,65,-123.18,-170.23,1.0833e+07,1e+06,-9.93906e-08,2.29979e-07,-7.31063e-08,-0.00377244,0.0322397,2.6245e-05,0.0348795,2,624
12,5.65354e-22,1,852,80.41,-3.80109e-06,1.93949e-06,-3.60818e-08,4.26746e-06,65,-123.18,-170.23,1.0833e+07,1e+06,-1.0053e-07,2.29162e-07,-7.21642e-08,-0.00412855,0.0320854,3.40592e-05,0.0350449,2,625
12,5.65354e-22,1,853,80.41,-3.90197e-06,1.9012e-06,-3.5457e-08,4.34065e-06,65,-123.18,-170.23,1.0833e+07,1e+06,-1.00646e-07,2.27083e-07,-7.09162e-08,-0.00434806,0.0318261,4.33225e-05,0.0350751,2,626
12,5.65354e-22,1,854,80.41,-4.00239e-06,1.85914e-06,-3.46641e-08,4.41324e-06,65,-123.18,-170.23,1.0833e+07,1e+06,-9.94636e-08,2.23441e-07,-6.93351e-08,-0.00438959,0.031422,5.34105e-05,0.0348979,2,627
12,5.65354e-22,1,855,80.41,-4.1009e-06,1.81409e-06,-3.37256e-08,4.48436e-06,65,-123.18,-170.23,1.0833e+07,1e+06,-9.67656e-08,2.18067e-07,-6.74652e-08,-0.00421483,0.0308414,5.98913e-05,0.034434,2,628
12,5.65354e-22,1,856,80.41,-4.19592e-06,1.76743e-06,-3.27049e-08,4.55309e-06,65,-123.18,-170.23,1.0833e+07,1e+06,-9.25155e-08,2.11003e-07,-6.54337e-08,-0.00381172,0.0300588,5.17693e-05,0.033598,2,629
12,5.65354e-22,1,857,80.41,-4.28593e-06,1.72106e-06,-3.17018e-08,4.61869e-06,65,-123.18,-170.23,1.0833e+07,1e+06,-8.71088e-08,2.02654e-07,-6.34237e-08,-0.0032429,0.0290656,1.37725e-05,0.0323405,2,630
12,5.65354e-22,1,858,80.41,-4.37014e-06,1.67677e-06,-3.08141e-08,4.68088e-06,65,-123.18,-170.23,1.0833e+07,1e+06,-8.14451e-08,1.94082e-07,-6.1655e-08,-0.00263158,0.0279508,-4.74588e-05,0.0307699,2,631
12,5.65354e-22,1,859,80.41,-4.44882e-06,1.63477e-06,-3.02216e-08,4.73977e-06,65,-123.18,-170.23,1.0833e+07,1e+06,-7.62603e-08,1.87426e-07,-6.04971e-08,-0.00195098,0.0271061,-3.91187e-05,0.0293218,2,632
12,5.443e-22,1,860,80.41,-4.52266e-06,1.59359e-06,-2.95452e-08,4.79529e-06,65.375,-123.18,-170.23,1.01872e+07,968750,-7.00533e-08,1.82614e-07,-5.92272e-08,-0.00120465,0.0271194,0.000272166,0.028615,2,633
12,5.70225e-22,1,861,80.41,-4.58893e-06,1.54671e-06,-3.25882e-08,4.84269e-06,71.5,-123.18,-170.23,9.54138e+06,937500,-4.9347e-08,1.67997e-07,-6.48346e-08,-0.00156267,0.0281496,-0.000234289,0.0299351,2,634
12,6.85237e-22,1,862,179.529,-4.62135e-06,1.47953e-06,-3.9469e-08,4.85257e-06,82.625,-34.9099,-168.19,1.01872e+07,968750,-1.71906e-08,1.51204e-07,-7.86433e-08,-0.00231067,0.0303386,-0.000654337,0.0322885,2,635
12,7.5327e-22,1,863,179.529,-4.62331e-06,1.41965e-06,-4.34176e-08,4.83656e-06,88,-34.91,-168.19,1.0833e+07,1e+06,-1.0591e-09,1.48255e-07,-8.70857e-08,-0.00217096,0.0321996,-0.000232283,0.0335008,2,636
12,7.5327e-22,1,864,179.529,-4.62347e-06,1.39324e-06,-4.44121e-08,4.82903e-06,88,-34.91,-168.19,1.0833e+07,1e+06,-1.81072e-10,1.51474e-07,-8.89127e-08,-0.00202349,0.0330459,-0.000100807,0.0342121,2,637
12,7.5327e-22,1,865,179.529,-4.62367e-06,1.38703e-06,-4.53818e-08,4.82745e-06,88,-34.91,-168.19,1.0833e+07,1e+06,-2.22074e-10,1.55438e-07,-9.07577e-08,-0.00206933,0.0340194,1.4228e-06,0.0352122,2,638
12,7.5327e-22,1,866,179.529,-4.62391e-06,1.39462e-06,-4.65571e-08,4.82987e-06,88,-34.91,-168.19,1.0833e+07,1e+06,-2.23851e-10,1.59622e-07,-9.3129e-08,-0.00214005,0.0349708,1.83949e-05,0.0362344,2,639
12,7.5327e-22,1,867,179.529,-4.62412e-06,1.41065e-06,-4.77543e-08,4.83474e-06,88,-34.91,-168.19,1.0833e+07,1e+06,-1.43411e-10,1.63458e-07,-9.552e-08,-0.00219944,0.0358095,-4.55607e-06,0.0371414,2,640
12,7.5327e-22,1,868,179.529,-4.6242e-06,1.43216e-06,-4.89357e-08,4.84115e-06,88,-34.91,-168.19,1.0833e+07,1e+06,-7.50053e-11,1.67378e-07,-9.78717e-08,-0.00224443,0.0366705,-8.94427e-06,0.038042,2,641
12,7.5327e-22,1,869,179.529,-4.62427e-06,1.45693e-06,-5.00902e-08,4.84861e-06,88,-34.91,-168.19,1.0833e+07,1e+06,-1.58593e-10,1.71404e-07,-1.0018e-07,-0.0023156,0.0375523,-9.548e-06,0.0389642,2,642
12,7.5327e-22,1,870,179.529,-4.62452e-06,1.48306e-06,-5.12026e-08,4.85677e-06,88,-34.91,-168.19,1.0833e+07,1e+06,-4.20659e-10,1.75487e-07,-1.02404e-07,-0.00241889,0.0384447,-7.35951e-06,0.0399017,2,643
12,7.5327e-22,1,871,179.529,-4.62511e-06,1.5087e-06,-5.22252e-08,4.86524e-06,88,-34.91,-168.19,1.0833e+07,1e+06,-8.32944e-10,1.79436e-07,-1.0445e-07,-0.00254554,0.0393052,-2.3348e-06,0.0408082,2,644
12,7.5327e-22,1,872,179.529,-4.62618e-06,1.53206e-06,-5.308e-08,4.87356e-06,88,-34.91,-168.19,1.0833e+07,1e+06,-1.33466e-09,1.82906e-07,-1.06161e-07,-0.00267981,0.0400569,3.34611e-06,0.0416027,2,645
12,7.5327e-22,1,873,179.529,-4.62778e-06,1.5517e-06,-5.3688e-08,4.88129e-06,88,-34.91,-168.19,1.0833e+07,1e+06,-1.84892e-09,1.85532e-07,-1.07378e-07,-0.00280353,0.0406205,7.63214e-06,0.0422016,2,646
12,7.5327e-22,1,874,179.529,-4.62988e-06,1.56685e-06,-5.39993e-08,4.88812e-06,88,-34.91,-168.19,1.0833e+07,1e+06,-2.30485e-09,1.87069e-07,-1.08e-07,-0.00290161,0.0409436,9.87753e-06,0.0425505,2,647
12,7.5327e-22,1,875,179.529,-4.63239e-06,1.57759e-06,-5.39994e-08,4.89395e-06,88,-34.91,-168.19,1.0833e+07,1e+06,-2.64952e-09,1.87421e-07,-1.07999e-07,-0.002964,0.0410088,1.10262e-05,0.0426294,2,648
12,7.5327e-22,1,876,179.529,-4.63518e-06,1.58473e-06,-5.36905e-08,4.89889e-06,88,-34.91,-168.19,1.0833e+07,1e+06,-2.84543e-09,1.86572e-07,-1.07381e-07,-0.00298353,0.0408152,1.27004e-05,0.0424335,2,649
12,7.5327e-22,1,877,179.529,-4.63808e-06,1.58937e-06,-5.30626e-08,4.90313e-06,88,-34.91,-168.19,1.0833e+07,1e+06,-2.86364e-09,1.84464e-07,-1.06126e-07,-0.00295291,0.0403502,1.53763e-05,0.0419444,2,650
12,7.5327e-22,1,878,179.529,-4.64091e-06,1.59234e-06,-5.20875e-08,4.90676e-06,88,-34.91,-168.19,1.0833e+07,1e+06,-2.68575e-09,1.80963e-07,-1.04176e-07,-0.00286493,0.03958,1.69018e-05,0.041122,2,651
12,7.5327e-22,1,879,179.529,-4.64345e-06,1.59344e-06,-5.07535e-08,4.90951e-06,88,-34.91,-168.19,1.0833e+07,1e+06,-2.32254e-09,1.76008e-07,-1.01501e-07,-0.002718,0.038485,1.44792e-05,0.0399428,2,652
12,7.5327e-22,1,880,179.529,-4.64555e-06,1.59116e-06,-4.9113e-08,4.91074e-06,88,-34.91,-168.19,1.0833e+07,1e+06,-1.83251e-09,1.6981e-07,-9.82181e-08,-0.002528,0.0371054,1.93755e-06,0.0384566,2,653
12,7.5327e-22,1,881,179.529,-4.64712e-06,1.58383e-06,-4.72872e-08,4.90983e-06,88,-34.91,-168.19,1.0833e+07,1e+06,-9.17116e-10,1.63035e-07,-9.46351e-08,-0.00220465,0.035618,3.78791e-05,0.0367665,2,654
12,7.5327e-22,1,882,179.529,-4.64739e-06,1.56992e-06,-4.54828e-08,4.9056e-06,88,-34.91,-168.19,1.0833e+07,1e+06,-1.18732e-10,1.53692e-07,-9.06603e-08,-0.00203008,0.0334124,-0.000196642,0.0345562,2,655
12,6.82395e-22,1,883,179.529,-4.64736e-06,1.54886e-06,-4.21951e-08,4.89884e-06,90.0625,-34.91,-168.19,8.89556e+06,906250,-5.65329e-09,1.51126e-07,-8.48831e-08,-0.00183984,0.0311245,-6.99885e-05,0.0321678,2,656
12,5.15198e-22,2,884,93.06,-4.65869e-06,1.47631e-06,-4.10653e-08,4.88719e-06,94.6875,38.02,137.36,4.37488e+06,687500,-1.90906e-08,1.63672e-07,-8.26549e-08,-0.00106945,0.0289426,-1.04276e-05,0.0298905,3,226
12,3.89784e-22,2,885,93.06,-4.68554e-06,1.34513e-06,-4.0834e-08,4.87497e-06,97.375,38.02,137.36,1.14581e+06,531250,-3.87009e-08,1.74257e-07,-8.0666e-08,-0.000294116,0.0244605,-0.00082971,0.0259041,3,227
12,3.55224e-22,2,886,29.09,-4.73609e-06,1.25029e-06,-3.55056e-08,4.89848e-06,96.9375,38.11,-136.53,500000,500000,-6.55617e-08,1.84416e-07,-7.07538e-08,0.000333449,0.0204152,-0.000642624,0.0214753,3,228
12,3.47934e-22,2,887,29.09,-4.81666e-06,1.22189e-06,-3.0237e-08,4.96932e-06,96.1875,38.11,-136.53,500000,500000,-8.53019e-08,1.92307e-07,-6.10686e-08,0.000622663,0.0184654,0.000113612,0.0187286,3,229
12,3.46112e-22,2,888,29.09,-4.9067e-06,1.21574e-06,-2.7675e-08,5.05514e-06,96,38.11,-136.53,500000,500000,-8.90747e-08,1.86285e-07,-5.52841e-08,0.000364527,0.0169151,0.000245507,0.0173199,3,230
12,4.29934e-22,2,889,29.09,-4.99481e-06,1.21551e-06,-2.36191e-08,5.14064e-06,101.75,38.11,-136.53,3.08325e+06,625000,-7.96681e-08,1.77401e-07,-4.70839e-08,0.000460888,0.0218756,0.000346416,0.0227685,3,231
12,5.97579e-22,1,890,64.15,-5.06603e-06,1.25812e-06,-2.268e-08,5.21997e-06,113.25,-139.18,-156.59,8.24975e+06,875000,-6.32046e-08,1.7337e-07,-4.54624e-08,0.000538841,0.0307651,-8.65126e-05,0.0314245,2,657
12,6.81402e-22,1,891,64.15,-5.12122e-06,1.34004e-06,-2.42158e-08,5.29369e-06,119,-139.18,-156.59,1.0833e+07,1e+06,-5.59977e-08,1.74252e-07,-4.84401e-08,0.000271987,0.0345957,-0.000260922,0.0346246,2,658
12,6.81402e-22,1,892,64.15,-5.17803e-06,1.41633e-06,-2.39361e-08,5.36829e-06,119,-139.18,-156.59,1.0833e+07,1e+06,-5.79004e-08,1.77373e-07,-4.78774e-08,1.76158e-05,0.0354374,3.42784e-05,0.0354344,2,659
12,6.81402e-22,1,893,64.15,-5.23702e-06,1.48339e-06,-2.43554e-08,5.44311e-06,119,-139.18,-156.59,1.0833e+07,1e+06,-6.02128e-08,1.81695e-07,-4.87127e-08,-0.000300829,0.0363611,1.12053e-05,0.036523,2,660
12,6.81402e-22,1,894,64.15,-5.29845e-06,1.54327e-06,-2.48203e-08,5.51869e-06,119,-139.18,-156.59,1.0833e+07,1e+06,-6.26966e-08,1.86634e-07,-4.96425e-08,-0.000597656,0.037406,1.92199e-05,0.0377445,2,661
12,6.81402e-22,1,895,64.15,-5.36241e-06,1.59686e-06,-2.53267e-08,5.59518e-06,119,-139.18,-156.59,1.0833e+07,1e+06,-6.51333e-08,1.91667e-07,-5.0654e-08,-0.000869428,0.0384625,2.02922e-05,0.038991,2,662
12,6.81402e-22,1,896,64.15,-5.42872e-06,1.64472e-06,-2.58249e-08,5.67246e-06,119,-139.18,-156.59,1.0833e+07,1e+06,-6.73478e-08,1.96459e-07,-5.16488e-08,-0.00109761,0.0394752,2.03286e-05,0.0401876,2,663
12,6.81402e-22,1,897,64.15,-5.49711e-06,1.68728e-06,-2.62818e-08,5.75029e-06,119,-139.18,-156.59,1.0833e+07,1e+06,-6.92527e-08,2.0081e-07,-5.25669e-08,-0.00127621,0.0404096,2.20164e-05,0.0412921,2,664
12,6.81402e-22,1,898,64.15,-5.56723e-06,1.725e-06,-2.66774e-08,5.82841e-06,119,-139.18,-156.59,1.0833e+07,1e+06,-7.07367e-08,2.04547e-07,-5.33438e-08,-0.00138958,0.0412431,3.34857e-05,0.0422685,2,665
12,6.81402e-22,1,899,64.15,-5.63858e-06,1.7584e-06,-2.69444e-08,5.90646e-06,119,-139.18,-156.59,1.0833e+07,1e+06,-7.16424e-08,2.07306e-07,-5.39465e-08,-0.00143117,0.041901,3.72289e-05,0.0430448,2,666
12,6.81402e-22,1,900,64.15,-5.71051e-06,1.78827e-06,-2.71149e-08,5.98403e-06,119,-139.18,-156.59,1.0833e+07,1e+06,-7.17137e-08,2.08641e-07,-5.41315e-08,-0.0013528,0.0423103,8.40734e-05,0.0434796,2,667
12,6.81402e-22,1,901,64.15,-5.78201e-06,1.81672e-06,-2.70341e-08,6.06076e-06,119,-139.18,-156.59,1.0833e+07,1e+06,-7.09038e-08,2.08065e-07,-5.40826e-08,-0.00117486,0.0422619,9.49715e-05,0.0433618,2,668
12,6.81402e-22,1,902,64.15,-5.85232e-06,1.8497e-06,-2.7151e-08,6.13773e-06,119,-139.18,-156.59,1.0833e+07,1e+06,-7.0111e-08,2.08637e-07,-5.43505e-08,-0.000847688,0.0424095,0.000163882,0.0432584,2,669
12,6.81402e-22,1,903,64.15,-5.92223e-06,1.89412e-06,-2.79103e-08,6.21782e-06,119,-139.18,-156.59,1.0833e+07,1e+06,-7.06085e-08,2.13242e-07,-5.59386e-08,-0.000517169,0.0433159,0.000175711,0.0438874,2,670
12,6.81402e-22,1,904,64.15,-5.99354e-06,1.9542e-06,-2.95347e-08,6.30415e-06,119,-139.18,-156.59,1.0833e+07,1e+06,-7.25607e-08,2.22569e-07,-5.89331e-08,-0.000213635,0.0452288,0.000130741,0.0455378,2,671
12,6.81402e-22,1,905,64.15,-6.06735e-06,2.03409e-06,-2.82644e-08,6.3993e-06,119,-139.18,-156.59,1.0833e+07,1e+06,-7.41104e-08,2.33442e-07,-5.63608e-08,0.000833565,0.0481687,0.00204023,0.0469212,2,672
12,5.91662e-22,1,906,64.15,-6.14176e-06,2.14412e-06,-4.25126e-08,6.5054e-06,120.5,-139.18,-156.59,8.24975e+06,875000,-6.72852e-08,2.48908e-07,-8.52051e-08,0.000605732,0.0463904,-0.00104101,0.0476639,2,673
12,4.12181e-22,2,907,106.24,-6.20192e-06,2.17645e-06,-6.77666e-08,6.57308e-06,123.5,-1.3,-30.28,3.08325e+06,625000,-5.24492e-08,2.75963e-07,-1.35608e-07,-0.000280267,0.0403654,-0.00202488,0.0425742,3,232
12,3.22441e-22,2,908,106.24,-6.24666e-06,2.09861e-06,-8.15827e-08,6.59026e-06,125,-1.3,-30.28,500000,500000,-4.36045e-08,2.97274e-07,-1.63217e-07,-0.000359085,0.037245,0.000923255,0.0370863,3,233
12,3.22441e-22,2,909,106.24,-6.28913e-06,1.99394e-06,-8.816e-08,6.59824e-06,125,-1.3,-30.28,500000,500000,-4.23286e-08,3.06914e-07,-1.76189e-07,-0.000326365,0.037275,1.17635e-06,0.0374797,3,234
12,6.45258e-22,1,910,73.27,-4.53492e-08,1.75524e-06,-2.00256e-08,1.75594e-06,8,-129.16,-171.71,1.0833e+07,1e+06,-8.96375e-08,1.57212e-07,-4.00014e-08,-0.00814025,0.021255,0.000552905,0.0262772,2,674
12,6.45258e-22,1,911,73.27,-1.33926e-07,1.77661e-06,-2.02841e-08,1.78177e-06,8,-129.16,-171.71,1.0833e+07,1e+06,-8.41036e-08,1.49829e-07,-4.03023e-08,-0.00730929,0.0200604,-0.000148967,0.0246293,2,675
12,6.46752e-22,1,912,73.27,-2.13556e-07,1.78151e-06,-1.66018e-08,1.79434e-06,8.5625,-129.16,-171.71,1.0833e+07,1e+06,-6.95552e-08,1.32207e-07,-3.30973e-08,-0.0060873,0.0208156,-7.81332e-05,0.0248516,2,676
12,6.50238e-22,1,913,126.08,-2.73036e-07,1.77316e-06,-1.16323e-08,1.79409e-06,9.875,-20.36,125.34,1.0833e+07,1e+06,-5.13401e-08,1.18791e-07,-2.42193e-08,-0.00449306,0.0258438,7.91885e-05,0.0288002,2,677
12,6.52728e-22,1,914,126.08,-3.16237e-07,1.76296e-06,-9.56731e-09,1.79113e-06,10.8125,-20.36,125.34,1.0833e+07,1e+06,-4.14899e-08,1.18754e-07,-1.9021e-08,-0.0030097,0.0311618,0.00071861,0.0326734,2,678
12,6.53226e-22,1,915,126.08,-3.56016e-07,1.74181e-06,-1.03132e-08,1.77785e-06,11,-20.36,125.34,1.0833e+07,1e+06,-3.96591e-08,1.22599e-07,-1.99465e-08,-0.00239991,0.0333631,0.000262317,0.0347958,2,679
12,6.35046e-22,1,916,126.08,-3.95555e-07,1.69722e-06,-1.07884e-08,1.74273e-06,11.75,-20.36,125.34,1.01872e+07,968750,-4.21491e-08,1.26684e-07,-2.12789e-08,-0.00219535,0.0333593,-0.000193705,0.03511,2,680
12,5.44145e-22,1,917,126.08,-4.40314e-07,1.65962e-06,-1.21565e-08,1.71708e-06,15.5,-20.36,125.34,6.95813e+06,812500,-5.77659e-08,1.49482e-07,-2.48668e-08,-0.0011799,0.0317919,0.000549762,0.0329059,2,681
12,4.16884e-22,2,918,153.64,-5.11086e-07,1.69293e-06,-2.17518e-08,1.76853e-06,20.75,-177.01,-156.76,2.43744e+06,593750,-8.17533e-08,1.92226e-07,-4.41497e-08,-0.000642612,0.0287932,0.000771065,0.0295043,3,235
12,3.62343e-22,2,919,153.64,-6.03821e-07,1.77269e-06,-3.31294e-08,1.873e-06,23,-177.01,-156.76,500000,500000,-9.33762e-08,2.22582e-07,-6.58667e-08,-0.00121584,0.0276929,-1.08027e-06,0.0289395,3,236
12,3.62343e-22,2,920,153.64,-6.97839e-07,1.84547e-06,-3.68433e-08,1.97335e-06,23,-177.01,-156.76,500000,500000,-9.3663e-08,2.36518e-07,-7.32075e-08,-0.000866325,0.0298103,0.000168846,0.0308841,3,237
12,3.62343e-22,2,921,153.64,-7.91147e-07,1.91364e-06,-3.79492e-08,2.07108e-06,23,-177.01,-156.76,500000,500000,-9.02339e-08,2.43114e-07,-7.60387e-08,-4.10528e-05,0.0314283,0.000732578,0.0319264,3,238
12,3.60941e-22,2,922,153.64,-8.78307e-07,1.97088e-06,-4.01409e-08,2.1581e-06,23.1875,-177.01,-156.76,500000,500000,-8.09267e-08,2.39592e-07,-8.08692e-08,0.000262728,0.0322843,-2.83001e-05,0.0332593,3,239
12,3.58136e-22,2,923,153.64,-9.53e-07,2.0047e-06,-4.16166e-08,2.22008e-06,23.5625,-177.01,-156.76,500000,500000,-7.12126e-08,2.27497e-07,-8.30336e-08,-0.000113298,0.0318637,-0.00113145,0.0336645,3,240
12,3.5393e-22,2,924,153.64,-1.02073e-06,2.02279e-06,-4.17711e-08,2.26613e-06,24.125,-177.01,-156.76,500000,500000,-6.53749e-08,2.15599e-07,-8.24779e-08,-0.00113293,0.0314445,-0.00199368,0.0342154,3,241
12,4.35913e-22,2,925,84.77,-1.08375e-06,2.03066e-06,-3.78709e-08,2.30207e-06,27.5625,-156.44,-54.66,3.08325e+06,625000,-6.98707e-08,2.12281e-07,-7.60436e-08,-0.00211079,0.0319452,-0.00111308,0.0347902,3,242
12,6.08292e-22,1,926,80.81,-1.16047e-06,2.01134e-06,-3.61496e-08,2.32239e-06,33.3125,-129.97,-177.44,8.24975e+06,875000,-8.71253e-08,2.24339e-07,-7.32878e-08,-0.00230085,0.0317107,0.000602939,0.0331281,2,682
12,6.95884e-22,1,927,80.81,-1.258e-06,1.97901e-06,-4.00252e-08,2.34534e-06,36,-129.97,-177.44,1.0833e+07,1e+06,-9.85091e-08,2.3653e-07,-7.96099e-08,-0.00257828,0.0312017,0.000330978,0.0323795,2,683
12,6.95884e-22,1,928,80.81,-1.35749e-06,1.9546e-06,-4.11072e-08,2.38011e-06,36,-129.97,-177.44,1.0833e+07,1e+06,-9.98963e-08,2.39673e-07,-8.21147e-08,-0.00281221,0.0314171,-2.20817e-05,0.0329644,2,684
12,6.95884e-22,1,929,80.81,-1.45779e-06,1.93865e-06,-4.16847e-08,2.42596e-06,36,-129.97,-177.44,1.0833e+07,1e+06,-1.01164e-07,2.42646e-07,-8.33846e-08,-0.00289536,0.0317312,-3.73406e-05,0.0334289,2,685
12,6.95884e-22,1,930,80.81,-1.55982e-06,1.93037e-06,-4.20501e-08,2.48216e-06,36,-129.97,-177.44,1.0833e+07,1e+06,-1.0276e-07,2.4485e-07,-8.40864e-08,-0.00312324,0.0318963,-2.07751e-05,0.0338506,2,686
12,6.95884e-22,1,931,80.81,-1.66331e-06,1.92758e-06,-4.20655e-08,2.54636e-06,36,-129.97,-177.44,1.0833e+07,1e+06,-1.03753e-07,2.45336e-07,-8.41144e-08,-0.00335622,0.0318438,-5.37063e-07,0.0340505,2,687
12,6.95884e-22,1,932,80.81,-1.76733e-06,1.92748e-06,-4.16536e-08,2.61541e-06,36,-129.97,-177.44,1.0833e+07,1e+06,-1.03449e-07,2.43532e-07,-8.33072e-08,-0.00345598,0.0315556,4.39528e-05,0.0338813,2,688
12,6.95884e-22,1,933,80.81,-1.87021e-06,1.92709e-06,-4.08549e-08,2.68571e-06,36,-129.97,-177.44,1.0833e+07,1e+06,-1.01028e-07,2.39002e-07,-8.17356e-08,-0.00325331,0.0310326,9.77846e-05,0.0332297,2,689
12,6.95884e-22,1,934,80.81,-1.96938e-06,1.92434e-06,-3.93993e-08,2.75375e-06,36,-129.97,-177.44,1.0833e+07,1e+06,-9.63667e-08,2.31712e-07,-7.89408e-08,-0.00270495,0.0303575,0.000307274,0.032123,2,690
12,6.17933e-22,1,935,80.81,-2.06294e-06,1.91807e-06,-4.04545e-08,2.81716e-06,36.75,-129.97,-177.44,8.24975e+06,875000,-8.10164e-08,2.245e-07,-8.07617e-08,-0.00206747,0.0315145,-0.000119713,0.0330591,2,691
12,4.6209e-22,2,936,152.99,-2.13142e-06,1.86555e-06,-4.14759e-08,2.83283e-06,38.375,-64.12,170.81,3.08325e+06,625000,-5.96034e-08,2.1084e-07,-8.27152e-08,-0.00195693,0.0318939,-0.000390574,0.0335994,3,243
12,3.84441e-22,2,937,152.99,-2.18215e-06,1.8122e-06,-4.71918e-08,2.83692e-06,39.75,-64.12,170.81,500000,500000,-7.19735e-08,2.33746e-07,-9.49487e-08,-0.00130926,0.0290999,0.000141653,0.0310178,3,244
12,3.84864e-22,2,938,150.54,-2.27536e-06,1.88212e-06,-6.08872e-08,2.95353e-06,40.625,178.09,96.28,500000,500000,-1.16388e-07,2.95801e-07,-1.23064e-07,-0.000548779,0.0239626,0.000140003,0.0259033,3,245
12,4.23948e-22,2,939,150.54,-2.41493e-06,2.03834e-06,-7.14318e-08,3.16098e-06,43.375,178.09,96.28,1.79163e+06,562500,-1.38624e-07,3.30975e-07,-1.42003e-07,-0.00143579,0.0242695,-0.00165993,0.0275013,3,246
12,5.07927e-22,2,940,150.54,-2.55261e-06,2.17716e-06,-6.59477e-08,3.35562e-06,51.75,178.09,96.28,5.6665e+06,750000,-1.27545e-07,3.32199e-07,-1.29866e-07,-0.000718724,0.0357347,-0.00112753,0.0383782,3,247
12,5.59179e-22,1,941,80.41,-2.67002e-06,2.25726e-06,-5.39707e-08,3.49673e-06,61.375,-123.18,-170.23,9.54138e+06,937500,-1.07951e-07,3.05879e-07,-1.08226e-07,0.00103162,0.0421157,7.46125e-05,0.0423617,2,692
12,5.65354e-22,1,942,80.41,-2.76852e-06,2.29313e-06,-4.84803e-08,3.5952e-06,65,-123.18,-170.23,1.0833e+07,1e+06,-9.27876e-08,2.72517e-07,-9.77985e-08,0.00160461,0.0394779,-0.000469653,0.0390628,2,693
12,5.65354e-22,1,943,80.41,-2.85559e-06,2.31358e-06,-4.46027e-08,3.67547e-06,65,-123.18,-170.23,1.0833e+07,1e+06,-8.53886e-08,2.53529e-07,-8.93513e-08,0.00179927,0.0372726,-1.63352e-05,0.0367046,2,694
12,5.65354e-22,1,944,80.41,-2.93929e-06,2.32384e-06,-4.24103e-08,3.74719e-06,65,-123.18,-170.23,1.0833e+07,1e+06,-8.3254e-08,2.43066e-07,-8.48266e-08,0.00137523,0.0357573,3.76104e-05,0.0354313,2,695
12,5.65354e-22,1,945,80.41,-3.0221e-06,2.32633e-06,-4.08899e-08,3.814e-06,65,-123.18,-170.23,1.0833e+07,1e+06,-8.27773e-08,2.36216e-07,-8.17839e-08,0.000869215,0.0346297,2.00809e-05,0.0345915,2,696
12,5.65354e-22,1,946,80.41,-3.10485e-06,2.32213e-06,-3.97914e-08,3.87736e-06,65,-123.18,-170.23,1.0833e+07,1e+06,-8.31075e-08,2.31632e-07,-7.95835e-08,0.000371955,0.0337971,4.72465e-06,0.034017,2,697
12,5.65354e-22,1,947,80.41,-3.18831e-06,2.31248e-06,-3.89941e-08,3.93884e-06,65,-123.18,-170.23,1.0833e+07,1e+06,-8.42411e-08,2.28879e-07,-7.79867e-08,-0.000153442,0.033194,-1.79491e-06,0.0336642,2,698
12,5.65354e-22,1,948,80.41,-3.27333e-06,2.29838e-06,-3.84335e-08,3.99984e-06,65,-123.18,-170.23,1.0833e+07,1e+06,-8.61672e-08,2.27701e-07,-7.68643e-08,-0.000729955,0.0327896,-3.1422e-06,0.0335306,2,699
12,5.65354e-22,1,949,80.41,-3.36065e-06,2.28049e-06,-3.80611e-08,4.06153e-06,65,-123.18,-170.23,1.0833e+07,1e+06,-8.87703e-08,2.27878e-07,-7.61217e-08,-0.00135,0.0325713,4.57909e-07,0.0336181,2,700
12,5.65354e-22,1,950,80.41,-3.45087e-06,2.25909e-06,-3.78156e-08,4.12473e-06,65,-123.18,-170.23,1.0833e+07,1e+06,-9.18167e-08,2.29009e-07,-7.56321e-08,-0.00199414,0.0325036,5.91528e-06,0.033897,2,701
12,5.65354e-22,1,951,80.41,-3.54428e-06,2.23393e-06,-3.76104e-08,4.18973e-06,65,-123.18,-170.23,1.0833e+07,1e+06,-9.49778e-08,2.3051e-07,-7.52208e-08,-0.0026358,0.0325218,1.03061e-05,0.034301,2,702
12,5.65354e-22,1,952,80.41,-3.64083e-06,2.20446e-06,-3.7348e-08,4.25636e-06,65,-123.18,-170.23,1.0833e+07,1e+06,-9.79126e-08,2.31748e-07,-7.46942e-08,-0.00324812,0.0325501,1.40747e-05,0.0347476,2,703
12,5.65354e-22,1,953,80.41,-3.74011e-06,2.17001e-06,-3.69388e-08,4.3242e-06,65,-123.18,-170.23,1.0833e+07,1e+06,-1.00306e-07,2.32142e-07,-7.38745e-08,-0.00380482,0.0325162,2.03121e-05,0.0351566,2,704
12,5.65354e-22,1,954,80.41,-3.84144e-06,2.13012e-06,-3.63106e-08,4.39265e-06,65,-123.18,-170.23,1.0833e+07,1e+06,-1.01841e-07,2.31171e-07,-7.26194e-08,-0.00427425,0.0323544,3.15195e-05,0.0354516,2,705
12,5.65354e-22,1,955,80.41,-3.94379e-06,2.08469e-06,-3.5413e-08,4.46101e-06,65,-123.18,-170.23,1.0833e+07,1e+06,-1.02137e-07,2.28329e-07,-7.08254e-08,-0.00460782,0.0320031,4.97854e-05,0.0355461,2,706
12,5.65354e-22,1,956,80.41,-4.04571e-06,2.03414e-06,-3.4216e-08,4.52843e-06,65,-123.18,-170.23,1.0833e+07,1e+06,-1.00667e-07,2.23075e-07,-6.8446e-08,-0.0047237,0.0313984,7.41483e-05,0.0353174,2,707
12,5.65354e-22,1,957,80.41,-4.14512e-06,1.9796e-06,-3.27314e-08,4.59368e-06,65,-123.18,-170.23,1.0833e+07,1e+06,-9.67519e-08,2.14793e-07,-6.5487e-08,-0.00450835,0.0304608,9.83674e-05,0.0345738,2,708
12,5.65354e-22,1,958,80.41,-4.23921e-06,1.92316e-06,-3.10362e-08,4.65515e-06,65,-123.18,-170.23,1.0833e+07,1e+06,-8.99642e-08,2.03097e-07,-6.22031e-08,-0.00389902,0.0290792,6.55549e-05,0.0330707,2,709
12,5.65354e-22,1,959,80.41,-4.32505e-06,1.86821e-06,-2.93824e-08,4.71138e-06,65,-123.18,-170.23,1.0833e+07,1e+06,-8.18762e-08,1.89132e-07,-5.88116e-08,-0.00318473,0.0272285,-3.00382e-05,0.0307631,2,710
12,5.443e-22,1,960,80.41,-4.40297e-06,1.81963e-06,-2.83968e-08,4.76424e-06,65.375,-123.18,-170.23,1.01872e+07,968750,-7.5007e-08,1.79655e-07,-5.65903e-08,-0.00269673,0.0263365,-1.15134e-05,0.0292367,2,711
12,4.60083e-22,1,961,80.41,-4.47507e-06,1.77314e-06,-2.67787e-08,4.81362e-06,66.875,-123.18,-170.23,7.60394e+06,843750,-6.67245e-08,1.69854e-07,-5.31932e-08,-0.00285385,0.0263869,0.000158162,0.0289375,2,712
12,4.32155e-22,2,962,78.48,-4.53642e-06,1.70694e-06,-2.63039e-08,4.847e-06,72.3125,28.28,127.2,5.6665e+06,750000,-4.98825e-08,1.52692e-07,-5.28946e-08,-0.00371703,0.0267889,-2.24954e-05,0.0295542,3,248
12,5.77531e-22,1,963,179.53,-4.57483e-06,1.62452e-06,-3.19272e-08,4.85481e-06,81.25,-34.9099,-168.19,7.60394e+06,843750,-2.77165e-08,1.44621e-07,-6.43441e-08,-0.00430837,0.0293695,-8.22318e-05,0.0320994,2,713
12,7.20471e-22,1,964,179.529,-4.59185e-06,1.56604e-06,-3.87288e-08,4.85171e-06,86.9375,-34.91,-168.19,1.01872e+07,968750,-1.27603e-08,1.45132e-07,-7.7055e-08,-0.00411656,0.0314018,-0.00011534,0.0337731,2,714
12,7.5327e-22,1,965,179.529,-4.60035e-06,1.5429e-06,-4.16442e-08,4.85237e-06,88,-34.91,-168.19,1.0833e+07,1e+06,-7.32915e-09,1.47266e-07,-8.29879e-08,-0.00361149,0.0321055,-0.000264393,0.0342144,2,715
12,7.5327e-22,1,966,179.529,-4.60651e-06,1.54143e-06,-4.34027e-08,4.85776e-06,88,-34.91,-168.19,1.0833e+07,1e+06,-5.52583e-09,1.53434e-07,-8.70125e-08,-0.00325741,0.0335627,-0.000119277,0.0354493,2,716
12,7.5327e-22,1,967,179.529,-4.6114e-06,1.55366e-06,-4.52257e-08,4.86631e-06,88,-34.91,-168.19,1.0833e+07,1e+06,-4.0578e-09,1.58433e-07,-9.05765e-08,-0.00300287,0.0346971,-6.95164e-05,0.036461,2,717
12,7.5327e-22,1,968,179.529,-4.61462e-06,1.57371e-06,-4.68579e-08,4.87581e-06,88,-34.91,-168.19,1.0833e+07,1e+06,-2.64226e-09,1.62564e-07,-9.36949e-08,-0.00274943,0.0356186,-4.08714e-05,0.0372597,2,718
12,7.5327e-22,1,969,179.529,-4.61669e-06,1.59931e-06,-4.83167e-08,4.88609e-06,88,-34.91,-168.19,1.0833e+07,1e+06,-1.76376e-09,1.66848e-07,-9.66226e-08,-0.00261247,0.0365689,-2.00019e-05,0.0381467,2,719
12,7.5327e-22,1,970,179.529,-4.61815e-06,1.62826e-06,-4.96946e-08,4.89704e-06,88,-34.91,-168.19,1.0833e+07,1e+06,-1.33847e-09,1.71167e-07,-9.93849e-08,-0.00257874,0.0375148,-1.72929e-05,0.0390824,2,720
12,7.5327e-22,1,971,179.529,-4.61936e-06,1.65863e-06,-5.10107e-08,4.90838e-06,88,-34.91,-168.19,1.0833e+07,1e+06,-1.2338e-09,1.756e-07,-1.02018e-07,-0.00260855,0.038484,-1.2726e-05,0.0400621,2,721
12,7.5327e-22,1,972,179.529,-4.62062e-06,1.68839e-06,-5.22239e-08,4.91971e-06,88,-34.91,-168.19,1.0833e+07,1e+06,-1.37467e-09,1.79952e-07,-1.04447e-07,-0.00268151,0.0394325,-5.08528e-06,0.041029,2,722
12,7.5327e-22,1,973,179.529,-4.62211e-06,1.71538e-06,-5.32413e-08,4.93044e-06,88,-34.91,-168.19,1.0833e+07,1e+06,-1.66232e-09,1.83783e-07,-1.06484e-07,-0.00277216,0.0402623,3.12493e-06,0.041875,2,723
12,7.5327e-22,1,974,179.529,-4.62394e-06,1.73772e-06,-5.39621e-08,4.93998e-06,88,-34.91,-168.19,1.0833e+07,1e+06,-1.98592e-09,1.86617e-07,-1.07926e-07,-0.00285426,0.0408676,8.85435e-06,0.0424879,2,724
12,7.5327e-22,1,975,179.529,-4.62609e-06,1.7544e-06,-5.43272e-08,4.94788e-06,88,-34.91,-168.19,1.0833e+07,1e+06,-2.25128e-09,1.88148e-07,-1.08656e-07,-0.00290773,0.0411844,1.12383e-05,0.0428006,2,725
12,7.5327e-22,1,976,179.529,-4.62844e-06,1.7654e-06,-5.43325e-08,4.954e-06,88,-34.91,-168.19,1.0833e+07,1e+06,-2.39744e-09,1.88313e-07,-1.08666e-07,-0.00292152,0.0412026,1.15975e-05,0.0428013,2,726
12,7.5327e-22,1,977,179.529,-4.63088e-06,1.77155e-06,-5.40076e-08,4.95846e-06,88,-34.91,-168.19,1.0833e+07,1e+06,-2.39289e-09,1.87199e-07,-1.08016e-07,-0.00289107,0.0409439,1.18415e-05,0.0425095,2,727
12,7.5327e-22,1,978,179.529,-4.63323e-06,1.77399e-06,-5.33837e-08,4.96152e-06,88,-34.91,-168.19,1.0833e+07,1e+06,-2.22112e-09,1.84903e-07,-1.06768e-07,-0.00281317,0.0404304,1.31017e-05,0.0419429,2,728
12,7.5327e-22,1,979,179.529,-4.63532e-06,1.77348e-06,-5.24759e-08,4.96329e-06,88,-34.91,-168.19,1.0833e+07,1e+06,-1.86764e-09,1.81464e-07,-1.04953e-07,-0.00268213,0.0396671,1.55105e-05,0.0410995,2,729
12,7.5327e-22,1,980,179.529,-4.63697e-06,1.7698e-06,-5.12895e-08,4.96349e-06,88,-34.91,-168.19,1.0833e+07,1e+06,-1.31666e-09,1.76872e-07,-1.02581e-07,-0.0024909,0.0386463,1.75355e-05,0.0399657,2,730
12,7.5327e-22,1,981,179.529,-4.63796e-06,1.76162e-06,-4.98415e-08,4.9615e-06,88,-34.91,-168.19,1.0833e+07,1e+06,-5.1026e-10,1.71186e-07,-9.96797e-08,-0.00221914,0.037383,2.85334e-05,0.038541,2,731
12,7.5327e-22,1,982,179.529,-4.63799e-06,1.74728e-06,-4.81677e-08,4.95643e-06,88,-34.91,-168.19,1.0833e+07,1e+06,5.62976e-10,1.64297e-07,-9.63047e-08,-0.00187803,0.0358378,2.27647e-05,0.0368086,2,732
12,7.5327e-22,1,983,179.529,-4.63683e-06,1.72508e-06,-4.63983e-08,4.94755e-06,88,-34.91,-168.19,1.0833e+07,1e+06,1.86817e-09,1.56333e-07,-9.2888e-08,-0.00153547,0.033998,-8.70683e-05,0.0348365,2,733
12,7.29645e-22,1,984,179.529,-4.63425e-06,1.69769e-06,-4.46241e-08,4.93563e-06,88.6875,-34.91,-168.19,1.01872e+07,968750,1.63632e-09,1.47565e-07,-8.94178e-08,-0.00131932,0.0312063,-0.000559763,0.0322344,2,734
12,6.06053e-22,1,985,179.529,-4.63356e-06,1.6367e-06,-4.23155e-08,4.91431e-06,91.5625,-34.91,-168.19,6.95813e+06,812500,-1.70589e-08,1.59005e-07,-8.44912e-08,-0.000745159,0.0285766,-0.000504662,0.0298765,2,735
12,4.27921e-22,2,986,29.09,-4.66837e-06,1.53e-06,-3.8785e-08,4.91285e-06,95.0625,38.11,-136.53,2.43744e+06,593750,-5.72692e-08,1.89402e-07,-7.72527e-08,0.00049449,0.0238577,2.62817e-05,0.024574,3,249
12,3.47934e-22,2,987,29.09,-4.7481e-06,1.44894e-06,-3.37657e-08,4.96437e-06,96.1875,38.11,-136.53,500000,500000,-8.50062e-08,2.00833e-07,-6.77447e-08,0.00101453,0.0188811,0.000202888,0.0187763,3,250
12,3.46112e-22,2,988,29.09,-4.83838e-06,1.41751e-06,-3.03352e-08,5.04184e-06,96,38.11,-136.53,500000,500000,-8.87682e-08,1.92814e-07,-6.07362e-08,0.000609754,0.0173866,0.000107061,0.0174552,3,251
12,3.46112e-22,2,989,29.09,-4.92563e-06,1.40136e-06,-2.83395e-08,5.12118e-06,96,38.11,-136.53,500000,500000,-8.73957e-08,1.84813e-07,-5.64616e-08,0.000303468,0.0167263,8.99807e-05,0.0172632,3,252
12,4.29934e-22,2,990,29.09,-5.01317e-06,1.39408e-06,-2.40184e-08,5.20345e-06,101.75,38.11,-136.53,3.08325e+06,625000,-8.02202e-08,1.80061e-07,-4.81358e-08,0.000484319,0.0222968,0.000374037,0.0231922,3,253
12,5.97579e-22,1,991,64.15,-5.08607e-06,1.43386e-06,-2.32921e-08,5.28438e-06,113.25,-139.18,-156.59,8.24975e+06,875000,-6.49192e-08,1.78258e-07,-4.66467e-08,0.000556131,0.0316522,-5.02493e-05,0.0323108,2,736
12,6.81402e-22,1,992,64.15,-5.14301e-06,1.51669e-06,-2.49083e-08,5.36204e-06,119,-139.18,-156.59,1.0833e+07,1e+06,-5.7482e-08,1.78893e-07,-4.98193e-08,0.000285405,0.0354883,-0.000285854,0.0355314,2,737
12,6.81402e-22,1,993,64.15,-5.20104e-06,1.5956e-06,-2.45584e-08,5.44034e-06,119,-139.18,-156.59,1.0833e+07,1e+06,-5.88435e-08,1.81077e-07,-4.91014e-08,0.000108772,0.0361352,7.37286e-06,0.0361065,2,738
12,6.81402e-22,1,994,64.15,-5.2607e-06,1.66663e-06,-2.49087e-08,5.51844e-06,119,-139.18,-156.59,1.0833e+07,1e+06,-6.07544e-08,1.84911e-07,-4.9821e-08,-0.000133933,0.0369808,8.43578e-07,0.0370571,2,739
12,6.81402e-22,1,995,64.15,-5.32255e-06,1.73128e-06,-2.53346e-08,5.59709e-06,119,-139.18,-156.59,1.0833e+07,1e+06,-6.30501e-08,1.89586e-07,-5.06727e-08,-0.000402321,0.0379909,1.66733e-05,0.0382124,2,740
12,6.81402e-22,1,996,64.15,-5.3868e-06,1.78981e-06,-2.58062e-08,5.67641e-06,119,-139.18,-156.59,1.0833e+07,1e+06,-6.54125e-08,1.94388e-07,-5.16129e-08,-0.000678358,0.0390099,1.67624e-05,0.0394149,2,741
12,6.81402e-22,1,997,64.15,-5.45337e-06,1.8424e-06,-2.62663e-08,5.75625e-06,119,-139.18,-156.59,1.0833e+07,1e+06,-6.76643e-08,1.98992e-07,-5.25315e-08,-0.000938055,0.0399831,1.42038e-05,0.0405844,2,742
12,6.81402e-22,1,998,64.15,-5.52213e-06,1.8893e-06,-2.66846e-08,5.83644e-06,119,-139.18,-156.59,1.0833e+07,1e+06,-6.97931e-08,2.03256e-07,-5.33635e-08,-0.00119078,0.0408818,1.38885e-05,0.0416894,2,743
12,6.81402e-22,1,999,64.15,-5.59296e-06,1.93083e-06,-2.70044e-08,5.91692e-06,119,-139.18,-156.59,1.0833e+07,1e+06,-7.17883e-08,2.07066e-07,-5.40322e-08,-0.0014448,0.0416923,2.5405e-05,0.0427158,2,744
12,6.81402e-22,1,1000,64.15,-5.6657e-06,1.967e-06,-2.72101e-08,5.9975e-06,119,-139.18,-156.59,1.0833e+07,1e+06,-7.3381e-08,2.10027e-07,-5.43016e-08,-0.00165668,0.0423808,9.35405e-05,0.0435864,2,745
12,6.81402e-22,1,1001,64.15,-5.73972e-06,1.99806e-06,-2.6812e-08,6.07761e-06,119,-139.18,-156.59,1.0833e+07,1e+06,-7.44331e-08,2.10472e-07,-5.36254e-08,-0.00192839,0.0425538,0.000226815,0.0439385,2,746
12,6.61447e-22,1,1002,64.15,-5.81457e-06,2.02519e-06,-2.66714e-08,6.15722e-06,118.938,-139.18,-156.59,1.01872e+07,968750,-7.59733e-08,2.10278e-07,-5.35187e-08,-0.00236274,0.0420296,-9.74499e-06,0.0438635,2,747
12,6.21537e-22,1,1003,64.15,-5.89167e-06,2.05815e-06,-2.66394e-08,6.24086e-06,118.813,-139.18,-156.59,8.89556e+06,906250,-7.82867e-08,2.14779e-07,-5.33268e-08,-0.00235768,0.0421356,2.8781e-05,0.0440049,2,748
12,6.01582e-22,1,1004,64.15,-5.97114e-06,2.10683e-06,-2.7172e-08,6.33198e-06,118.75,-139.18,-156.59,8.24975e+06,875000,-7.95739e-08,2.2123e-07,-5.42908e-08,-0.0019481,0.0430125,0.000167661,0.0445179,2,749
12,6.21537e-22,1,1005,64.15,-6.05081e-06,2.17586e-06,-2.80978e-08,6.4302e-06,118.812,-139.18,-156.59,8.89556e+06,906250,-7.89652e-08,2.265e-07,-5.60308e-08,-0.00134944,0.044717,0.000469071,0.0456132,2,750
12,6.41492e-22,1,1006,64.15,-6.12907e-06,2.26382e-06,-2.6778e-08,6.53384e-06,118.875,-139.18,-156.59,9.54138e+06,937500,-7.61881e-08,2.29959e-07,-5.42513e-08,-3.1996e-05,0.0464773,0.00191144,0.045893,2,751
12,5.51752e-22,1,1007,64.15,-6.20319e-06,2.38738e-06,-4.16352e-08,6.64687e-06,120.375,-139.18,-156.59,6.95813e+06,812500,-6.62298e-08,2.40646e-07,-8.292e-08,1.323e-05,0.0438425,-0.00110284,0.0454158,2,752
12,3.92226e-22,2,1008,106.24,-6.26153e-06,2.45165e-06,-6.80716e-08,6.72473e-06,123.438,-1.3,-30.28,2.43744e+06,593750,-5.28807e-08,2.75197e-07,-1.35306e-07,-0.000690774,0.0396813,-0.00165846,0.0418406,3,254
12,3.22441e-22,2,1009,106.24,-6.30895e-06,2.39998e-06,-8.30954e-08,6.75053e-06,125,-1.3,-30.28,500000,500000,-4.75292e-08,3.05557e-07,-1.66775e-07,-0.000787755,0.0381397,0.00079183,0.0382882,3,255
12,3.22441e-22,2,1010,106.24,-6.35659e-06,2.30552e-06,-8.90812e-08,6.76237e-06,125,-1.3,-30.28,500000,500000,-4.68945e-08,3.14459e-07,-1.78166e-07,-0.000600227,0.0380031,-3.43042e-05,0.0383557,3,256
12,6.45258e-22,1,1011,73.27,-3.98095e-08,1.90971e-06,-2.04027e-08,1.91023e-06,8,-129.16,-171.71,1.0833e+07,1e+06,-7.8735e-08,1.51994e-07,-4.07584e-08,-0.00573095,0.0213871,0.00045444,0.0247505,2,753
12,6.45258e-22,1,1012,73.27,-1.17661e-07,1.92413e-06,-2.07165e-08,1.92783e-06,8,-129.16,-171.71,1.0833e+07,1e+06,-7.59608e-08,1.47416e-07,-4.1517e-08,-0.00533914,0.020491,-0.000311338,0.0238651,2,754
12,6.45756e-22,1,1013,73.27,-1.91731e-07,1.91677e-06,-1.8777e-08,1.92643e-06,8.1875,-129.16,-171.71,1.0833e+07,1e+06,-7.00875e-08,1.41757e-07,-3.77804e-08,-0.00453844,0.0212522,8.50198e-05,0.0242078,2,755
12,6.48246e-22,1,1014,73.27,-2.57836e-07,1.89916e-06,-1.70267e-08,1.91666e-06,9.125,-129.16,-171.71,1.0833e+07,1e+06,-5.72831e-08,1.34737e-07,-3.35702e-08,-0.00355318,0.025682,-0.000375951,0.0284254,2,756
12,6.51732e-22,1,1015,126.08,-3.06297e-07,1.88568e-06,-1.24957e-08,1.91044e-06,10.4375,-20.36,125.34,1.0833e+07,1e+06,-4.25933e-08,1.26829e-07,-2.51274e-08,-0.00226146,0.0315577,3.43075e-06,0.0332204,2,757
12,6.53226e-22,1,1016,126.08,-3.43022e-07,1.86568e-06,-1.05068e-08,1.89698e-06,11,-20.36,125.34,1.0833e+07,1e+06,-3.75906e-08,1.24411e-07,-2.10846e-08,-0.0016943,0.0341181,0.000161295,0.0352725,2,758
12,5.98686e-22,1,1017,126.08,-3.81479e-07,1.82875e-06,-1.16591e-08,1.86815e-06,13.25,-20.36,125.34,8.89556e+06,906250,-4.9856e-08,1.37584e-07,-2.33461e-08,-0.00189515,0.0334182,-0.000301621,0.0352026,2,759
12,4.71424e-22,2,1018,153.64,-4.42734e-07,1.82318e-06,-1.77293e-08,1.87625e-06,18.5,-177.01,-156.76,4.37488e+06,687500,-7.62894e-08,1.80122e-07,-3.5705e-08,-0.0013689,0.0313816,0.000578291,0.0327418,3,257
12,3.80523e-22,2,1019,153.64,-5.34057e-07,1.89679e-06,-2.80245e-08,1.97074e-06,22.25,-177.01,-156.76,1.14581e+06,531250,-9.38224e-08,2.15663e-07,-5.57868e-08,-0.0011757,0.0286383,0.000457683,0.0297495,3,258
12,3.62343e-22,2,1020,153.64,-6.30379e-07,1.99695e-06,-3.37525e-08,2.09436e-06,23,-177.01,-156.76,500000,500000,-9.49412e-08,2.26174e-07,-6.7092e-08,-0.00126956,0.0281368,-5.64669e-05,0.029409,3,259
12,3.62343e-22,2,1021,153.64,-7.2394e-07,2.0812e-06,-3.50227e-08,2.2038e-06,23,-177.01,-156.76,500000,500000,-9.3285e-08,2.36235e-07,-7.02073e-08,-0.000663467,0.0303508,0.000719282,0.031199,3,260
12,3.60941e-22,2,1022,153.64,-8.16949e-07,2.15509e-06,-3.63399e-08,2.30502e-06,23.1875,-177.01,-156.76,500000,500000,-8.71268e-08,2.36461e-07,-7.3654e-08,-0.000497294,0.0317906,0.000341069,0.0330711,3,261
12,3.55332e-22,2,1023,153.64,-8.98193e-07,2.20325e-06,-4.0053e-08,2.37964e-06,23.9375,-177.01,-156.76,500000,500000,-7.08521e-08,2.18856e-07,-7.96249e-08,-0.00152856,0.031676,-0.00156478,0.0346799,3,262
12,3.48321e-22,2,1024,84.77,-9.58653e-07,2.21877e-06,-4.0526e-08,2.41736e-06,24.875,-156.44,-54.66,500000,500000,-5.59271e-08,2.00264e-07,-7.99896e-08,-0.00250517,0.0311,-0.00169752,0.0344552,3,263
12,3.44114e-22,2,1025,84.77,-1.01005e-06,2.22316e-06,-3.80153e-08,2.44215e-06,25.4375,-156.44,-54.66,500000,500000,-5.17246e-08,1.92464e-07,-7.6338e-08,-0.00312952,0.0307983,-0.000748785,0.0336411,3,264
12,4.08055e-22,2,1026,84.77,-1.0621e-06,2.23112e-06,-3.50238e-08,2.47127e-06,27.6875,-156.44,-54.66,2.43744e+06,593750,-5.98334e-08,1.96056e-07,-7.13514e-08,-0.00346206,0.0312402,0.000125351,0.0338444,3,265
12,5.62393e-22,1,1027,80.81,-1.12971e-06,2.23075e-06,-3.63737e-08,2.50077e-06,32.25,-129.97,-177.44,6.95813e+06,812500,-7.87862e-08,2.1396e-07,-7.23067e-08,-0.00285013,0.0314806,0.000435593,0.033392,2,760
12,6.73636e-22,1,1028,80.81,-1.21967e-06,2.2126e-06,-3.93883e-08,2.5268e-06,35.375,-129.97,-177.44,1.01872e+07,968750,-9.33566e-08,2.27932e-07,-7.81142e-08,-0.00268204,0.0305342,-0.000149185,0.0321592,2,761
12,6.95884e-22,1,1029,80.81,-1.31643e-06,2.19088e-06,-3.9633e-08,2.55627e-06,36,-129.97,-177.44,1.0833e+07,1e+06,-9.77949e-08,2.32326e-07,-7.9629e-08,-0.00300605,0.0303017,-8.10161e-05,0.0319804,2,762
12,6.95884e-22,1,1030,80.81,-1.41526e-06,2.17859e-06,-4.05595e-08,2.59824e-06,36,-129.97,-177.44,1.0833e+07,1e+06,-9.96512e-08,2.36736e-07,-8.10642e-08,-0.00308273,0.0308601,-7.96962e-06,0.0326762,2,763
12,6.95884e-22,1,1031,80.81,-1.51573e-06,2.17308e-06,-4.11821e-08,2.64979e-06,36,-129.97,-177.44,1.0833e+07,1e+06,-1.01001e-07,2.3994e-07,-8.23647e-08,-0.0031479,0.0312107,-1.91712e-05,0.0332166,2,764
12,6.95884e-22,1,1032,80.81,-1.61727e-06,2.17136e-06,-4.15385e-08,2.70778e-06,36,-129.97,-177.44,1.0833e+07,1e+06,-1.01797e-07,2.41754e-07,-8.30664e-08,-0.00319181,0.0314056,-1.33978e-05,0.0335642,2,765
12,6.95884e-22,1,1033,80.81,-1.71932e-06,2.17027e-06,-4.15729e-08,2.76909e-06,36,-129.97,-177.44,1.0833e+07,1e+06,-1.01958e-07,2.42093e-07,-8.31115e-08,-0.00319899,0.0314464,1.92816e-05,0.0336453,2,766
12,6.95884e-22,1,1034,80.81,-1.82118e-06,2.16632e-06,-4.12086e-08,2.83043e-06,36,-129.97,-177.44,1.0833e+07,1e+06,-1.00881e-07,2.40532e-07,-8.24362e-08,-0.00305455,0.0313292,8.64039e-05,0.0333478,2,767
12,6.95884e-22,1,1035,80.81,-1.92109e-06,2.15643e-06,-3.99471e-08,2.88832e-06,36,-129.97,-177.44,1.0833e+07,1e+06,-9.60839e-08,2.35655e-07,-7.96849e-08,-0.00215675,0.0312416,0.000600656,0.0323917,2,768
12,6.17933e-22,1,1036,80.81,-2.01335e-06,2.14208e-06,-4.05776e-08,2.94002e-06,36.75,-129.97,-177.44,8.24975e+06,875000,-7.86008e-08,2.24166e-07,-8.10049e-08,-0.00139586,0.0316889,-1.54971e-05,0.0326806,2,769
12,4.62211e-22,2,1037,152.99,-2.07829e-06,2.08498e-06,-4.38249e-08,2.9442e-06,38.625,-64.12,170.81,3.08325e+06,625000,-7.2015e-08,2.29559e-07,-8.91232e-08,-0.00167264,0.0315589,-0.000419861,0.0333896,3,266
12,3.84683e-22,2,1038,150.54,-2.15738e-06,2.07076e-06,-5.7699e-08,2.99093e-06,40.25,178.09,96.28,500000,500000,-1.03793e-07,2.82933e-07,-1.14675e-07,-0.00114491,0.0279418,0.000149419,0.0297906,3,267
12,3.84985e-22,2,1039,150.54,-2.28588e-06,2.19404e-06,-6.96686e-08,3.16921e-06,40.875,178.09,96.28,500000,500000,-1.33372e-07,3.25529e-07,-1.38078e-07,-0.000370003,0.022846,0.000129463,0.0245956,3,268
12,4.67945e-22,2,1040,150.54,-2.42412e-06,2.36668e-06,-6.71447e-08,3.38852e-06,43.625,178.09,96.28,2.43744e+06,593750,-1.26503e-07,3.17101e-07,-1.34767e-07,-0.000843762,0.0266186,-0.00145867,0.0299607,3,269
12,6.12285e-22,1,1041,130.6,-2.53888e-06,2.50304e-06,-5.35601e-08,3.56567e-06,51.625,117.2,-48.36,6.95812e+06,812500,-1.05582e-07,2.97149e-07,-1.08477e-07,-0.000307858,0.0398258,-0.000478882,0.0425869,2,770
12,6.35904e-22,1,1042,80.41,-2.63529e-06,2.56144e-06,-4.66659e-08,3.67531e-06,60.375,-123.18,-170.23,1.01872e+07,968750,-9.56744e-08,2.8403e-07,-9.2809e-08,0.000676257,0.0451571,0.000821467,0.045961,2,771
12,5.81718e-22,1,1043,80.41,-2.73023e-06,2.56741e-06,-4.8807e-08,3.74809e-06,64.375,-123.18,-170.23,1.0833e+07,1e+06,-9.1933e-08,2.70463e-07,-9.64193e-08,0.000992533,0.0404291,-0.000719618,0.040881,2,772
12,5.65354e-22,1,1044,80.41,-2.81915e-06,2.56747e-06,-4.51989e-08,3.81334e-06,65,-123.18,-170.23,1.0833e+07,1e+06,-8.61211e-08,2.54697e-07,-9.12829e-08,0.00156277,0.0371793,-0.000428041,0.036894,2,773
12,5.65354e-22,1,1045,80.41,-2.90247e-06,2.56688e-06,-4.29292e-08,3.87493e-06,65,-123.18,-170.23,1.0833e+07,1e+06,-8.17629e-08,2.43341e-07,-8.57242e-08,0.00174524,0.0358554,-8.36286e-08,0.0353028,2,774
12,5.65354e-22,1,1046,80.41,-2.98268e-06,2.56188e-06,-4.13016e-08,3.93209e-06,65,-123.18,-170.23,1.0833e+07,1e+06,-7.95687e-08,2.35056e-07,-8.26245e-08,0.00154068,0.0346022,-2.4998e-05,0.0341791,2,775
12,5.65354e-22,1,1047,80.41,-3.06161e-06,2.55272e-06,-4.0123e-08,3.9864e-06,65,-123.18,-170.23,1.0833e+07,1e+06,-7.90631e-08,2.29662e-07,-8.02494e-08,0.00118835,0.0336949,-1.09942e-05,0.0334214,2,776
12,5.65354e-22,1,1048,80.41,-3.14081e-06,2.54019e-06,-3.9302e-08,4.03965e-06,65,-123.18,-170.23,1.0833e+07,1e+06,-7.99443e-08,2.26569e-07,-7.86e-08,0.000696899,0.0330351,-1.23065e-05,0.0329675,2,777
12,5.65354e-22,1,1049,80.41,-3.2215e-06,2.52502e-06,-3.87861e-08,4.09332e-06,65,-123.18,-170.23,1.0833e+07,1e+06,-8.19874e-08,2.25639e-07,-7.75719e-08,0.000116737,0.032647,-8.32847e-06,0.0328279,2,778
12,5.65354e-22,1,1050,80.41,-3.30478e-06,2.50765e-06,-3.85319e-08,4.14866e-06,65,-123.18,-170.23,1.0833e+07,1e+06,-8.49598e-08,2.26573e-07,-7.70679e-08,-0.000524038,0.0325197,-5.99686e-07,0.032998,2,779
12,5.65354e-22,1,1051,80.41,-3.39142e-06,2.48788e-06,-3.84478e-08,4.20628e-06,65,-123.18,-170.23,1.0833e+07,1e+06,-8.84762e-08,2.28704e-07,-7.68989e-08,-0.00119438,0.032583,3.337e-06,0.0334087,2,780
12,5.65354e-22,1,1052,80.41,-3.48173e-06,2.46481e-06,-3.8412e-08,4.26605e-06,65,-123.18,-170.23,1.0833e+07,1e+06,-9.21503e-08,2.31251e-07,-7.68235e-08,-0.00187021,0.0327398,1.12349e-06,0.033958,2,781
12,5.65354e-22,1,1053,80.41,-3.57572e-06,2.43718e-06,-3.83075e-08,4.32748e-06,65,-123.18,-170.23,1.0833e+07,1e+06,-9.5728e-08,2.33573e-07,-7.66104e-08,-0.00254529,0.0329022,-3.02096e-06,0.0345581,2,782
12,5.65354e-22,1,1054,80.41,-3.67319e-06,2.40377e-06,-3.80335e-08,4.38997e-06,65,-123.18,-170.23,1.0833e+07,1e+06,-9.90509e-08,2.35176e-07,-7.60608e-08,-0.00322334,0.0329998,-2.85611e-06,0.0351477,2,783
12,5.65354e-22,1,1055,80.41,-3.77382e-06,2.36354e-06,-3.75001e-08,4.45303e-06,65,-123.18,-170.23,1.0833e+07,1e+06,-1.01901e-07,2.35563e-07,-7.49912e-08,-0.00389404,0.0329693,7.93626e-06,0.0356722,2,784
12,5.65354e-22,1,1056,80.41,-3.87699e-06,2.3158e-06,-3.66096e-08,4.51612e-06,65,-123.18,-170.23,1.0833e+07,1e+06,-1.03869e-07,2.34059e-07,-7.32235e-08,-0.00451869,0.0327285,2.81481e-05,0.0360505,2,785
12,5.65354e-22,1,1057,80.41,-3.98156e-06,2.26024e-06,-3.52703e-08,4.57851e-06,65,-123.18,-170.23,1.0833e+07,1e+06,-1.04305e-07,2.29734e-07,-7.05233e-08,-0.00501973,0.0321714,6.49769e-05,0.0361491,2,786
12,5.65354e-22,1,1058,80.41,-4.0856e-06,2.19702e-06,-3.33254e-08,4.63898e-06,65,-123.18,-170.23,1.0833e+07,1e+06,-1.02185e-07,2.21315e-07,-6.67653e-08,-0.00526415,0.0311306,9.01442e-05,0.0357238,2,787
12,5.65354e-22,1,1059,80.41,-4.18593e-06,2.12725e-06,-3.07486e-08,4.69555e-06,65,-123.18,-170.23,1.0833e+07,1e+06,-9.62889e-08,2.07018e-07,-6.12937e-08,-0.00509527,0.0293817,0.000218772,0.0343049,2,788
12,5.65354e-22,1,1060,80.41,-4.27818e-06,2.05504e-06,-2.70943e-08,4.74623e-06,65,-123.18,-170.23,1.0833e+07,1e+06,-8.70335e-08,1.86204e-07,-5.40601e-08,-0.00465729,0.0265831,0.000435556,0.0311969,2,789
12,5.02191e-22,1,1061,80.41,-4.36e-06,1.99408e-06,-2.41069e-08,4.79443e-06,66.125,-123.18,-170.23,8.89556e+06,906250,-7.5043e-08,1.67676e-07,-4.87706e-08,-0.00441253,0.0250172,0.000416848,0.0289627,2,790
12,3.54812e-22,2,1062,78.48,-4.42827e-06,1.9333e-06,-2.15647e-08,4.83194e-06,68.75,28.28,127.2,4.37488e+06,687500,-6.26688e-08,1.50917e-07,-4.27621e-08,-0.00474952,0.0247711,0.000282436,0.028227,3,270
12,2.8234e-22,2,1063,78.48,-4.48533e-06,1.8521e-06,-2.05028e-08,4.85272e-06,71.6875,28.28,127.2,1.79163e+06,562500,-5.35866e-08,1.43143e-07,-4.08107e-08,-0.00510512,0.0256382,0.00033483,0.0287619,3,271
12,3.92482e-22,2,1064,78.48,-4.53544e-06,1.76877e-06,-2.55045e-08,4.8682e-06,76.3125,28.28,127.2,3.72906e+06,656250,-4.25316e-08,1.4859e-07,-5.15701e-08,-0.00499721,0.0287786,0.000404112,0.0316524,3,272
12,5.56476e-22,1,1065,179.53,-4.5704e-06,1.70991e-06,-3.18774e-08,4.87989e-06,81.625,-34.91,-168.19,6.95812e+06,812500,-2.76561e-08,1.48671e-07,-6.35405e-08,-0.00440437,0.0306949,0.00036825,0.0331616,2,791
12,6.54873e-22,1,1066,179.529,-4.59075e-06,1.68777e-06,-3.66523e-08,4.89131e-06,84.8125,-34.91,-168.19,8.89556e+06,906250,-1.62706e-08,1.48122e-07,-7.3167e-08,-0.00371347,0.0315947,0.000161596,0.0336856,2,792
12,7.20471e-22,1,1067,179.529,-4.60294e-06,1.6939e-06,-4.15421e-08,4.9049e-06,86.9375,-34.91,-168.19,1.01872e+07,968750,-9.02787e-09,1.52347e-07,-8.31701e-08,-0.00343275,0.0330735,-9.20992e-05,0.035065,2,793
12,7.5327e-22,1,1068,179.529,-4.60881e-06,1.71148e-06,-4.46988e-08,4.91653e-06,88,-34.91,-168.19,1.0833e+07,1e+06,-4.66816e-09,1.56635e-07,-8.93551e-08,-0.00311808,0.0342668,-0.000112488,0.0360819,2,794
12,7.5327e-22,1,1069,179.529,-4.61228e-06,1.73578e-06,-4.64505e-08,4.9283e-06,88,-34.91,-168.19,1.0833e+07,1e+06,-2.90341e-09,1.61496e-07,-9.29086e-08,-0.00277864,0.0353767,-3.87641e-05,0.0370102,2,795
12,7.5327e-22,1,1070,179.529,-4.61461e-06,1.76586e-06,-4.80381e-08,4.94117e-06,88,-34.91,-168.19,1.0833e+07,1e+06,-1.94729e-09,1.66125e-07,-9.6084e-08,-0.00263606,0.0364082,-1.80645e-05,0.0379867,2,796
12,7.5327e-22,1,1071,179.529,-4.61617e-06,1.79927e-06,-4.95775e-08,4.95468e-06,88,-34.91,-168.19,1.0833e+07,1e+06,-1.32403e-09,1.70732e-07,-9.91496e-08,-0.00257109,0.0374178,-1.97142e-05,0.038982,2,797
12,7.5327e-22,1,1072,179.529,-4.61726e-06,1.83426e-06,-5.10693e-08,4.96852e-06,88,-34.91,-168.19,1.0833e+07,1e+06,-1.03162e-09,1.75569e-07,-1.02135e-07,-0.00257075,0.0384769,-1.64758e-05,0.0400454,2,798
12,7.5327e-22,1,1073,179.529,-4.61823e-06,1.8686e-06,-5.2469e-08,4.98222e-06,88,-34.91,-168.19,1.0833e+07,1e+06,-1.04211e-09,1.80442e-07,-1.04937e-07,-0.00262381,0.0395417,-7.19684e-06,0.041122,2,799
12,7.5327e-22,1,1074,179.529,-4.61935e-06,1.89963e-06,-5.3651e-08,4.99498e-06,88,-34.91,-168.19,1.0833e+07,1e+06,-1.24401e-09,1.84772e-07,-1.07304e-07,-0.00270073,0.0404809,3.62076e-06,0.0420679,2,800
12,7.5327e-22,1,1075,179.529,-4.62072e-06,1.92493e-06,-5.4477e-08,5.00593e-06,88,-34.91,-168.19,1.0833e+07,1e+06,-1.49886e-09,1.87905e-07,-1.08957e-07,-0.00276876,0.0411497,1.06325e-05,0.0427311,2,801
12,7.5327e-22,1,1076,179.529,-4.62234e-06,1.94314e-06,-5.48729e-08,5.01447e-06,88,-34.91,-168.19,1.0833e+07,1e+06,-1.69236e-09,1.89466e-07,-1.09748e-07,-0.00280383,0.0414683,1.25478e-05,0.0430301,2,802
12,7.5327e-22,1,1077,179.529,-4.62411e-06,1.95422e-06,-5.48488e-08,5.02039e-06,88,-34.91,-168.19,1.0833e+07,1e+06,-1.76194e-09,1.89442e-07,-1.09699e-07,-0.00279578,0.0414398,1.13776e-05,0.0429682,2,803
12,7.5327e-22,1,1078,179.529,-4.62587e-06,1.95913e-06,-5.44685e-08,5.02392e-06,88,-34.91,-168.19,1.0833e+07,1e+06,-1.69083e-09,1.88057e-07,-1.08938e-07,-0.00274506,0.0411163,9.58435e-06,0.0425982,2,804
12,7.5327e-22,1,1079,179.529,-4.62749e-06,1.95918e-06,-5.38067e-08,5.02543e-06,88,-34.91,-168.19,1.0833e+07,1e+06,-1.48544e-09,1.85583e-07,-1.07614e-07,-0.00265518,0.0405589,8.94219e-06,0.0419795,2,805
12,7.5327e-22,1,1080,179.529,-4.62884e-06,1.95527e-06,-5.29175e-08,5.02514e-06,88,-34.91,-168.19,1.0833e+07,1e+06,-1.1496e-09,1.82224e-07,-1.05837e-07,-0.00252515,0.039809,1.10598e-05,0.0411486,2,806
12,7.5327e-22,1,1081,179.529,-4.62979e-06,1.94718e-06,-5.18177e-08,5.02286e-06,88,-34.91,-168.19,1.0833e+07,1e+06,-6.51775e-10,1.78028e-07,-1.03639e-07,-0.00234179,0.0388738,1.91311e-05,0.0401011,2,807
12,7.5327e-22,1,1082,179.529,-4.63014e-06,1.93354e-06,-5.04824e-08,5.0179e-06,88,-34.91,-168.19,1.0833e+07,1e+06,1.1559e-10,1.72836e-07,-1.00974e-07,-0.00207339,0.0377157,3.7024e-05,0.0387827,2,808
12,7.5327e-22,1,1083,179.529,-4.62956e-06,1.91243e-06,-4.8907e-08,5.00925e-06,88,-34.91,-168.19,1.0833e+07,1e+06,1.44162e-09,1.6636e-07,-9.78529e-08,-0.00165476,0.036266,6.20891e-05,0.0370994,2,809
12,7.5327e-22,1,1084,179.529,-4.62726e-06,1.88259e-06,-4.73646e-08,4.99579e-06,88,-34.91,-168.19,1.0833e+07,1e+06,4.2677e-09,1.58642e-07,-9.49269e-08,-0.000894378,0.0345169,7.65267e-05,0.0349647,2,810
12,7.5327e-22,1,1085,179.529,-4.62102e-06,1.84399e-06,-4.6565e-08,4.97557e-06,88,-34.91,-168.19,1.0833e+07,1e+06,6.3227e-09,1.47989e-07,-9.28253e-08,-0.000662116,0.031729,-0.000588399,0.0324277,2,811
12,6.5148e-22,1,1086,179.529,-4.61461e-06,1.79432e-06,-4.1182e-08,4.95136e-06,90,-34.9101,-168.19,8.24975e+06,875000,-1.90778e-08,1.57031e-07,-8.2037e-08,-0.000769621,0.028482,-0.000157666,0.0295646,2,812
12,4.47901e-22,2,1087,29.09,-4.65918e-06,1.72394e-06,-3.35758e-08,4.968e-06,94,38.11,-136.53,3.08325e+06,625000,-7.02468e-08,1.89098e-07,-6.76825e-08,-3.39133e-06,0.0225187,0.00088451,0.0226852,3,273
12,3.46112e-22,2,1088,29.09,-4.75511e-06,1.65196e-06,-3.06278e-08,5.03398e-06,96,38.11,-136.53,500000,500000,-9.4773e-08,1.98075e-07,-6.1306e-08,0.000115501,0.0171369,0.00030197,0.0170879,3,274
12,3.46112e-22,2,1089,29.09,-4.84872e-06,1.60752e-06,-2.90911e-08,5.10833e-06,96,38.11,-136.53,500000,500000,-9.07471e-08,1.85977e-07,-5.77916e-08,-0.000294116,0.0161932,-0.00024988,0.0168822,3,275
12,3.46112e-22,2,1090,29.09,-4.9366e-06,1.58537e-06,-2.71912e-08,5.18499e-06,96,38.11,-136.53,500000,500000,-8.93968e-08,1.82556e-07,-5.43928e-08,-0.000145939,0.0163293,2.12544e-05,0.0171499,3,276
12,4.29934e-22,2,1091,29.09,-5.02752e-06,1.57563e-06,-2.3873e-08,5.26869e-06,101.75,38.11,-136.53,3.08325e+06,625000,-8.39283e-08,1.84136e-07,-4.79268e-08,0.000220442,0.0227979,0.00042147,0.0238376,3,277
12,5.97579e-22,1,1092,64.15,-5.10446e-06,1.61463e-06,-2.38352e-08,5.35379e-06,113.25,-139.18,-156.59,8.24975e+06,875000,-6.81102e-08,1.83617e-07,-4.77248e-08,0.000288717,0.0324828,-8.35019e-05,0.0332976,2,813
12,6.81402e-22,1,1093,64.15,-5.16374e-06,1.69783e-06,-2.55077e-08,5.43576e-06,119,-139.18,-156.59,1.0833e+07,1e+06,-5.93631e-08,1.82742e-07,-5.09412e-08,9.94895e-05,0.0361599,-0.000352036,0.036334,2,814
12,6.81402e-22,1,1094,64.15,-5.22318e-06,1.77849e-06,-2.50412e-08,5.51772e-06,119,-139.18,-156.59,1.0833e+07,1e+06,-6.0158e-08,1.8449e-07,-5.00794e-08,6.78891e-05,0.0367451,-6.44634e-06,0.0367503,2,815
12,6.81402e-22,1,1095,64.15,-5.28405e-06,1.85321e-06,-2.5399e-08,5.59967e-06,119,-139.18,-156.59,1.0833e+07,1e+06,-6.18922e-08,1.88403e-07,-5.08086e-08,-0.000109361,0.0376256,9.28827e-06,0.0376849,2,816
12,6.81402e-22,1,1096,64.15,-5.34697e-06,1.92245e-06,-2.5834e-08,5.68212e-06,119,-139.18,-156.59,1.0833e+07,1e+06,-6.39593e-08,1.92906e-07,-5.16702e-08,-0.000333053,0.0386206,1.84581e-05,0.0387946,2,817
12,6.81402e-22,1,1097,64.15,-5.41197e-06,1.98564e-06,-2.62909e-08,5.7648e-06,119,-139.18,-156.59,1.0833e+07,1e+06,-6.59831e-08,1.97362e-07,-5.25818e-08,-0.000549329,0.0395961,1.28624e-05,0.0399169,2,818
12,6.81402e-22,1,1098,64.15,-5.47893e-06,2.0427e-06,-2.67285e-08,5.8474e-06,119,-139.18,-156.59,1.0833e+07,1e+06,-6.79023e-08,2.01593e-07,-5.34572e-08,-0.000751611,0.0405164,6.92785e-06,0.040998,2,819
12,6.81402e-22,1,1099,64.15,-5.54778e-06,2.09379e-06,-2.71323e-08,5.9298e-06,119,-139.18,-156.59,1.0833e+07,1e+06,-6.97852e-08,2.05561e-07,-5.42556e-08,-0.000962335,0.0413679,3.94101e-06,0.0420261,2,820
12,6.81402e-22,1,1100,64.15,-5.6185e-06,2.13913e-06,-2.7446e-08,6.01201e-06,119,-139.18,-156.59,1.0833e+07,1e+06,-7.17259e-08,2.09216e-07,-5.49115e-08,-0.00121695,0.0421437,7.44717e-06,0.0430094,2,821
12,6.81402e-22,1,1101,64.15,-5.69123e-06,2.17845e-06,-2.74727e-08,6.09397e-06,119,-139.18,-156.59,1.0833e+07,1e+06,-7.33932e-08,2.12339e-07,-5.47716e-08,-0.00142363,0.0429487,0.000199657,0.0439366,2,822
12,6.61447e-22,1,1102,64.15,-5.76529e-06,2.20921e-06,-2.73373e-08,6.17414e-06,118.938,-139.18,-156.59,1.01872e+07,968750,-7.45263e-08,2.13209e-07,-5.50261e-08,-0.00178441,0.0428092,1.83947e-05,0.0442373,2,823
12,5.81627e-22,1,1103,64.15,-5.84028e-06,2.23728e-06,-2.7957e-08,6.2542e-06,118.688,-139.18,-156.59,7.60394e+06,843750,-7.78505e-08,2.17893e-07,-5.58458e-08,-0.00209931,0.0420848,-0.000470081,0.0440538,2,824
12,4.81853e-22,2,1104,145.75,-5.92099e-06,2.27925e-06,-2.7189e-08,6.34459e-06,118.375,-116.93,-175.81,4.37488e+06,687500,-8.48516e-08,2.29168e-07,-5.41044e-08,-0.00208622,0.0422631,-0.000217472,0.0441051,3,278
12,4.41943e-22,2,1105,145.75,-6.00998e-06,2.33658e-06,-2.65237e-08,6.44827e-06,118.25,-116.93,-175.81,3.08325e+06,625000,-9.0987e-08,2.37611e-07,-5.31093e-08,-0.00223306,0.0428313,-0.000105829,0.0446188,3,279
12,4.81853e-22,2,1106,145.75,-6.10297e-06,2.4072e-06,-2.62052e-08,6.5606e-06,118.375,-116.93,-175.81,4.37488e+06,687500,-9.19271e-08,2.3823e-07,-5.26365e-08,-0.00240848,0.0437964,0.000297814,0.0454272,3,280
12,5.21762e-22,1,1107,64.15,-6.19384e-06,2.494e-06,-2.56079e-08,6.67715e-06,118.5,-139.18,-156.59,5.6665e+06,750000,-8.90874e-08,2.37535e-07,-5.18396e-08,-0.00166753,0.0446811,0.00107752,0.0454735,2,825
12,4.54457e-22,2,1108,145.75,-6.28114e-06,2.62541e-06,-3.62832e-08,6.80785e-06,119.625,-116.93,-175.81,3.72906e+06,656250,-7.76485e-08,2.37534e-07,-7.28795e-08,-0.0015549,0.0412556,-0.00113063,0.0434913,3,281
12,3.57277e-22,2,1109,106.24,-6.34913e-06,2.72685e-06,-6.19147e-08,6.91021e-06,122.438,-1.3,-30.28,1.14581e+06,531250,-5.76764e-08,2.64329e-07,-1.2253e-07,-0.00143643,0.0385076,-0.00159524,0.0409971,3,282
12,3.24921e-22,2,1110,106.24,-6.39649e-06,2.70972e-06,-8.28549e-08,6.94727e-06,124.562,-1.3,-30.28,500000,500000,-4.75182e-08,3.05674e-07,-1.65007e-07,-0.000588803,0.0392374,0.000287922,0.0396888,3,283
12,3.22441e-22,2,1111,106.24,-6.44417e-06,2.62286e-06,-8.82803e-08,6.95805e-06,125,-1.3,-30.28,500000,500000,-4.88117e-08,3.1712e-07,-1.77493e-07,-0.000566481,0.0384317,9.58279e-05,0.0386741,3,284
12,6.45258e-22,1,1112,73.27,-3.4114e-08,2.05923e-06,-2.10631e-08,2.05962e-06,8,-129.16,-171.71,1.0833e+07,1e+06,-6.81155e-08,1.48286e-07,-4.21386e-08,-0.00324977,0.0217526,0.000349469,0.0235515,2,826
12,6.45258e-22,1,1113,73.27,-1.02117e-07,2.07145e-06,-2.18079e-08,2.07408e-06,8,-129.16,-171.71,1.0833e+07,1e+06,-6.85692e-08,1.48202e-07,-4.37342e-08,-0.00327243,0.0214436,-0.000376175,0.0235648,2,827
12,6.45258e-22,1,1114,73.27,-1.71252e-07,2.06502e-06,-2.13153e-08,2.07222e-06,8,-129.16,-171.71,1.0833e+07,1e+06,-6.96823e-08,1.51204e-07,-4.25249e-08,-0.00309561,0.0223227,0.000103283,0.0243988,2,828
12,6.46752e-22,1,1115,73.27,-2.41481e-07,2.04263e-06,-2.06767e-08,2.05696e-06,8.5625,-129.16,-171.71,1.0833e+07,1e+06,-6.41382e-08,1.49975e-07,-4.07253e-08,-0.00296034,0.0256891,-0.000367086,0.0282538,2,829
12,6.50238e-22,1,1116,126.08,-2.99529e-07,2.01662e-06,-1.54376e-08,2.0388e-06,9.875,-20.36,125.34,1.0833e+07,1e+06,-4.99942e-08,1.40492e-07,-3.12072e-08,-0.00216391,0.0317542,-0.00020027,0.0337692,2,830
12,6.34548e-22,1,1117,126.08,-3.4147e-07,1.99063e-06,-1.1384e-08,2.01974e-06,11.5625,-20.36,125.34,1.01872e+07,968750,-4.33905e-08,1.35061e-07,-2.29446e-08,-0.00153557,0.0348049,0.000386606,0.0360248,2,831
12,5.44145e-22,1,1118,126.08,-3.8631e-07,1.97238e-06,-1.33164e-08,2.0099e-06,15.5,-20.36,125.34,6.95813e+06,812500,-6.0832e-08,1.60148e-07,-2.75254e-08,-0.00106327,0.0340193,0.000601444,0.0351118,2,832
12,4.16884e-22,2,1119,153.64,-4.63134e-07,2.01987e-06,-2.39682e-08,2.07242e-06,20.75,-177.01,-156.76,2.43744e+06,593750,-8.9768e-08,2.08191e-07,-4.77541e-08,-0.000912108,0.0311963,0.000564945,0.0322322,3,285
12,3.62343e-22,2,1120,153.64,-5.65846e-07,2.12425e-06,-3.2872e-08,2.19857e-06,23,-177.01,-156.76,500000,500000,-1.01789e-07,2.29856e-07,-6.47064e-08,-0.00170676,0.0283789,-0.000187672,0.029935,3,286
12,3.62343e-22,2,1121,153.64,-6.66712e-07,2.22504e-06,-3.29573e-08,2.32301e-06,23,-177.01,-156.76,500000,500000,-9.87831e-08,2.30891e-07,-6.65056e-08,-0.00148958,0.028807,0.000104411,0.0301751,3,287
12,3.60941e-22,2,1122,153.64,-7.63412e-07,2.31794e-06,-3.50946e-08,2.44067e-06,23.1875,-177.01,-156.76,500000,500000,-9.18883e-08,2.33723e-07,-7.02381e-08,-0.00108418,0.0309263,8.53972e-05,0.0325124,3,288
12,3.55332e-22,2,1123,153.64,-8.50489e-07,2.38656e-06,-3.86389e-08,2.53387e-06,23.9375,-177.01,-156.76,500000,500000,-7.63879e-08,2.19105e-07,-7.63598e-08,-0.00217041,0.0314187,-0.00151079,0.0347158,3,289
12,3.46918e-22,2,1124,84.77,-9.16188e-07,2.4086e-06,-3.80963e-08,2.57724e-06,25.0625,-156.44,-54.66,500000,500000,-5.70264e-08,1.94157e-07,-7.58787e-08,-0.00340728,0.0303727,-0.00136215,0.0339989,3,290
12,3.41309e-22,2,1125,84.77,-9.64542e-07,2.40522e-06,-3.5639e-08,2.59166e-06,25.8125,-156.44,-54.66,500000,500000,-4.58675e-08,1.84138e-07,-7.26254e-08,-0.00346961,0.0302318,0.000677303,0.0323277,3,291
12,3.39907e-22,2,1126,84.77,-1.00792e-06,2.40772e-06,-3.70343e-08,2.61044e-06,26,-156.44,-54.66,500000,500000,-4.40817e-08,1.85256e-07,-7.47769e-08,-0.00354806,0.0301781,0.00112396,0.0317853,3,292
12,3.62156e-22,2,1127,84.77,-1.05271e-06,2.42277e-06,-3.90642e-08,2.64188e-06,26.625,-156.44,-54.66,1.14581e+06,531250,-4.99015e-08,1.90058e-07,-7.72004e-08,-0.00395997,0.0302767,0.000277331,0.0326135,3,293
12,4.73398e-22,2,1128,84.77,-1.10773e-06,2.43926e-06,-3.71674e-08,2.67926e-06,29.75,-156.44,-54.66,4.37488e+06,687500,-6.64344e-08,2.02651e-07,-7.3834e-08,-0.00336838,0.031041,-3.04919e-05,0.033529,3,294
12,6.29139e-22,1,1129,80.81,-1.18557e-06,2.43487e-06,-3.65289e-08,2.70841e-06,34.125,-129.97,-177.44,8.89556e+06,906250,-8.60911e-08,2.16431e-07,-7.34996e-08,-0.00292615,0.0300528,-0.000105007,0.0320759,2,833
12,6.95884e-22,1,1130,80.81,-1.27991e-06,2.41925e-06,-3.84435e-08,2.73723e-06,36,-129.97,-177.44,1.0833e+07,1e+06,-9.55277e-08,2.24507e-07,-7.6851e-08,-0.00320339,0.0291483,-0.000105134,0.0309595,2,834
12,6.95884e-22,1,1131,80.81,-1.37663e-06,2.41213e-06,-3.93222e-08,2.77759e-06,36,-129.97,-177.44,1.0833e+07,1e+06,-9.71332e-08,2.29927e-07,-7.86353e-08,-0.0030929,0.0299408,-1.58381e-06,0.0317547,2,835
12,6.95884e-22,1,1132,80.81,-1.47417e-06,2.41025e-06,-4.0243e-08,2.82562e-06,36,-129.97,-177.44,1.0833e+07,1e+06,-9.77676e-08,2.33866e-07,-8.04739e-08,-0.00288499,0.030487,-2.90897e-05,0.0323397,2,836
12,6.95884e-22,1,1133,80.81,-1.57216e-06,2.41109e-06,-4.09777e-08,2.87867e-06,36,-129.97,-177.44,1.0833e+07,1e+06,-9.82633e-08,2.37239e-07,-8.19529e-08,-0.00268763,0.0309812,-2.74963e-05,0.0328541,2,837
12,6.95884e-22,1,1134,80.81,-1.6707e-06,2.41167e-06,-4.15804e-08,2.93413e-06,36,-129.97,-177.44,1.0833e+07,1e+06,-9.88936e-08,2.40321e-07,-8.31548e-08,-0.0025453,0.0314447,-1.38427e-05,0.0332774,2,838
12,6.95884e-22,1,1135,80.81,-1.76995e-06,2.40816e-06,-4.20473e-08,2.98893e-06,36,-129.97,-177.44,1.0833e+07,1e+06,-9.96726e-08,2.42894e-07,-8.39768e-08,-0.00249442,0.0318484,1.35331e-05,0.0335476,2,839
12,6.95884e-22,1,1136,80.81,-1.87005e-06,2.39566e-06,-4.12249e-08,3.0394e-06,36,-129.97,-177.44,1.0833e+07,1e+06,-9.85153e-08,2.43839e-07,-8.23863e-08,-0.00195978,0.032492,0.00066547,0.0334204,2,840
12,6.17993e-22,1,1137,80.81,-1.96698e-06,2.3664e-06,-4.33503e-08,3.07746e-06,36.875,-129.97,-177.44,8.24975e+06,875000,-8.78146e-08,2.37048e-07,-8.68729e-08,-0.00195224,0.0318095,-0.000366094,0.0333573,2,841
12,4.62393e-22,2,1138,152.99,-2.04568e-06,2.32466e-06,-5.19458e-08,3.09702e-06,39,-64.12,170.81,3.08325e+06,625000,-8.96774e-08,2.62298e-07,-1.04554e-07,-0.00111943,0.0308793,-0.000457296,0.032874,3,295
12,3.84864e-22,2,1139,150.54,-2.14634e-06,2.37807e-06,-6.53131e-08,3.2041e-06,40.625,178.09,96.28,500000,500000,-1.21468e-07,3.1648e-07,-1.30533e-07,6.08556e-05,0.026419,0.00047239,0.0277104,3,296
12,3.85046e-22,2,1140,150.54,-2.28861e-06,2.53318e-06,-7.26719e-08,3.41468e-06,41,178.09,96.28,500000,500000,-1.4005e-07,3.35284e-07,-1.44019e-07,-0.000236184,0.0216107,3.3667e-05,0.0229021,3,297
12,4.95578e-22,2,1141,150.54,-2.42644e-06,2.67254e-06,-6.42713e-08,3.61029e-06,44.5,178.09,96.28,3.08325e+06,625000,-1.19077e-07,3.08915e-07,-1.28493e-07,-0.000189075,0.0289806,-0.00118257,0.0313253,3,298
12,7.00279e-22,1,1142,130.6,-2.52677e-06,2.77146e-06,-4.59543e-08,3.75068e-06,52.125,117.2,-48.36,8.24975e+06,875000,-8.6394e-08,2.67423e-07,-9.24654e-08,0.00115872,0.0421889,-0.000260105,0.043351,2,842
12,7.28992e-22,1,1143,130.6,-2.59922e-06,2.82532e-06,-3.66558e-08,3.83923e-06,58.75,117.2,-48.36,1.0833e+07,1e+06,-7.7229e-08,2.54252e-07,-7.41625e-08,0.00198266,0.0467823,0.00222275,0.046207,2,843
12,6.14445e-22,1,1144,80.41,-2.68122e-06,2.83406e-06,-4.31236e-08,3.90163e-06,63.125,-123.18,-170.23,1.0833e+07,1e+06,-8.56313e-08,2.60937e-07,-8.62642e-08,0.00148392,0.0418592,0.000794522,0.0418635,2,844
12,5.65354e-22,1,1145,80.41,-2.77049e-06,2.82297e-06,-4.60382e-08,3.95562e-06,65,-123.18,-170.23,1.0833e+07,1e+06,-8.66925e-08,2.5502e-07,-9.13446e-08,0.001425,0.0371997,-0.000464601,0.0369925,2,845
12,5.65354e-22,1,1146,80.41,-2.85461e-06,2.81052e-06,-4.28639e-08,4.0062e-06,65,-123.18,-170.23,1.0833e+07,1e+06,-8.17294e-08,2.42745e-07,-8.58889e-08,0.00165673,0.035696,-0.000112474,0.0352485,2,846
12,5.65354e-22,1,1147,80.41,-2.93395e-06,2.79645e-06,-4.13749e-08,4.05338e-06,65,-123.18,-170.23,1.0833e+07,1e+06,-7.80727e-08,2.33842e-07,-8.27216e-08,0.0017913,0.0344714,-5.33747e-05,0.0339096,2,847
12,5.65354e-22,1,1148,80.41,-3.01075e-06,2.78145e-06,-4.01913e-08,4.09911e-06,65,-123.18,-170.23,1.0833e+07,1e+06,-7.65098e-08,2.27555e-07,-8.03699e-08,0.00162117,0.0334521,-3.95564e-05,0.0329164,2,848
12,5.65354e-22,1,1149,80.41,-3.08696e-06,2.76562e-06,-3.9394e-08,4.14482e-06,65,-123.18,-170.23,1.0833e+07,1e+06,-7.6842e-08,2.24145e-07,-7.87796e-08,0.00124257,0.032753,-2.87148e-05,0.0323369,2,849
12,5.65354e-22,1,1150,80.41,-3.16444e-06,2.74965e-06,-3.9002e-08,4.19235e-06,65,-123.18,-170.23,1.0833e+07,1e+06,-7.88452e-08,2.23771e-07,-7.80131e-08,0.000728581,0.0324483,-8.3992e-06,0.0322243,2,850
12,5.65354e-22,1,1151,80.41,-3.24466e-06,2.73364e-06,-3.89471e-08,4.24289e-06,65,-123.18,-170.23,1.0833e+07,1e+06,-8.19448e-08,2.25669e-07,-7.79053e-08,0.000144698,0.0324752,6.3203e-06,0.0325083,2,851
12,5.65354e-22,1,1152,80.41,-3.32833e-06,2.71649e-06,-3.90718e-08,4.29635e-06,65,-123.18,-170.23,1.0833e+07,1e+06,-8.54486e-08,2.28652e-07,-7.81485e-08,-0.000448733,0.0326913,4.94681e-06,0.0330268,2,852
12,5.65354e-22,1,1153,80.41,-3.41555e-06,2.69643e-06,-3.92259e-08,4.35181e-06,65,-123.18,-170.23,1.0833e+07,1e+06,-8.89641e-08,2.31836e-07,-7.84505e-08,-0.00103182,0.032973,-7.62182e-06,0.0336414,2,853
12,5.65354e-22,1,1154,80.41,-3.50626e-06,2.6716e-06,-3.93035e-08,4.40827e-06,65,-123.18,-170.23,1.0833e+07,1e+06,-9.2462e-08,2.34792e-07,-7.86012e-08,-0.00163244,0.0332443,-2.18341e-05,0.0342859,2,854
12,5.65354e-22,1,1155,80.41,-3.60048e-06,2.64036e-06,-3.92252e-08,4.46503e-06,65,-123.18,-170.23,1.0833e+07,1e+06,-9.6069e-08,2.37314e-07,-7.84393e-08,-0.00229848,0.0334607,-2.98378e-05,0.0349469,2,855
12,5.65354e-22,1,1156,80.41,-3.69839e-06,2.60125e-06,-3.88963e-08,4.52174e-06,65,-123.18,-170.23,1.0833e+07,1e+06,-9.9798e-08,2.391e-07,-7.77858e-08,-0.00306015,0.0335794,-2.6009e-05,0.0356187,2,856
12,5.65354e-22,1,1157,80.41,-3.80007e-06,2.55281e-06,-3.8194e-08,4.57808e-06,65,-123.18,-170.23,1.0833e+07,1e+06,-1.03258e-07,2.39447e-07,-7.63468e-08,-0.00388134,0.0335353,9.60444e-06,0.0362476,2,857
12,5.65354e-22,1,1158,80.41,-3.90491e-06,2.49361e-06,-3.68586e-08,4.63333e-06,65,-123.18,-170.23,1.0833e+07,1e+06,-1.05547e-07,2.36881e-07,-7.38409e-08,-0.00468163,0.0331441,3.67552e-05,0.0366749,2,858
12,5.65354e-22,1,1159,80.41,-4.01117e-06,2.42223e-06,-3.47372e-08,4.68592e-06,65,-123.18,-170.23,1.0833e+07,1e+06,-1.05519e-07,2.28997e-07,-6.91367e-08,-0.00538746,0.0321275,0.000197145,0.0365687,2,859
12,5.65354e-22,1,1160,80.41,-4.11595e-06,2.3372e-06,-3.06474e-08,4.73334e-06,65,-123.18,-170.23,1.0833e+07,1e+06,-1.02081e-07,2.12942e-07,-6.07256e-08,-0.00593947,0.0300749,0.000716742,0.0352811,2,860
12,5.56003e-22,1,1161,80.41,-4.21533e-06,2.24062e-06,-2.59897e-08,4.77389e-06,65.8125,-123.18,-170.23,1.01872e+07,968750,-9.67038e-08,1.92162e-07,-5.2431e-08,-0.006168,0.0262967,0.000927912,0.0319905,2,861
12,4.62435e-22,1,1162,80.41,-4.30935e-06,2.15498e-06,-2.30264e-08,4.8182e-06,68.125,-123.18,-170.23,6.95812e+06,812500,-8.47816e-08,1.70491e-07,-4.60167e-08,-0.00623983,0.0237271,0.00057311,0.0293094,2,862
12,3.03353e-22,2,1163,78.48,-4.38489e-06,2.07498e-06,-1.71323e-08,4.85109e-06,70.3125,28.28,127.2,2.43744e+06,593750,-6.66548e-08,1.46712e-07,-3.50714e-08,-0.00580679,0.0239762,0.000883534,0.0281332,3,299
12,2.28487e-22,2,1164,78.48,-4.44266e-06,1.99323e-06,-1.59934e-08,4.86934e-06,71,28.28,127.2,500000,500000,-5.75842e-08,1.42296e-07,-3.28504e-08,-0.00524122,0.0257567,0.00116266,0.0287576,3,300
12,2.61286e-22,2,1165,78.48,-4.50006e-06,1.9217e-06,-2.24428e-08,4.89326e-06,72.0625,28.28,127.2,1.14581e+06,531250,-5.45095e-08,1.53246e-07,-4.36956e-08,-0.00520776,0.0280182,0.00051462,0.0311011,3,301
12,3.26884e-22,2,1166,78.48,-4.55168e-06,1.86338e-06,-2.5968e-08,4.9184e-06,74.1875,28.28,127.2,2.43744e+06,593750,-4.59132e-08,1.56832e-07,-5.20323e-08,-0.00447976,0.029536,0.000328109,0.0321324,3,302
12,4.5808e-22,2,1167,78.48,-4.59189e-06,1.83914e-06,-3.18981e-08,4.9466e-06,78.4375,28.28,127.2,5.02069e+06,718750,-3.01674e-08,1.54969e-07,-6.41138e-08,-0.0034266,0.0307888,0.000124727,0.0327888,3,303
12,6.54873e-22,1,1168,179.529,-4.61202e-06,1.84612e-06,-4.03163e-08,4.96795e-06,84.8125,-34.91,-168.19,8.89556e+06,906250,-1.20073e-08,1.51228e-07,-7.99808e-08,-0.00301755,0.032042,-0.00028212,0.0338911,2,863
12,7.5327e-22,1,1169,179.529,-4.6159e-06,1.86693e-06,-4.45171e-08,4.97935e-06,88,-34.91,-168.19,1.0833e+07,1e+06,-2.98445e-09,1.53975e-07,-8.90364e-08,-0.00272988,0.033611,-0.000170499,0.0352035,2,864
12,7.5327e-22,1,1170,179.529,-4.61799e-06,1.89671e-06,-4.64382e-08,4.99254e-06,88,-34.91,-168.19,1.0833e+07,1e+06,-1.61405e-09,1.60359e-07,-9.30673e-08,-0.00247938,0.0350901,-5.46999e-05,0.0365439,2,865
12,7.5327e-22,1,1171,179.529,-4.61913e-06,1.93156e-06,-4.81434e-08,5.00695e-06,88,-34.91,-168.19,1.0833e+07,1e+06,-6.91242e-10,1.65159e-07,-9.62902e-08,-0.00234646,0.0361684,-2.64211e-05,0.037577,2,866
12,7.5327e-22,1,1172,179.529,-4.61937e-06,1.96972e-06,-4.97714e-08,5.02204e-06,88,-34.91,-168.19,1.0833e+07,1e+06,2.18862e-11,1.70029e-07,-9.95352e-08,-0.0022679,0.0372441,-2.1999e-05,0.0386409,2,867
12,7.5327e-22,1,1173,179.529,-4.61908e-06,2.00977e-06,-5.14089e-08,5.03763e-06,88,-34.91,-168.19,1.0833e+07,1e+06,3.51149e-10,1.75313e-07,-1.02814e-07,-0.0022727,0.0384052,-2.11826e-05,0.0398229,2,868
12,7.5327e-22,1,1174,179.529,-4.61867e-06,2.04928e-06,-5.29972e-08,5.05316e-06,88,-34.91,-168.19,1.0833e+07,1e+06,3.22596e-10,1.80865e-07,-1.05993e-07,-0.00234073,0.039624,-9.51653e-06,0.0410677,2,869
12,7.5327e-22,1,1175,179.529,-4.61844e-06,2.08492e-06,-5.43519e-08,5.06753e-06,88,-34.91,-168.19,1.0833e+07,1e+06,5.75335e-11,1.85879e-07,-1.08707e-07,-0.00243817,0.0407159,5.06403e-06,0.0421748,2,870
12,7.5327e-22,1,1176,179.529,-4.61855e-06,2.11353e-06,-5.52756e-08,5.07948e-06,88,-34.91,-168.19,1.0833e+07,1e+06,-2.71203e-10,1.89432e-07,-1.10555e-07,-0.00252408,0.0414753,1.3507e-05,0.0429314,2,871
12,7.5327e-22,1,1177,179.529,-4.61898e-06,2.13333e-06,-5.56727e-08,5.08814e-06,88,-34.91,-168.19,1.0833e+07,1e+06,-5.25932e-10,1.91047e-07,-1.11348e-07,-0.00256994,0.0418018,1.41173e-05,0.0432377,2,872
12,7.5327e-22,1,1178,179.529,-4.6196e-06,2.14428e-06,-5.55739e-08,5.09331e-06,88,-34.91,-168.19,1.0833e+07,1e+06,-6.49863e-10,1.90802e-07,-1.11148e-07,-0.00256868,0.0417201,1.03218e-05,0.0431228,2,873
12,7.5327e-22,1,1179,179.529,-4.62028e-06,2.14766e-06,-5.50851e-08,5.09534e-06,88,-34.91,-168.19,1.0833e+07,1e+06,-6.56093e-10,1.89097e-07,-1.1017e-07,-0.00252985,0.0413231,5.23549e-06,0.0426849,2,874
12,7.5327e-22,1,1180,179.529,-4.62092e-06,2.14516e-06,-5.43276e-08,5.09485e-06,88,-34.91,-168.19,1.0833e+07,1e+06,-5.96438e-10,1.8641e-07,-1.08654e-07,-0.00246936,0.0407164,6.12258e-07,0.0420341,2,875
12,7.5327e-22,1,1181,179.529,-4.62147e-06,2.13793e-06,-5.33928e-08,5.09231e-06,88,-34.91,-168.19,1.0833e+07,1e+06,-5.30067e-10,1.83134e-07,-1.06783e-07,-0.00239933,0.039984,-8.2354e-07,0.0412548,2,876
12,7.5327e-22,1,1182,179.529,-4.62198e-06,2.12586e-06,-5.22988e-08,5.0877e-06,88,-34.91,-168.19,1.0833e+07,1e+06,-4.82788e-10,1.79394e-07,-1.04595e-07,-0.00231767,0.03915,5.79631e-06,0.0403651,2,877
12,7.5327e-22,1,1183,179.529,-4.62244e-06,2.1073e-06,-5.09657e-08,5.08038e-06,88,-34.91,-168.19,1.0833e+07,1e+06,-3.99224e-10,1.74867e-07,-1.01929e-07,-0.00220249,0.0381385,2.12918e-05,0.0392807,2,878
12,7.5327e-22,1,1184,179.529,-4.62277e-06,2.08e-06,-4.93074e-08,5.06941e-06,88,-34.91,-168.19,1.0833e+07,1e+06,-1.28595e-10,1.6896e-07,-9.86334e-08,-0.00202672,0.0368023,2.13477e-05,0.0378632,2,879
12,7.5327e-22,1,1185,179.529,-4.6227e-06,2.04237e-06,-4.74999e-08,5.05399e-06,88,-34.91,-168.19,1.0833e+07,1e+06,6.24577e-10,1.61596e-07,-9.51167e-08,-0.00176324,0.035085,-5.87118e-05,0.0360918,2,880
12,7.5327e-22,1,1186,179.529,-4.62153e-06,1.99367e-06,-4.56016e-08,5.03342e-06,88,-34.91,-168.19,1.0833e+07,1e+06,2.20269e-10,1.51444e-07,-9.10824e-08,-0.00197848,0.0325525,-0.000543826,0.0339081,2,881
12,6.53648e-22,1,1187,179.529,-4.62226e-06,1.95076e-06,-3.75087e-08,5.01718e-06,89.625,-34.9101,-168.19,8.24975e+06,875000,-2.18429e-08,1.50687e-07,-7.50402e-08,-0.00192356,0.0283768,-1.97567e-05,0.0299406,2,882
12,4.52236e-22,2,1188,29.09,-4.66521e-06,1.9082e-06,-2.88077e-08,5.04046e-06,93.25,38.11,-136.53,3.08325e+06,625000,-6.75627e-08,1.71321e-07,-5.77793e-08,-0.00111146,0.0214123,0.000693821,0.0222512,3,304
12,3.48279e-22,2,1189,29.09,-4.75738e-06,1.84509e-06,-2.66648e-08,5.10272e-06,95.625,38.11,-136.53,500000,500000,-9.4365e-08,1.84191e-07,-5.31199e-08,-0.000947277,0.0160747,0.000215869,0.016617,3,305
12,3.46112e-22,2,1190,29.09,-4.85394e-06,1.78946e-06,-2.5352e-08,5.17335e-06,96,38.11,-136.53,500000,500000,-9.36121e-08,1.76763e-07,-5.08879e-08,-0.00112872,0.0148545,-0.000239917,0.0159455,3,306
12,3.46112e-22,2,1191,29.09,-4.94461e-06,1.76647e-06,-2.50031e-08,5.25073e-06,96,38.11,-136.53,500000,500000,-9.35611e-08,1.77907e-07,-4.98472e-08,-0.000891187,0.0154577,-0.000145998,0.016715,3,307
12,4.29934e-22,2,1192,29.09,-5.04106e-06,1.76235e-06,-2.40603e-08,5.3403e-06,101.75,38.11,-136.53,3.08325e+06,625000,-8.93303e-08,1.88391e-07,-4.77462e-08,-0.000302182,0.0232159,0.000211112,0.0245916,3,308
12,5.97579e-22,1,1193,64.15,-5.12327e-06,1.80109e-06,-2.46376e-08,5.43069e-06,113.25,-139.18,-156.59,8.24975e+06,875000,-7.14211e-08,1.88463e-07,-4.94737e-08,-9.19946e-05,0.0331179,-0.000377772,0.0342692,2,883
12,6.81402e-22,1,1194,64.15,-5.18391e-06,1.88218e-06,-2.58583e-08,5.51508e-06,119,-139.18,-156.59,1.0833e+07,1e+06,-6.07159e-08,1.85035e-07,-5.18395e-08,-0.000102232,0.036513,-0.000482732,0.0368645,2,884
12,6.81402e-22,1,1195,64.15,-5.2447e-06,1.96458e-06,-2.53607e-08,5.60063e-06,119,-139.18,-156.59,1.0833e+07,1e+06,-6.18295e-08,1.87948e-07,-5.07545e-08,-5.50599e-05,0.037363,4.98773e-05,0.0374106,2,885
12,6.81402e-22,1,1196,64.15,-5.30756e-06,2.04343e-06,-2.58353e-08,5.6874e-06,119,-139.18,-156.59,1.0833e+07,1e+06,-6.37692e-08,1.92275e-07,-5.1677e-08,-0.000264007,0.038316,3.19871e-05,0.0384456,2,886
12,6.81402e-22,1,1197,64.15,-5.37224e-06,2.11709e-06,-2.63039e-08,5.7744e-06,119,-139.18,-156.59,1.0833e+07,1e+06,-6.54089e-08,1.96506e-07,-5.26066e-08,-0.000400667,0.0392891,1.93373e-05,0.0394929,2,887
12,6.81402e-22,1,1198,64.15,-5.43838e-06,2.18453e-06,-2.67527e-08,5.86079e-06,119,-139.18,-156.59,1.0833e+07,1e+06,-6.67784e-08,2.00441e-07,-5.35059e-08,-0.000483262,0.0402084,8.37602e-06,0.0404885,2,888
12,6.81402e-22,1,1199,64.15,-5.50579e-06,2.24558e-06,-2.71751e-08,5.94619e-06,119,-139.18,-156.59,1.0833e+07,1e+06,-6.79987e-08,2.04079e-07,-5.43497e-08,-0.000543351,0.0410566,4.30818e-07,0.0414211,2,889
12,6.81402e-22,1,1200,64.15,-5.57438e-06,2.30043e-06,-2.75704e-08,6.03046e-06,119,-139.18,-156.59,1.0833e+07,1e+06,-6.91644e-08,2.07509e-07,-5.51484e-08,-0.000599748,0.0418449,-5.1335e-06,0.0423015,2,890
12,6.81402e-22,1,1201,64.15,-5.64412e-06,2.34926e-06,-2.79571e-08,6.11359e-06,119,-139.18,-156.59,1.0833e+07,1e+06,-7.02961e-08,2.10763e-07,-5.58748e-08,-0.000663421,0.0426007,-5.07088e-06,0.0431589,2,891
12,6.81402e-22,1,1202,64.15,-5.71497e-06,2.39168e-06,-2.77282e-08,6.1953e-06,119,-139.18,-156.59,1.0833e+07,1e+06,-7.11777e-08,2.13841e-07,-5.56067e-08,-0.000636897,0.0435129,0.00027749,0.0440252,2,892
12,6.21537e-22,1,1203,64.15,-5.78648e-06,2.42448e-06,-2.91695e-08,6.27394e-06,118.812,-139.18,-156.59,8.89556e+06,906250,-7.28929e-08,2.1794e-07,-5.82752e-08,-0.000946484,0.0432099,-0.000470149,0.0444655,2,893
12,4.81853e-22,2,1204,145.75,-5.86076e-06,2.46098e-06,-2.90517e-08,6.35655e-06,118.375,-116.93,-175.81,4.37488e+06,687500,-7.82101e-08,2.27887e-07,-5.79005e-08,-0.000881001,0.0423836,-0.000638198,0.0437566,3,309
12,3.82078e-22,2,1205,145.75,-5.9429e-06,2.51648e-06,-2.65955e-08,6.45379e-06,118.062,-116.93,-175.81,1.14581e+06,531250,-8.62543e-08,2.38614e-07,-5.31976e-08,-0.0007148,0.0423921,0.000202604,0.0431294,3,310
12,3.62123e-22,2,1206,145.75,-6.03327e-06,2.58206e-06,-2.59682e-08,6.56262e-06,118,-116.93,-175.81,500000,500000,-9.34115e-08,2.44125e-07,-5.20387e-08,-0.00130719,0.042561,-7.7582e-06,0.0436382,3,311
12,3.82078e-22,2,1207,145.75,-6.12972e-06,2.65232e-06,-2.51457e-08,6.67899e-06,118.062,-116.93,-175.81,1.14581e+06,531250,-9.85492e-08,2.45855e-07,-5.04163e-08,-0.0020072,0.0428974,3.63821e-05,0.0443009,3,312
12,4.02033e-22,2,1208,145.75,-6.23037e-06,2.73889e-06,-2.42021e-08,6.80585e-06,118.125,-116.93,-175.81,1.79163e+06,562500,-1.01667e-07,2.47131e-07,-4.74739e-08,-0.00199167,0.043267,0.000534626,0.0443263,3,313
12,3.79598e-22,2,1209,145.75,-6.33306e-06,2.86244e-06,-2.46358e-08,6.94995e-06,118.5,-116.93,-175.81,1.14581e+06,531250,-9.56377e-08,2.35694e-07,-5.05688e-08,-0.0020552,0.0399187,-3.38634e-05,0.0414247,3,314
12,3.49722e-22,2,1210,145.75,-6.42164e-06,2.98031e-06,-4.08975e-08,7.07965e-06,120.188,-116.93,-175.81,500000,500000,-7.46455e-08,2.39607e-07,-8.33472e-08,-0.00208471,0.0374547,-0.0012553,0.0399813,3,315
12,3.34842e-22,2,1211,106.24,-6.48235e-06,3.01133e-06,-6.95861e-08,7.14799e-06,122.812,-1.3,-30.28,500000,500000,-5.52392e-08,2.83174e-07,-1.37281e-07,-0.000982658,0.0397096,-0.000833854,0.0413389,3,316
12,3.24921e-22,2,1212,106.24,-6.53212e-06,2.93976e-06,-8.1908e-08,7.16362e-06,124.562,-1.3,-30.28,500000,500000,-5.07291e-08,3.06767e-07,-1.63702e-07,-0.00054171,0.0389733,0.000165024,0.0393798,3,317
12,6.45258e-22,1,1213,73.27,-2.96334e-08,2.20628e-06,-2.19752e-08,2.20659e-06,8,-129.16,-171.71,1.0833e+07,1e+06,-5.9618e-08,1.4702e-07,-4.39839e-08,-0.00109482,0.0223427,0.000274573,0.0229073,2,894
12,6.45258e-22,1,1214,73.27,-8.96025e-08,2.22053e-06,-2.30523e-08,2.22246e-06,8,-129.16,-171.71,1.0833e+07,1e+06,-6.12421e-08,1.4974e-07,-4.60615e-08,-0.00115904,0.0225281,-0.000333655,0.0234405,2,895
12,6.45258e-22,1,1215,73.27,-1.52118e-07,2.21918e-06,-2.2961e-08,2.2245e-06,8,-129.16,-171.71,1.0833e+07,1e+06,-6.46403e-08,1.5556e-07,-4.5854e-08,-0.00131448,0.0236415,1.17991e-05,0.0247576,2,896
12,6.45756e-22,1,1216,73.27,-2.18883e-07,2.19911e-06,-2.32339e-08,2.2101e-06,8.1875,-129.16,-171.71,1.0833e+07,1e+06,-6.68761e-08,1.62969e-07,-4.65688e-08,-0.00153373,0.0261183,-3.59264e-05,0.0277746,2,897
12,6.47748e-22,1,1217,73.27,-2.8587e-07,2.16666e-06,-2.21117e-08,2.18555e-06,8.9375,-129.16,-171.71,1.0833e+07,1e+06,-6.23485e-08,1.65658e-07,-4.36585e-08,-0.00152832,0.0314155,-0.000318682,0.0334793,2,898
12,5.96196e-22,1,1218,126.08,-3.4358e-07,2.1358e-06,-1.81628e-08,2.16334e-06,12.3125,-20.36,125.34,8.89556e+06,906250,-6.17777e-08,1.69475e-07,-3.71993e-08,-0.00108732,0.0349102,0.000135725,0.0365359,2,899
12,4.70926e-22,2,1219,153.64,-4.09425e-07,2.14904e-06,-2.16328e-08,2.1878e-06,18.3125,-177.01,-156.76,4.37488e+06,687500,-7.87746e-08,2.00033e-07,-4.35425e-08,-0.000291774,0.0338922,0.00114466,0.0344648,3,318
12,3.80523e-22,2,1220,153.64,-5.01129e-07,2.23956e-06,-3.04829e-08,2.29514e-06,22.25,-177.01,-156.76,1.14581e+06,531250,-9.66255e-08,2.29089e-07,-6.02549e-08,-0.000589049,0.0305985,0.000517438,0.0312635,3,319
12,3.62343e-22,2,1221,153.64,-6.02676e-07,2.3565e-06,-3.30711e-08,2.43258e-06,23,-177.01,-156.76,500000,500000,-1.02288e-07,2.33653e-07,-6.57711e-08,-0.00136162,0.0288215,-4.14916e-05,0.029989,3,320
12,3.62343e-22,2,1222,153.64,-7.05705e-07,2.45873e-06,-3.08909e-08,2.55819e-06,23,-177.01,-156.76,500000,500000,-1.02159e-07,2.3521e-07,-6.20695e-08,-0.00113272,0.0298586,0.000944436,0.0307089,3,321
12,3.58136e-22,2,1223,153.64,-8.06995e-07,2.54865e-06,-3.25446e-08,2.67356e-06,23.5625,-177.01,-156.76,500000,500000,-8.82103e-08,2.24064e-07,-6.54979e-08,-0.00146982,0.0310269,-0.000148124,0.0330942,3,322
12,3.48321e-22,2,1224,84.77,-8.82126e-07,2.5933e-06,-3.65742e-08,2.73947e-06,24.875,-156.44,-54.66,500000,500000,-6.0235e-08,1.96731e-07,-7.27078e-08,-0.00277397,0.0305083,-0.00107085,0.0337047,3,323
12,3.41309e-22,2,1225,84.77,-9.27465e-07,2.59156e-06,-3.73787e-08,2.75278e-06,25.8125,-156.44,-54.66,500000,500000,-4.16919e-08,1.80864e-07,-7.55584e-08,-0.00332081,0.0295461,0.000365297,0.0317236,3,324
12,3.39907e-22,2,1226,84.77,-9.6551e-07,2.58705e-06,-4.01053e-08,2.76164e-06,26,-156.44,-54.66,500000,500000,-3.82475e-08,1.82869e-07,-8.00115e-08,-0.00333552,0.0296565,0.000686227,0.0313855,3,325
12,3.39907e-22,2,1227,84.77,-1.00396e-06,2.59367e-06,-4.27411e-08,2.78153e-06,26,-156.44,-54.66,500000,500000,-3.90297e-08,1.86023e-07,-8.46004e-08,-0.00358991,0.0295965,7.3896e-05,0.0316663,3,326
12,3.39907e-22,2,1228,84.77,-1.04357e-06,2.61124e-06,-4.14615e-08,2.81235e-06,26,-156.44,-54.66,500000,500000,-4.29631e-08,1.87881e-07,-8.29737e-08,-0.00391917,0.0296866,0.000125269,0.0318564,3,327
12,4.28901e-22,2,1229,84.77,-1.08989e-06,2.63605e-06,-3.54112e-08,2.8527e-06,28.5,-156.44,-54.66,3.08325e+06,625000,-5.85699e-08,1.94784e-07,-7.1449e-08,-0.0033855,0.0305389,0.000847052,0.0325187,3,328
12,6.0689e-22,1,1230,80.81,-1.16071e-06,2.64546e-06,-3.42187e-08,2.88909e-06,33.5,-129.97,-177.44,8.24975e+06,875000,-8.10994e-08,2.07258e-07,-6.84723e-08,-0.00293425,0.0293979,0.000453928,0.0312579,2,900
12,6.95884e-22,1,1231,80.81,-1.25208e-06,2.6399e-06,-3.73682e-08,2.92201e-06,36,-129.97,-177.44,1.0833e+07,1e+06,-9.22911e-08,2.16767e-07,-7.44856e-08,-0.00314188,0.0281088,-0.000186659,0.0299096,2,901
12,6.95884e-22,1,1232,80.81,-1.34529e-06,2.63844e-06,-3.80518e-08,2.96187e-06,36,-129.97,-177.44,1.0833e+07,1e+06,-9.32628e-08,2.22171e-07,-7.61494e-08,-0.00283148,0.0290052,-2.12648e-05,0.0306411,2,902
12,6.95884e-22,1,1233,80.81,-1.43861e-06,2.64081e-06,-3.91964e-08,3.0075e-06,36,-129.97,-177.44,1.0833e+07,1e+06,-9.33944e-08,2.26867e-07,-7.8379e-08,-0.00239751,0.0297389,-3.17296e-05,0.0312675,2,903
12,6.95884e-22,1,1234,80.81,-1.53208e-06,2.64583e-06,-4.03311e-08,3.05767e-06,36,-129.97,-177.44,1.0833e+07,1e+06,-9.37969e-08,2.32065e-07,-8.06665e-08,-0.00198595,0.0305607,-2.17478e-05,0.0319873,2,904
12,6.95884e-22,1,1235,80.81,-1.6262e-06,2.65091e-06,-4.15433e-08,3.11024e-06,36,-129.97,-177.44,1.0833e+07,1e+06,-9.46204e-08,2.37984e-07,-8.31043e-08,-0.00160768,0.0314937,-1.56461e-05,0.0327607,2,905
12,6.95884e-22,1,1236,80.81,-1.72132e-06,2.65211e-06,-4.29302e-08,3.16203e-06,36,-129.97,-177.44,1.0833e+07,1e+06,-9.57862e-08,2.44758e-07,-8.58114e-08,-0.00123624,0.0325739,-2.93324e-05,0.0335693,2,906
12,6.95884e-22,1,1237,80.81,-1.81778e-06,2.64411e-06,-4.3578e-08,3.20898e-06,36,-129.97,-177.44,1.0833e+07,1e+06,-9.77528e-08,2.52752e-07,-8.7462e-08,-0.000862907,0.0339893,0.000351423,0.0344757,2,907
12,6.18114e-22,1,1238,80.81,-1.91683e-06,2.61618e-06,-4.87376e-08,3.24361e-06,37.125,-129.97,-177.44,8.24975e+06,875000,-1.04558e-07,2.6525e-07,-9.81852e-08,-0.0015512,0.0323352,-0.000642888,0.0339339,2,908
12,4.62635e-22,2,1239,150.54,-2.02689e-06,2.60957e-06,-6.28424e-08,3.30486e-06,39.5,178.09,96.28,3.08325e+06,625000,-1.18658e-07,3.04202e-07,-1.24402e-07,-0.00089897,0.0284775,-0.00074359,0.0303498,3,329
12,3.84985e-22,2,1240,150.54,-2.15414e-06,2.70372e-06,-7.05645e-08,3.45766e-06,40.875,178.09,96.28,500000,500000,-1.2964e-07,3.28402e-07,-1.41091e-07,0.00036475,0.0237135,2.81415e-05,0.0250015,3,330
12,4.12679e-22,2,1241,150.54,-2.28617e-06,2.86461e-06,-6.89201e-08,3.6657e-06,41.875,178.09,96.28,1.14581e+06,531250,-1.25278e-07,3.14717e-07,-1.38934e-07,5.26316e-05,0.0220568,-0.000899362,0.0242406,3,331
12,5.50844e-22,2,1242,150.54,-2.4047e-06,2.98451e-06,-6.08512e-08,3.83322e-06,46.25,178.09,96.28,4.37488e+06,687500,-1.04019e-07,2.92383e-07,-1.20291e-07,0.00048047,0.0319207,-0.00162513,0.0342514,3,332
12,7.44276e-22,1,1243,130.6,-2.49421e-06,3.03789e-06,-4.44071e-08,3.93088e-06,52.375,117.2,-48.36,8.89556e+06,906250,-7.87685e-08,2.59884e-07,-8.81222e-08,0.00187609,0.043666,-0.000439108,0.0437899,2,909
12,7.78084e-22,1,1244,130.6,-2.56224e-06,3.06995e-06,-3.4855e-08,3.99886e-06,56.875,117.2,-48.36,1.0833e+07,1e+06,-7.00804e-08,2.43646e-07,-7.1728e-08,0.00241443,0.0466117,0.00145445,0.0456791,2,910
12,6.63537e-22,1,1245,80.41,-2.63437e-06,3.08929e-06,-4.09924e-08,4.06021e-06,61.25,-123.18,-170.23,1.0833e+07,1e+06,-7.6828e-08,2.50071e-07,-8.17582e-08,0.00192373,0.042879,0.000546096,0.0431825,2,911
12,5.81718e-22,1,1246,80.41,-2.71589e-06,3.07751e-06,-4.5636e-08,4.10478e-06,64.375,-123.18,-170.23,1.0833e+07,1e+06,-8.20151e-08,2.50199e-07,-9.02176e-08,0.00161697,0.0377808,-0.000750302,0.0380985,2,912
12,5.65354e-22,1,1247,80.41,-2.7984e-06,3.05237e-06,-4.26169e-08,4.14124e-06,65,-123.18,-170.23,1.0833e+07,1e+06,-8.07448e-08,2.4045e-07,-8.6027e-08,0.00158826,0.0353025,-0.000368624,0.0350852,2,913
12,5.65354e-22,1,1248,80.41,-2.87738e-06,3.02956e-06,-4.1037e-08,4.17843e-06,65,-123.18,-170.23,1.0833e+07,1e+06,-7.72764e-08,2.31533e-07,-8.18822e-08,0.0017701,0.0341496,-4.38642e-05,0.0335988,2,914
12,5.65354e-22,1,1249,80.41,-2.95295e-06,3.00783e-06,-3.98438e-08,4.21528e-06,65,-123.18,-170.23,1.0833e+07,1e+06,-7.495e-08,2.2436e-07,-7.96529e-08,0.00170494,0.0329547,-8.12751e-05,0.0323639,2,915
12,5.65354e-22,1,1250,80.41,-3.02728e-06,2.98848e-06,-3.91668e-08,4.25405e-06,65,-123.18,-170.23,1.0833e+07,1e+06,-7.50398e-08,2.21439e-07,-7.83426e-08,0.00144822,0.032322,-3.47644e-05,0.0317471,2,916
12,5.65354e-22,1,1251,80.41,-3.10303e-06,2.97256e-06,-3.90634e-08,4.29726e-06,65,-123.18,-170.23,1.0833e+07,1e+06,-7.71955e-08,2.22498e-07,-7.81533e-08,0.00103297,0.0322441,8.73201e-06,0.0317964,2,917
12,5.65354e-22,1,1252,80.41,-3.18167e-06,2.95899e-06,-3.93004e-08,4.34514e-06,65,-123.18,-170.23,1.0833e+07,1e+06,-8.01339e-08,2.25516e-07,-7.86139e-08,0.000585283,0.0324902,2.11391e-05,0.0322378,2,918
12,5.65354e-22,1,1253,80.41,-3.2633e-06,2.94519e-06,-3.96375e-08,4.396e-06,65,-123.18,-170.23,1.0833e+07,1e+06,-8.2924e-08,2.28865e-07,-7.92783e-08,0.000193562,0.0328446,6.23314e-06,0.0328008,2,919
12,5.65354e-22,1,1254,80.41,-3.34752e-06,2.92848e-06,-3.99461e-08,4.44786e-06,65,-123.18,-170.23,1.0833e+07,1e+06,-8.5421e-08,2.31943e-07,-7.98886e-08,-0.000152303,0.033199,-1.66983e-05,0.0333611,2,920
12,5.65354e-22,1,1255,80.41,-3.43414e-06,2.90677e-06,-4.01814e-08,4.49936e-06,65,-123.18,-170.23,1.0833e+07,1e+06,-8.79661e-08,2.34813e-07,-8.0357e-08,-0.000527069,0.0335234,-3.75954e-05,0.0339168,2,921
12,5.65354e-22,1,1256,80.41,-3.52345e-06,2.8784e-06,-4.03209e-08,4.54989e-06,65,-123.18,-170.23,1.0833e+07,1e+06,-9.09788e-08,2.37702e-07,-8.06345e-08,-0.00101295,0.0338248,-5.1702e-05,0.0345208,2,922
12,5.65354e-22,1,1257,80.41,-3.6161e-06,2.84174e-06,-4.03071e-08,4.59927e-06,65,-123.18,-170.23,1.0833e+07,1e+06,-9.4703e-08,2.40589e-07,-8.05858e-08,-0.00167412,0.0340962,-5.28266e-05,0.035219,2,923
12,5.65354e-22,1,1258,80.41,-3.71286e-06,2.79469e-06,-3.99582e-08,4.64728e-06,65,-123.18,-170.23,1.0833e+07,1e+06,-9.89734e-08,2.42947e-07,-7.99362e-08,-0.00251802,0.0342976,-3.6603e-05,0.0360252,2,924
12,5.65354e-22,1,1259,80.41,-3.81405e-06,2.734e-06,-3.91219e-08,4.6929e-06,65,-123.18,-170.23,1.0833e+07,1e+06,-1.02386e-07,2.43233e-07,-7.77826e-08,-0.00332135,0.0344003,0.000181716,0.036802,2,925
12,5.65354e-22,1,1260,80.41,-3.91763e-06,2.65501e-06,-3.63291e-08,4.73268e-06,65,-123.18,-170.23,1.0833e+07,1e+06,-1.02469e-07,2.36514e-07,-7.2342e-08,-0.00390814,0.0337751,0.000718831,0.0368355,2,926
12,5.56003e-22,1,1261,80.41,-4.01899e-06,2.55313e-06,-3.29324e-08,4.76149e-06,65.8125,-123.18,-170.23,1.01872e+07,968750,-1.02488e-07,2.23885e-07,-6.69242e-08,-0.004829,0.0308955,0.000668459,0.0353191,2,927
12,5.18598e-22,1,1262,80.41,-4.12261e-06,2.43936e-06,-3.40308e-08,4.79036e-06,69.0625,-123.18,-170.23,7.60394e+06,843750,-1.11643e-07,2.20225e-07,-6.80333e-08,-0.00614293,0.0252483,-4.5228e-05,0.0314222,2,928
12,4.27383e-22,2,1263,31.67,-4.24227e-06,2.33507e-06,-3.42382e-08,4.84258e-06,72.625,13.09,-96.26,3.72906e+06,656250,-1.1514e-07,2.13683e-07,-6.74648e-08,-0.00753138,0.0216126,-0.000649618,0.0287764,3,333
12,3.1976e-22,2,1264,78.48,-4.35289e-06,2.22672e-06,-2.84271e-08,4.88945e-06,73.25,28.28,127.2,1.14581e+06,531250,-9.66053e-08,1.92173e-07,-5.72407e-08,-0.00699585,0.0230171,-5.74328e-05,0.0287352,3,334
12,2.63597e-22,2,1265,78.48,-4.43548e-06,2.13669e-06,-2.41914e-08,4.92337e-06,72.3125,28.28,127.2,500000,500000,-7.23557e-08,1.748e-07,-4.85778e-08,-0.00494151,0.0264472,0.00101069,0.0297812,3,335
12,2.4019e-22,2,1266,78.48,-4.4976e-06,2.07527e-06,-2.21603e-08,4.95334e-06,71.4375,28.28,127.2,500000,500000,-5.57849e-08,1.61483e-07,-4.49947e-08,-0.00399883,0.0281857,0.00118723,0.0305309,3,336
12,2.28487e-22,2,1267,78.48,-4.54705e-06,2.02358e-06,-2.24296e-08,4.97705e-06,71,28.28,127.2,500000,500000,-4.89066e-08,1.58298e-07,-4.57748e-08,-0.00355011,0.0289834,0.0011585,0.0307498,3,337
12,3.26884e-22,2,1268,78.48,-4.59541e-06,1.99771e-06,-2.83361e-08,5.01093e-06,74.1875,28.28,127.2,2.43744e+06,593750,-3.91212e-08,1.57338e-07,-5.57209e-08,-0.0031963,0.0298404,0.000558498,0.0315332,3,338
12,5.56476e-22,1,1269,179.529,-4.62529e-06,1.99635e-06,-3.65632e-08,5.03787e-06,81.625,-34.9099,-168.19,6.95812e+06,812500,-1.83812e-08,1.50045e-07,-7.24505e-08,-0.00281362,0.0308443,-0.000130265,0.0325616,2,929
12,7.20471e-22,1,1270,179.529,-4.63217e-06,2.01943e-06,-4.33026e-08,5.05342e-06,86.9375,-34.91,-168.19,1.01872e+07,968750,-3.45107e-09,1.52414e-07,-8.68217e-08,-0.00229389,0.0329995,-0.000155506,0.0343852,2,930
12,7.5327e-22,1,1271,179.529,-4.6322e-06,2.0565e-06,-4.68698e-08,5.0684e-06,88,-34.91,-168.19,1.0833e+07,1e+06,7.74939e-10,1.5896e-07,-9.37388e-08,-0.00194233,0.0347322,-7.59259e-05,0.0358888,2,931
12,7.5327e-22,1,1272,179.529,-4.63062e-06,2.09617e-06,-4.86423e-08,5.08321e-06,88,-34.91,-168.19,1.0833e+07,1e+06,2.03747e-09,1.63999e-07,-9.72951e-08,-0.00173916,0.0358604,-4.64088e-05,0.0369354,2,932
12,7.5327e-22,1,1273,179.529,-4.62812e-06,2.13932e-06,-5.02818e-08,5.0989e-06,88,-34.91,-168.19,1.0833e+07,1e+06,2.75616e-09,1.68973e-07,-1.00574e-07,-0.00166414,0.0369707,-3.49695e-05,0.0380478,2,933
12,7.5327e-22,1,1274,179.529,-4.62511e-06,2.18488e-06,-5.2048e-08,5.11547e-06,88,-34.91,-168.19,1.0833e+07,1e+06,3.03252e-09,1.74726e-07,-1.04086e-07,-0.00169319,0.0382442,-3.19904e-05,0.0393715,2,934
12,7.5327e-22,1,1275,179.529,-4.62206e-06,2.23033e-06,-5.38383e-08,5.13232e-06,88,-34.91,-168.19,1.0833e+07,1e+06,2.85605e-09,1.81176e-07,-1.07673e-07,-0.0018058,0.03967,-1.32353e-05,0.0408539,2,935
12,7.5327e-22,1,1276,179.529,-4.6194e-06,2.27138e-06,-5.53868e-08,5.14792e-06,88,-34.91,-168.19,1.0833e+07,1e+06,2.36807e-09,1.87134e-07,-1.10777e-07,-0.0019599,0.0409754,8.33103e-06,0.0421993,2,936
12,7.5327e-22,1,1277,179.529,-4.61732e-06,2.30379e-06,-5.64065e-08,5.16046e-06,88,-34.91,-168.19,1.0833e+07,1e+06,1.8176e-09,1.91253e-07,-1.12818e-07,-0.0020963,0.0418586,1.88776e-05,0.0430959,2,937
12,7.5327e-22,1,1278,179.529,-4.61576e-06,2.32524e-06,-5.6773e-08,5.16868e-06,88,-34.91,-168.19,1.0833e+07,1e+06,1.38087e-09,1.92925e-07,-1.13548e-07,-0.00217891,0.0421932,1.70629e-05,0.0434215,2,938
12,7.5327e-22,1,1279,179.529,-4.61456e-06,2.33582e-06,-5.65502e-08,5.17237e-06,88,-34.91,-168.19,1.0833e+07,1e+06,1.104e-09,1.9238e-07,-1.131e-07,-0.00220532,0.0420417,9.55453e-06,0.0432476,2,939
12,7.5327e-22,1,1280,179.529,-4.61356e-06,2.33732e-06,-5.58989e-08,5.17215e-06,88,-34.91,-168.19,1.0833e+07,1e+06,9.32249e-10,1.90254e-07,-1.11797e-07,-0.00219757,0.0415505,5.06104e-07,0.0427322,2,940
12,7.5327e-22,1,1281,179.529,-4.61269e-06,2.332e-06,-5.49934e-08,5.16897e-06,88,-34.91,-168.19,1.0833e+07,1e+06,7.55078e-10,1.87258e-07,-1.09983e-07,-0.00218787,0.0408761,-9.2518e-06,0.0420439,2,941
12,7.5327e-22,1,1282,179.529,-4.61205e-06,2.32154e-06,-5.39707e-08,5.16366e-06,88,-34.91,-168.19,1.0833e+07,1e+06,4.40624e-10,1.84017e-07,-1.07934e-07,-0.00220575,0.0401545,-1.59461e-05,0.0413265,2,942
12,7.5327e-22,1,1283,179.529,-4.61181e-06,2.30597e-06,-5.28584e-08,5.15646e-06,88,-34.91,-168.19,1.0833e+07,1e+06,-1.16313e-10,1.80793e-07,-1.05707e-07,-0.00226496,0.0394398,-1.22581e-05,0.0406347,2,943
12,7.5327e-22,1,1284,179.529,-4.61228e-06,2.28327e-06,-5.15241e-08,5.14676e-06,88,-34.91,-168.19,1.0833e+07,1e+06,-9.17334e-10,1.7712e-07,-1.03031e-07,-0.00235309,0.0386226,1.27947e-06,0.0398565,2,944
12,7.5327e-22,1,1285,179.529,-4.61365e-06,2.25035e-06,-4.97965e-08,5.13345e-06,88,-34.91,-168.19,1.0833e+07,1e+06,-1.94779e-09,1.71864e-07,-9.95518e-08,-0.00249339,0.0374165,-4.37263e-05,0.0387608,2,945
12,7.5327e-22,1,1286,179.529,-4.61617e-06,2.20578e-06,-4.75884e-08,5.11633e-06,88,-34.91,-168.19,1.0833e+07,1e+06,-3.74462e-09,1.64752e-07,-9.55067e-08,-0.0028962,0.0356734,-0.000308842,0.0374015,2,946
12,7.2999e-22,1,1287,179.529,-4.62114e-06,2.14688e-06,-4.35204e-08,5.09567e-06,88.125,-34.91,-168.19,1.01872e+07,968750,-9.39675e-09,1.56054e-07,-8.6733e-08,-0.00334592,0.0333006,-0.000512341,0.0355256,2,947
12,6.11423e-22,1,1288,179.53,-4.63497e-06,2.09569e-06,-3.26137e-08,5.08684e-06,89.125,-34.9101,-168.19,6.95812e+06,812500,-2.86469e-08,1.46047e-07,-6.48772e-08,-0.00312139,0.0281744,-0.000106305,0.0305239,2,948
12,4.39794e-22,2,1289,76.16,-4.67843e-06,2.06658e-06,-2.25321e-08,5.11458e-06,91.5,-144.72,-126.88,2.43744e+06,593750,-6.17953e-08,1.47325e-07,-4.55433e-08,-0.00289587,0.0205055,0.000128572,0.0225976,3,339
12,3.56949e-22,2,1290,29.09,-4.75856e-06,2.02034e-06,-1.95969e-08,5.16972e-06,94.125,38.11,-136.53,500000,500000,-8.97757e-08,1.59699e-07,-3.91238e-08,-0.00285356,0.0154638,0.000264095,0.0171597,3,340
12,3.48279e-22,2,1291,29.09,-4.85798e-06,1.96104e-06,-1.8588e-08,5.2389e-06,95.625,38.11,-136.53,500000,500000,-1.0176e-07,1.65847e-07,-3.73381e-08,-0.00273902,0.0137771,0.000143147,0.0156831,3,341
12,3.67068e-22,2,1292,29.09,-4.96208e-06,1.94119e-06,-1.83986e-08,5.3283e-06,97.4375,38.11,-136.53,1.14581e+06,531250,-1.01746e-07,1.67506e-07,-3.6801e-08,-0.00276126,0.0149006,9.6267e-05,0.017219,3,342
12,4.71846e-22,2,1293,29.09,-5.06147e-06,1.95241e-06,-1.97112e-08,5.42502e-06,104.625,38.11,-136.53,4.37488e+06,687500,-8.88853e-08,1.7893e-07,-3.92442e-08,-0.00161859,0.0241674,0.000653051,0.0260228,3,343
12,6.18535e-22,1,1294,64.15,-5.13985e-06,1.99156e-06,-2.37785e-08,5.51225e-06,114.688,-139.18,-156.59,8.89556e+06,906250,-7.02542e-08,1.86938e-07,-4.7567e-08,-0.000568411,0.0340143,1.28731e-05,0.0350901,2,949
12,6.81402e-22,1,1295,64.15,-5.20198e-06,2.0679e-06,-2.58339e-08,5.59799e-06,119,-139.18,-156.59,1.0833e+07,1e+06,-6.31974e-08,1.87412e-07,-5.15863e-08,-0.000564346,0.0369099,-0.000343714,0.0374215,2,950
12,6.81402e-22,1,1296,64.15,-5.26624e-06,2.15438e-06,-2.56088e-08,5.68993e-06,119,-139.18,-156.59,1.0833e+07,1e+06,-6.52901e-08,1.92244e-07,-5.13162e-08,-0.000626415,0.0380356,8.41323e-05,0.0383642,2,951
12,6.81402e-22,1,1297,64.15,-5.33256e-06,2.23777e-06,-2.62397e-08,5.78312e-06,119,-139.18,-156.59,1.0833e+07,1e+06,-6.67254e-08,1.96551e-07,-5.24576e-08,-0.000708785,0.0390313,2.84861e-05,0.0393927,2,952
12,6.81402e-22,1,1298,64.15,-5.39969e-06,2.31546e-06,-2.67306e-08,5.87527e-06,119,-139.18,-156.59,1.0833e+07,1e+06,-6.73621e-08,2.00263e-07,-5.34627e-08,-0.000613937,0.0399822,9.0059e-06,0.0403023,2,953
12,6.81402e-22,1,1299,64.15,-5.46729e-06,2.38652e-06,-2.717e-08,5.96552e-06,119,-139.18,-156.59,1.0833e+07,1e+06,-6.77404e-08,2.03474e-07,-5.43406e-08,-0.000483033,0.040829,3.26179e-07,0.0411173,2,954
12,6.81402e-22,1,1300,64.15,-5.53517e-06,2.45086e-06,-2.75725e-08,6.05356e-06,119,-139.18,-156.59,1.0833e+07,1e+06,-6.80252e-08,2.06338e-07,-5.5145e-08,-0.000348695,0.0415822,-7.51091e-06,0.0418569,2,955
12,6.81402e-22,1,1301,64.15,-5.60334e-06,2.50881e-06,-2.79585e-08,6.13941e-06,119,-139.18,-156.59,1.0833e+07,1e+06,-6.83307e-08,2.09102e-07,-5.5919e-08,-0.000219988,0.0422914,-1.01874e-05,0.0425618,2,956
12,6.81402e-22,1,1302,64.15,-5.67184e-06,2.56066e-06,-2.83574e-08,6.22314e-06,119,-139.18,-156.59,1.0833e+07,1e+06,-6.87339e-08,2.11964e-07,-5.67001e-08,-0.000112901,0.0430184,-1.29739e-05,0.0433038,2,957
12,6.81402e-22,1,1303,64.15,-5.74081e-06,2.60613e-06,-2.81271e-08,6.30472e-06,119,-139.18,-156.59,1.0833e+07,1e+06,-6.92348e-08,2.15388e-07,-5.63663e-08,8.80656e-05,0.0440516,0.000367365,0.0441319,2,958
12,6.01582e-22,1,1304,64.15,-5.81031e-06,2.64509e-06,-3.01974e-08,6.38413e-06,118.75,-139.18,-156.59,8.24975e+06,875000,-7.18733e-08,2.21661e-07,-6.01357e-08,-0.000279476,0.0437028,-0.000593736,0.0446435,2,959
12,4.41943e-22,2,1305,145.75,-5.88455e-06,2.69305e-06,-2.89051e-08,6.47158e-06,118.25,-116.93,-175.81,3.08325e+06,625000,-7.85734e-08,2.31765e-07,-5.78711e-08,-0.000332719,0.0424431,-0.000493069,0.0434078,3,344
12,3.62123e-22,2,1306,145.75,-5.96745e-06,2.75648e-06,-2.59473e-08,6.57338e-06,118,-116.93,-175.81,500000,500000,-8.53593e-08,2.38992e-07,-5.21368e-08,-0.000251324,0.0421652,0.000511322,0.0424651,3,345
12,3.62123e-22,2,1307,145.75,-6.05527e-06,2.82483e-06,-2.64918e-08,6.68182e-06,118,-116.93,-175.81,500000,500000,-8.93301e-08,2.4173e-07,-5.28018e-08,-0.000679003,0.0422689,4.23425e-05,0.0429563,3,346
12,3.62123e-22,2,1308,145.75,-6.14611e-06,2.89891e-06,-2.54807e-08,6.79552e-06,118,-116.93,-175.81,500000,500000,-9.37436e-08,2.44465e-07,-5.08136e-08,-0.000794466,0.0424475,0.000108338,0.0430654,3,347
12,3.62123e-22,2,1309,145.75,-6.24276e-06,2.98827e-06,-2.35062e-08,6.92115e-06,118,-116.93,-175.81,500000,500000,-9.77872e-08,2.44511e-07,-4.65752e-08,-0.000713849,0.042103,0.00047298,0.0423642,3,348
12,3.62123e-22,2,1310,145.75,-6.34169e-06,3.0968e-06,-2.04565e-08,7.05745e-06,118,-116.93,-175.81,500000,500000,-9.65437e-08,2.31555e-07,-4.02193e-08,-0.000748402,0.0394809,0.000890744,0.0394875,3,349
12,3.59643e-22,2,1311,145.75,-6.43585e-06,3.20606e-06,-2.37286e-08,7.19024e-06,118.438,-116.93,-175.81,500000,500000,-8.68329e-08,2.24365e-07,-4.95157e-08,-0.00111106,0.0376767,0.000225074,0.03848,3,350
12,3.80014e-22,2,1312,145.75,-6.51535e-06,3.27607e-06,-4.41274e-08,7.29276e-06,120.562,-116.93,-175.81,1.14581e+06,531250,-6.78391e-08,2.43753e-07,-8.93792e-08,-0.00133309,0.0389718,-0.00121675,0.0409964,3,351
12,4.28196e-22,2,1313,106.24,-6.57152e-06,3.23639e-06,-6.24343e-08,7.32551e-06,123.5,-1.3,-30.28,2.43744e+06,593750,-5.00743e-08,2.62254e-07,-1.23001e-07,-0.000985243,0.0398382,-0.000973291,0.0416173,3,352
12,6.45258e-22,1,1314,73.27,-2.67547e-08,2.35327e-06,-2.29589e-08,2.35354e-06,8,-129.16,-171.71,1.0833e+07,1e+06,-5.38257e-08,1.47978e-07,-4.59276e-08,0.000564438,0.0230879,0.000252557,0.0227814,2,960
12,6.45258e-22,1,1315,73.27,-8.08966e-08,2.37093e-06,-2.40994e-08,2.37243e-06,8,-129.16,-171.71,1.0833e+07,1e+06,-5.5146e-08,1.51511e-07,-4.82279e-08,0.000656142,0.0235025,-0.000297095,0.0234735,2,961
12,6.45258e-22,1,1316,73.27,-1.37047e-07,2.37614e-06,-2.4485e-08,2.38021e-06,8,-129.16,-171.71,1.0833e+07,1e+06,-5.82072e-08,1.58647e-07,-4.91181e-08,0.000701917,0.0248239,-8.55253e-05,0.0248525,2,962
12,6.45258e-22,1,1317,73.27,-1.97311e-07,2.36857e-06,-2.62886e-08,2.37692e-06,8,-129.16,-171.71,1.0833e+07,1e+06,-6.39944e-08,1.71794e-07,-5.27667e-08,0.000547306,0.0269138,-0.000181319,0.0273772,2,963
12,6.45756e-22,1,1318,73.27,-2.65036e-07,2.34794e-06,-2.9094e-08,2.36303e-06,8.1875,-129.16,-171.71,1.0833e+07,1e+06,-7.11879e-08,1.8975e-07,-5.80485e-08,-0.000121125,0.0308953,-0.000777923,0.0323109,2,964
12,5.75526e-22,1,1319,73.27,-3.39687e-07,2.32958e-06,-2.9579e-08,2.3544e-06,12.125,-129.16,-171.71,8.24975e+06,875000,-8.16196e-08,2.10416e-07,-5.92611e-08,-0.000239165,0.0340099,-0.000528708,0.0354568,2,965
12,4.3357e-22,2,1320,153.64,-4.28275e-07,2.37245e-06,-3.19266e-08,2.41101e-06,19.4375,-177.01,-156.76,3.08325e+06,625000,-9.54746e-08,2.32322e-07,-6.33793e-08,-0.000176563,0.0324126,0.000182497,0.0331362,3,353
12,3.62343e-22,2,1321,153.64,-5.30636e-07,2.47805e-06,-3.40999e-08,2.53445e-06,23,-177.01,-156.76,500000,500000,-1.03405e-07,2.39443e-07,-6.73089e-08,-0.000869541,0.0295832,1.51926e-05,0.0303641,3,354
12,3.62343e-22,2,1322,153.64,-6.35086e-07,2.59156e-06,-3.11849e-08,2.66843e-06,23,-177.01,-156.76,500000,500000,-1.04431e-07,2.37331e-07,-6.29999e-08,-0.000931491,0.029593,0.000556936,0.0301825,3,355
12,3.60941e-22,2,1323,153.64,-7.39498e-07,2.69546e-06,-3.05212e-08,2.79522e-06,23.1875,-177.01,-156.76,500000,500000,-9.89572e-08,2.32613e-07,-6.1558e-08,-0.000999345,0.0305305,0.000605811,0.0315886,3,356
12,3.5393e-22,2,1324,153.64,-8.33e-07,2.76607e-06,-3.31711e-08,2.88897e-06,24.125,-177.01,-156.76,500000,500000,-7.7394e-08,2.08105e-07,-6.61365e-08,-0.00215564,0.0301619,-0.00101403,0.0330299,3,357
12,3.44114e-22,2,1325,84.77,-8.94286e-07,2.78003e-06,-3.58958e-08,2.92054e-06,25.4375,-156.44,-54.66,500000,500000,-4.96468e-08,1.84184e-07,-7.23512e-08,-0.00309236,0.0294872,-0.000401158,0.0321574,3,358
12,3.39907e-22,2,1326,84.77,-9.32294e-07,2.77032e-06,-3.97819e-08,2.92326e-06,26,-156.44,-54.66,500000,500000,-3.68489e-08,1.80945e-07,-7.93914e-08,-0.00320849,0.0294302,0.000824952,0.0310528,3,359
12,3.39907e-22,2,1327,84.77,-9.67984e-07,2.77096e-06,-4.30184e-08,2.93549e-06,26,-156.44,-54.66,500000,500000,-3.54716e-08,1.84071e-07,-8.55335e-08,-0.00328192,0.0294391,0.000204363,0.031324,3,360
12,3.39907e-22,2,1328,84.77,-1.00324e-06,2.77977e-06,-4.38132e-08,2.95559e-06,26,-156.44,-54.66,500000,500000,-3.5478e-08,1.85437e-07,-8.79004e-08,-0.00332129,0.0293737,-0.000112016,0.0313625,3,361
12,3.39907e-22,2,1329,84.77,-1.03894e-06,2.79853e-06,-4.3197e-08,2.98547e-06,26,-156.44,-54.66,500000,500000,-3.8941e-08,1.86379e-07,-8.59965e-08,-0.00362627,0.0293515,-4.26244e-05,0.0314517,3,362
12,4.28901e-22,2,1330,84.77,-1.08112e-06,2.82883e-06,-3.65607e-08,3.0286e-06,28.5,-156.44,-54.66,3.08325e+06,625000,-5.46788e-08,1.91048e-07,-7.31837e-08,-0.00316719,0.0298594,0.000627245,0.0318563,3,363
12,6.0689e-22,1,1331,80.81,-1.1483e-06,2.84938e-06,-3.33681e-08,3.07224e-06,33.5,-129.97,-177.44,8.24975e+06,875000,-7.71556e-08,2.01517e-07,-6.72215e-08,-0.0025005,0.0287231,0.000476864,0.0302958,2,966
12,6.95884e-22,1,1332,80.81,-1.23543e-06,2.85279e-06,-3.60265e-08,3.10902e-06,36,-129.97,-177.44,1.0833e+07,1e+06,-8.76084e-08,2.09379e-07,-7.18853e-08,-0.00256592,0.0273643,-7.02515e-05,0.0287154,2,967
12,6.95884e-22,1,1333,80.81,-1.32351e-06,2.85647e-06,-3.67948e-08,3.1484e-06,36,-129.97,-177.44,1.0833e+07,1e+06,-8.8254e-08,2.13716e-07,-7.35041e-08,-0.00230594,0.0280764,-1.50992e-05,0.0293684,2,968
12,6.95884e-22,1,1334,80.81,-1.41194e-06,2.86399e-06,-3.80776e-08,3.19334e-06,36,-129.97,-177.44,1.0833e+07,1e+06,-8.88159e-08,2.19776e-07,-7.61895e-08,-0.00185478,0.0290158,-1.13288e-05,0.0301668,2,969
12,6.95884e-22,1,1335,80.81,-1.50115e-06,2.87522e-06,-3.9637e-08,3.24375e-06,36,-129.97,-177.44,1.0833e+07,1e+06,-8.97092e-08,2.2706e-07,-7.9282e-08,-0.0013629,0.0301497,-2.14597e-06,0.0311419,2,970
12,6.95884e-22,1,1336,80.81,-1.59136e-06,2.88764e-06,-4.14494e-08,3.29736e-06,36,-129.97,-177.44,1.0833e+07,1e+06,-9.09937e-08,2.35828e-07,-8.29055e-08,-0.00082163,0.0315271,-7.58685e-06,0.0322771,2,971
12,6.95884e-22,1,1337,80.81,-1.68313e-06,2.89767e-06,-4.36056e-08,3.35132e-06,36,-129.97,-177.44,1.0833e+07,1e+06,-9.32076e-08,2.46796e-07,-8.73088e-08,-0.000310099,0.0332173,-5.27882e-05,0.0336577,2,972
12,6.95884e-22,1,1338,80.81,-1.77777e-06,2.90116e-06,-4.59644e-08,3.40284e-06,36,-129.97,-177.44,1.0833e+07,1e+06,-9.78366e-08,2.61627e-07,-9.19816e-08,1.81332e-05,0.0354257,0.000151558,0.035454,2,973
12,6.18175e-22,1,1339,80.81,-1.87881e-06,2.8969e-06,-5.19514e-08,3.45321e-06,37.25,-129.97,-177.44,8.24975e+06,875000,-1.1344e-07,2.86211e-07,-1.03831e-07,-0.000395158,0.0336998,4.69598e-05,0.0343048,2,974
12,4.62755e-22,2,1340,150.54,-2.00465e-06,2.93307e-06,-6.36779e-08,3.55325e-06,39.75,178.09,96.28,3.08325e+06,625000,-1.35385e-07,3.20049e-07,-1.26955e-07,-0.000796771,0.0265554,-1.86322e-05,0.0275444,3,364
12,3.85046e-22,2,1341,150.54,-2.14958e-06,3.03487e-06,-6.81255e-08,3.71965e-06,41,178.09,96.28,500000,500000,-1.37163e-07,3.22699e-07,-1.35874e-07,-0.000597208,0.0210877,0.000268111,0.0219742,3,365
12,4.67945e-22,2,1342,150.54,-2.27898e-06,3.16261e-06,-6.01504e-08,3.89865e-06,43.625,178.09,96.28,2.43744e+06,593750,-1.11843e-07,2.84369e-07,-1.206e-07,-0.000363488,0.0239831,-0.000953302,0.0264321,3,366
12,6.61377e-22,1,1343,130.6,-2.37326e-06,3.25731e-06,-4.63388e-08,4.03046e-06,49.75,117.2,-48.36,6.95813e+06,812500,-8.27802e-08,2.53209e-07,-9.35648e-08,0.00102532,0.035949,-0.000684738,0.0373722,2,975
12,7.99542e-22,1,1344,130.6,-2.44454e-06,3.29123e-06,-3.69857e-08,4.09992e-06,54.125,117.2,-48.36,1.01872e+07,968750,-7.00636e-08,2.43036e-07,-7.4402e-08,0.00225704,0.045317,0.000734579,0.0442179,2,976
12,8.10811e-22,1,1345,130.6,-2.51339e-06,3.31261e-06,-3.79342e-08,4.15836e-06,55.625,117.2,-48.36,1.0833e+07,1e+06,-6.84512e-08,2.39226e-07,-7.45542e-08,0.00192599,0.045924,-0.000153947,0.0455121,2,977
12,7.28992e-22,1,1346,130.6,-2.58144e-06,3.3342e-06,-3.83514e-08,4.2169e-06,58.75,117.2,-48.36,1.0833e+07,1e+06,-7.13569e-08,2.40783e-07,-7.67381e-08,0.0017283,0.0439278,0.000288849,0.0443826,2,978
12,6.14445e-22,1,1347,80.41,-2.6561e-06,3.32337e-06,-4.11474e-08,4.25457e-06,63.125,-123.18,-170.23,1.0833e+07,1e+06,-7.78095e-08,2.43667e-07,-8.30651e-08,0.00166535,0.0391788,0.000196032,0.0395334,2,979
12,5.65354e-22,1,1348,80.41,-2.73706e-06,3.29142e-06,-4.31423e-08,4.28098e-06,65,-123.18,-170.23,1.0833e+07,1e+06,-7.93967e-08,2.37679e-07,-8.58776e-08,0.00156355,0.0348859,-0.000558852,0.0348536,2,980
12,5.65354e-22,1,1349,80.41,-2.8149e-06,3.25951e-06,-3.99848e-08,4.30693e-06,65,-123.18,-170.23,1.0833e+07,1e+06,-7.60545e-08,2.26445e-07,-7.98726e-08,0.00159048,0.0334058,-4.07321e-05,0.0329792,2,981
12,5.65354e-22,1,1350,80.41,-2.88917e-06,3.23017e-06,-3.88288e-08,4.33392e-06,65,-123.18,-170.23,1.0833e+07,1e+06,-7.40325e-08,2.19203e-07,-7.762e-08,0.00147984,0.0320879,-8.30624e-05,0.0315861,2,982
12,5.65354e-22,1,1351,80.41,-2.96296e-06,3.20849e-06,-3.85966e-08,4.3675e-06,65,-123.18,-170.23,1.0833e+07,1e+06,-7.50257e-08,2.19084e-07,-7.72813e-08,0.00126718,0.0318271,7.07364e-06,0.0312726,2,983
12,5.65354e-22,1,1352,80.41,-3.03922e-06,3.19465e-06,-3.90349e-08,4.40955e-06,65,-123.18,-170.23,1.0833e+07,1e+06,-7.76099e-08,2.22599e-07,-7.80969e-08,0.000959421,0.0321496,4.94501e-05,0.0316799,2,984
12,5.65354e-22,1,1353,80.41,-3.11818e-06,3.18467e-06,-3.96055e-08,4.45721e-06,65,-123.18,-170.23,1.0833e+07,1e+06,-7.97509e-08,2.2637e-07,-7.92264e-08,0.000758947,0.0326185,2.91192e-05,0.0322569,2,985
12,5.65354e-22,1,1354,80.41,-3.19872e-06,3.17422e-06,-4.00919e-08,4.50656e-06,65,-123.18,-170.23,1.0833e+07,1e+06,-8.09057e-08,2.29195e-07,-8.0179e-08,0.00071467,0.0330475,-1.77553e-07,0.0327397,2,986
12,5.65354e-22,1,1355,80.41,-3.27999e-06,3.16032e-06,-4.04654e-08,4.55495e-06,65,-123.18,-170.23,1.0833e+07,1e+06,-8.15623e-08,2.31249e-07,-8.09251e-08,0.000727401,0.0333859,-2.82338e-05,0.0331054,2,987
12,5.65354e-22,1,1356,80.41,-3.36185e-06,3.14123e-06,-4.07969e-08,4.6012e-06,65,-123.18,-170.23,1.0833e+07,1e+06,-8.24283e-08,2.33314e-07,-8.15913e-08,0.000695623,0.0336989,-4.57142e-05,0.0334589,2,988
12,5.65354e-22,1,1357,80.41,-3.44485e-06,3.11577e-06,-4.11386e-08,4.64507e-06,65,-123.18,-170.23,1.0833e+07,1e+06,-8.4055e-08,2.35969e-07,-8.22752e-08,0.000532292,0.0340456,-5.82694e-05,0.0339088,2,989
12,5.65354e-22,1,1358,80.41,-3.52996e-06,3.08243e-06,-4.14822e-08,4.68654e-06,65,-123.18,-170.23,1.0833e+07,1e+06,-8.66918e-08,2.39438e-07,-8.29481e-08,0.00019403,0.0344679,-6.32757e-05,0.0345346,2,990
12,5.65354e-22,1,1359,80.41,-3.61823e-06,3.0387e-06,-4.17573e-08,4.72515e-06,65,-123.18,-170.23,1.0833e+07,1e+06,-9.02236e-08,2.4354e-07,-8.3504e-08,-0.00031919,0.0349909,-6.60955e-05,0.0354122,2,991
12,5.65354e-22,1,1360,80.41,-3.7104e-06,2.98007e-06,-4.15325e-08,4.75917e-06,65,-123.18,-170.23,1.0833e+07,1e+06,-9.33335e-08,2.47643e-07,-8.28632e-08,-0.000711292,0.0358644,0.000262816,0.0366695,2,992
12,5.56003e-22,1,1361,80.41,-3.8049e-06,2.89526e-06,-4.18706e-08,4.78137e-06,65.8125,-123.18,-170.23,1.01872e+07,968750,-9.57039e-08,2.50263e-07,-8.40887e-08,-0.00105241,0.0353762,0.000171178,0.0372458,2,993
12,5.18598e-22,1,1362,80.41,-3.90181e-06,2.78497e-06,-4.5499e-08,4.79398e-06,69.0625,-123.18,-170.23,7.60394e+06,843750,-1.04941e-07,2.54048e-07,-9.14016e-08,-0.00224122,0.0303149,-0.000935117,0.034069,2,994
12,4.62492e-22,2,1363,31.67,-4.01478e-06,2.68107e-06,-5.02111e-08,4.82795e-06,73.9375,13.09,-96.26,3.72906e+06,656250,-1.24257e-07,2.66657e-07,-1.00088e-07,-0.00367664,0.0232869,-0.00105455,0.027714,3,367
12,4.13384e-22,2,1364,31.67,-4.15033e-06,2.58235e-06,-5.16734e-08,4.88839e-06,76.75,13.09,-96.26,1.14581e+06,531250,-1.36755e-07,2.74094e-07,-1.03696e-07,-0.00512233,0.0200709,-0.000835958,0.0249465,3,368
12,3.80627e-22,2,1365,31.67,-4.28829e-06,2.45932e-06,-5.21224e-08,4.94373e-06,76.6875,13.09,-96.26,500000,500000,-1.32051e-07,2.71813e-07,-1.03226e-07,-0.00537057,0.021363,-0.000719858,0.0264403,3,369
12,3.45518e-22,2,1366,31.67,-4.41443e-06,2.34283e-06,-4.78748e-08,4.99783e-06,75.375,13.09,-96.26,500000,500000,-1.10217e-07,2.5132e-07,-9.45434e-08,-0.00457809,0.0246424,-0.00060238,0.0292048,3,370
12,2.98706e-22,2,1367,78.48,-4.50873e-06,2.24466e-06,-3.88877e-08,5.03673e-06,73.625,28.28,127.2,500000,500000,-7.84215e-08,2.1328e-07,-7.87501e-08,-0.00333576,0.0270511,-0.000261902,0.0302321,3,371
12,2.63597e-22,2,1368,78.48,-4.57127e-06,2.17998e-06,-3.20324e-08,5.06457e-06,72.3125,28.28,127.2,500000,500000,-5.43466e-08,1.8675e-07,-6.41702e-08,-0.00160903,0.0290821,0.00104865,0.0301573,3,372
12,2.72989e-22,2,1369,78.48,-4.61742e-06,2.15381e-06,-2.67212e-08,5.09511e-06,72.5,28.28,127.2,1.14581e+06,531250,-3.76394e-08,1.64347e-07,-5.4798e-08,-0.001047,0.0297877,0.00165897,0.029985,3,373
12,4.25281e-22,2,1370,78.48,-4.64655e-06,2.14621e-06,-3.11743e-08,5.11836e-06,77.375,28.28,127.2,4.37488e+06,687500,-2.02344e-08,1.50399e-07,-6.31727e-08,-0.00118286,0.0301853,0.00100593,0.0305448,3,374
12,6.54873e-22,1,1371,179.529,-4.65789e-06,2.17176e-06,-4.22758e-08,5.13948e-06,84.8125,-34.9099,-168.19,8.89556e+06,906250,-4.26175e-09,1.51775e-07,-8.30575e-08,-0.00137643,0.0323704,0.000107082,0.0331743,2,995
12,7.5327e-22,1,1372,179.529,-4.65507e-06,2.21463e-06,-4.75808e-08,5.15524e-06,88,-34.91,-168.19,1.0833e+07,1e+06,4.30876e-09,1.56992e-07,-9.49187e-08,-0.00116638,0.0342085,-0.000136578,0.0349632,2,996
12,7.5327e-22,1,1373,179.529,-4.64927e-06,2.25956e-06,-4.95183e-08,5.1695e-06,88,-34.91,-168.19,1.0833e+07,1e+06,6.32243e-09,1.62609e-07,-9.92302e-08,-0.00081029,0.0354627,-0.000101783,0.0360628,2,997
12,7.5327e-22,1,1374,179.529,-4.64243e-06,2.30767e-06,-5.11827e-08,5.1846e-06,88,-34.91,-168.19,1.0833e+07,1e+06,7.12072e-09,1.67371e-07,-1.02351e-07,-0.000715151,0.0365468,-7.18625e-05,0.0371522,2,998
12,7.5327e-22,1,1375,179.529,-4.63503e-06,2.35922e-06,-5.30085e-08,5.20117e-06,88,-34.91,-168.19,1.0833e+07,1e+06,7.25602e-09,1.73653e-07,-1.05996e-07,-0.000780116,0.0379615,-4.74505e-05,0.0386514,2,999
12,7.5327e-22,1,1376,179.529,-4.62792e-06,2.41163e-06,-5.50083e-08,5.21887e-06,88,-34.91,-168.19,1.0833e+07,1e+06,6.6921e-09,1.81313e-07,-1.1001e-07,-0.000992006,0.0396702,-1.64344e-05,0.0404753,2,1000
12,7.5327e-22,1,1377,179.529,-4.62164e-06,2.45919e-06,-5.67897e-08,5.2355e-06,88,-34.91,-168.19,1.0833e+07,1e+06,5.76633e-09,1.88607e-07,-1.13586e-07,-0.00125061,0.0412792,1.73915e-05,0.0421658,2,1001
12,7.5327e-22,1,1378,179.529,-4.61638e-06,2.49604e-06,-5.79141e-08,5.24829e-06,88,-34.91,-168.19,1.0833e+07,1e+06,4.8374e-09,1.93475e-07,-1.15836e-07,-0.00147198,0.0423255,2.95906e-05,0.0432512,2,1002
12,7.5327e-22,1,1379,179.529,-4.61197e-06,2.51918e-06,-5.82187e-08,5.25547e-06,88,-34.91,-168.19,1.0833e+07,1e+06,4.13118e-09,1.95162e-07,-1.1644e-07,-0.00160947,0.0426569,2.27286e-05,0.0435891,2,1003
12,7.5327e-22,1,1380,179.529,-4.60812e-06,2.52904e-06,-5.78238e-08,5.25682e-06,88,-34.91,-168.19,1.0833e+07,1e+06,3.6679e-09,1.94176e-07,-1.15647e-07,-0.00166906,0.0424037,1.02963e-05,0.0433253,2,1004
12,7.5327e-22,1,1381,179.529,-4.60463e-06,2.52817e-06,-5.69624e-08,5.25334e-06,88,-34.91,-168.19,1.0833e+07,1e+06,3.33507e-09,1.91468e-07,-1.13924e-07,-0.00168989,0.0417836,-2.49014e-06,0.0426957,2,1005
12,7.5327e-22,1,1382,179.529,-4.60145e-06,2.51967e-06,-5.58708e-08,5.24645e-06,88,-34.91,-168.19,1.0833e+07,1e+06,2.96367e-09,1.87991e-07,-1.11738e-07,-0.00172148,0.041006,-1.71223e-05,0.0419295,2,1006
12,7.5327e-22,1,1383,179.529,-4.59871e-06,2.50596e-06,-5.475e-08,5.23746e-06,88,-34.91,-168.19,1.0833e+07,1e+06,2.35716e-09,1.8467e-07,-1.09491e-07,-0.00180952,0.0402724,-2.84537e-05,0.0412421,2,1007
12,7.5327e-22,1,1384,179.529,-4.59674e-06,2.48744e-06,-5.36694e-08,5.22688e-06,88,-34.91,-168.19,1.0833e+07,1e+06,1.36792e-09,1.82011e-07,-1.07329e-07,-0.00197331,0.039693,-2.18512e-05,0.0407409,2,1008
12,7.5327e-22,1,1385,179.529,-4.59597e-06,2.46153e-06,-5.24635e-08,5.21391e-06,88,-34.91,-168.19,1.0833e+07,1e+06,7.33655e-11,1.79422e-07,-1.04936e-07,-0.00217596,0.0391289,6.04212e-06,0.0402674,2,1009
12,7.5327e-22,1,1386,179.529,-4.59659e-06,2.42373e-06,-5.0934e-08,5.1967e-06,88,-34.91,-168.19,1.0833e+07,1e+06,-1.15422e-09,1.75027e-07,-1.01908e-07,-0.00237678,0.0381032,-5.34657e-05,0.0393849,2,1010
12,7.5327e-22,1,1387,179.529,-4.59828e-06,2.37187e-06,-4.89229e-08,5.1742e-06,88,-34.91,-168.19,1.0833e+07,1e+06,-3.63706e-09,1.67263e-07,-9.77285e-08,-0.00301388,0.0361445,-0.000465262,0.0379954,2,1011
12,6.8343e-22,1,1388,179.529,-4.60386e-06,2.30578e-06,-4.06439e-08,5.14916e-06,88.375,-34.9101,-168.19,8.89556e+06,906250,-1.74384e-08,1.60397e-07,-8.11373e-08,-0.00332822,0.0334403,-0.000121013,0.0356606,2,1012
12,5.20471e-22,2,1389,76.16,-4.63316e-06,2.24285e-06,-2.73452e-08,5.14755e-06,89.25,-144.72,-126.88,4.37488e+06,687500,-4.12567e-08,1.5056e-07,-5.4377e-08,-0.00311065,0.0275512,0.000487661,0.0296017,3,375
12,3.94526e-22,2,1390,76.16,-4.68638e-06,2.20285e-06,-1.91063e-08,5.17832e-06,90.75,-144.72,-126.88,1.14581e+06,531250,-6.24417e-08,1.38715e-07,-3.80269e-08,-0.00378354,0.0198224,0.000161074,0.022373,3,376
12,3.4782e-22,2,1391,76.16,-4.75804e-06,2.16449e-06,-1.47694e-08,5.22725e-06,93.375,-144.72,-126.88,500000,500000,-8.92291e-08,1.47976e-07,-3.01403e-08,-0.00436568,0.0155275,0.000795588,0.0183604,3,377
12,3.29604e-22,2,1392,29.09,-4.86484e-06,2.12115e-06,-1.40147e-08,5.30718e-06,95.75,38.11,-136.53,500000,500000,-1.15274e-07,1.68646e-07,-2.79176e-08,-0.00445821,0.0137925,0.00130561,0.0167628,3,378
12,3.93347e-22,2,1393,29.09,-4.98859e-06,2.10148e-06,-1.26383e-08,5.41317e-06,100.688,38.11,-136.53,2.43744e+06,593750,-1.09149e-07,1.62241e-07,-2.60568e-08,-0.00463852,0.0155987,0.00109426,0.0190563,3,379
12,5.50458e-22,1,1394,64.15,-5.08313e-06,2.12021e-06,-1.48296e-08,5.50761e-06,110.5,-139.18,-156.59,6.95813e+06,812500,-8.11556e-08,1.58438e-07,-3.03064e-08,-0.00339853,0.0246932,0.00109958,0.0271251,2,1013
12,6.60446e-22,1,1395,64.15,-5.1509e-06,2.17497e-06,-2.24361e-08,5.59131e-06,117.562,-139.18,-156.59,1.01872e+07,968750,-6.84453e-08,1.78587e-07,-4.39601e-08,-0.00212365,0.0340743,0.000442228,0.0353307,2,1014
12,6.81402e-22,1,1396,64.15,-5.22002e-06,2.257e-06,-2.52962e-08,5.68712e-06,119,-139.18,-156.59,1.0833e+07,1e+06,-7.01668e-08,1.91712e-07,-5.03631e-08,-0.00210488,0.0374463,-5.6697e-05,0.0386333,2,1015
12,6.81402e-22,1,1397,64.15,-5.29123e-06,2.34906e-06,-2.59656e-08,5.78929e-06,119,-139.18,-156.59,1.0833e+07,1e+06,-7.08598e-08,1.96809e-07,-5.18882e-08,-0.00183955,0.0385971,-4.58794e-05,0.0396178,2,1016
12,6.81402e-22,1,1398,64.15,-5.36174e-06,2.43653e-06,-2.65864e-08,5.88946e-06,119,-139.18,-156.59,1.0833e+07,1e+06,-7.01438e-08,2.00778e-07,-5.31747e-08,-0.00132145,0.0397361,-1.81922e-05,0.0404388,2,1017
12,6.81402e-22,1,1399,64.15,-5.43152e-06,2.51762e-06,-2.71067e-08,5.9867e-06,119,-139.18,-156.59,1.0833e+07,1e+06,-6.93878e-08,2.03889e-07,-5.42164e-08,-0.000879981,0.0406848,-8.03559e-06,0.0411631,2,1018
12,6.81402e-22,1,1400,64.15,-5.50052e-06,2.59148e-06,-2.75317e-08,6.08048e-06,119,-139.18,-156.59,1.0833e+07,1e+06,-6.86049e-08,2.06226e-07,-5.50629e-08,-0.000498656,0.0414349,-1.24448e-05,0.0417605,2,1019
12,6.81402e-22,1,1401,64.15,-5.56873e-06,2.65826e-06,-2.79045e-08,6.17073e-06,119,-139.18,-156.59,1.0833e+07,1e+06,-6.79075e-08,2.0822e-07,-5.58078e-08,-0.000162664,0.0420696,-1.84181e-05,0.0422834,2,1020
12,6.81402e-22,1,1402,64.15,-5.63633e-06,2.71863e-06,-2.82709e-08,6.2578e-06,119,-139.18,-156.59,1.0833e+07,1e+06,-6.74879e-08,2.10334e-07,-5.65372e-08,0.000116537,0.0426849,-1.83931e-05,0.0428178,2,1021
12,6.81402e-22,1,1403,64.15,-5.70371e-06,2.77319e-06,-2.86562e-08,6.34221e-06,119,-139.18,-156.59,1.0833e+07,1e+06,-6.7624e-08,2.1301e-07,-5.73199e-08,0.000288528,0.0433818,-1.63654e-05,0.0434884,2,1022
12,6.81402e-22,1,1404,64.15,-5.77158e-06,2.82245e-06,-2.85156e-08,6.42481e-06,119,-139.18,-156.59,1.0833e+07,1e+06,-6.8411e-08,2.17014e-07,-5.69939e-08,0.000483043,0.0445148,0.000412254,0.0443712,2,1023
12,6.01582e-22,1,1405,64.15,-5.84053e-06,2.8678e-06,-3.04093e-08,6.50669e-06,118.75,-139.18,-156.59,8.24975e+06,875000,-7.09505e-08,2.23245e-07,-6.08307e-08,9.72562e-05,0.0441023,-0.000516844,0.0447841,2,1024
12,4.41943e-22,2,1406,145.75,-5.91348e-06,2.92451e-06,-2.92091e-08,6.59719e-06,118.25,-116.93,-175.81,3.08325e+06,625000,-7.64669e-08,2.31144e-07,-5.84512e-08,5.49048e-05,0.0423927,-0.00043681,0.0430928,3,380
12,3.62123e-22,2,1407,145.75,-5.99346e-06,2.99446e-06,-2.65292e-08,6.69993e-06,118,-116.93,-175.81,500000,500000,-8.2212e-08,2.3707e-07,-5.30542e-08,0.000153467,0.0418967,0.000503865,0.0419545,3,381
12,3.62123e-22,2,1408,145.75,-6.07791e-06,3.06552e-06,-2.70866e-08,6.80728e-06,118,-116.93,-175.81,500000,500000,-8.5657e-08,2.39565e-07,-5.41806e-08,-0.000284286,0.0419764,-5.8499e-06,0.042455,3,382
12,3.62123e-22,2,1409,145.75,-6.16477e-06,3.14125e-06,-2.61819e-08,6.919e-06,118,-116.93,-175.81,500000,500000,-8.79399e-08,2.40031e-07,-5.24031e-08,-0.000254457,0.0418515,7.2412e-05,0.0421914,3,383
12,3.62123e-22,2,1410,145.75,-6.25379e-06,3.22791e-06,-2.46536e-08,7.03775e-06,118,-116.93,-175.81,500000,500000,-8.84431e-08,2.35976e-07,-4.94713e-08,-5.11499e-05,0.0408598,0.00018117,0.0409265,3,384
12,3.62123e-22,2,1411,145.75,-6.34166e-06,3.32556e-06,-2.30949e-08,7.16076e-06,118,-116.93,-175.81,500000,500000,-8.56207e-08,2.25553e-07,-4.5451e-08,0.000265294,0.0387937,0.000434209,0.0384856,3,385
12,3.92414e-22,2,1412,145.75,-6.42503e-06,3.42904e-06,-2.39013e-08,7.28285e-06,118.375,-116.93,-175.81,1.14581e+06,531250,-7.69239e-08,2.1936e-07,-4.68428e-08,0.000624849,0.0388789,0.000907291,0.0382149,3,386
12,5.11099e-22,2,1413,145.75,-6.49551e-06,3.49883e-06,-3.00659e-08,7.37797e-06,120.313,-116.93,-175.81,3.72906e+06,656250,-5.71882e-08,2.05158e-07,-6.13868e-08,-0.000443822,0.0385339,-0.000131277,0.0392171,3,387
12,6.57595e-22,1,1414,57.67,-6.5394e-06,3.46427e-06,-3.94173e-08,7.40044e-06,123.062,-172.69,-138.33,6.95813e+06,812500,-3.56744e-08,1.98594e-07,-7.906e-08,-0.000906359,0.040029,-0.000599009,0.0414609,2,1025
12,6.45258e-22,1,1415,73.27,-2.56287e-08,2.50223e-06,-2.3877e-08,2.50248e-06,8,-129.16,-171.71,1.0833e+07,1e+06,-5.158e-08,1.5102e-07,-4.77494e-08,0.0014848,0.0238833,0.000254929,0.0231232,2,1026
12,6.45258e-22,1,1416,73.27,-7.75313e-08,2.52355e-06,-2.50031e-08,2.52487e-06,8,-129.16,-171.71,1.0833e+07,1e+06,-5.30273e-08,1.54919e-07,-5.00391e-08,0.00157846,0.0243879,-0.000263195,0.0239125,2,1027
12,6.45258e-22,1,1417,73.27,-1.31683e-07,2.53647e-06,-2.55559e-08,2.54001e-06,8,-129.16,-171.71,1.0833e+07,1e+06,-5.63069e-08,1.62837e-07,-5.11059e-08,0.00163474,0.0258577,-1.88772e-05,0.0253938,2,1028
12,6.45258e-22,1,1418,73.27,-1.90145e-07,2.5427e-06,-2.73955e-08,2.54995e-06,8,-129.16,-171.71,1.0833e+07,1e+06,-6.25602e-08,1.76646e-07,-5.4987e-08,0.00141565,0.027983,-0.000103441,0.0278521,2,1029
12,6.45258e-22,1,1419,73.27,-2.56804e-07,2.54616e-06,-3.11176e-08,2.55927e-06,8,-129.16,-171.71,1.0833e+07,1e+06,-7.42292e-08,1.99582e-07,-6.24198e-08,0.000566023,0.0311355,-0.000505555,0.0316633,2,1030
12,5.7453e-22,1,1420,73.27,-3.38604e-07,2.55663e-06,-3.41416e-08,2.57918e-06,11.75,-129.16,-171.71,8.24975e+06,875000,-9.09839e-08,2.27637e-07,-6.75517e-08,-0.000164766,0.0335002,-0.000352623,0.0343232,2,1031
12,4.33072e-22,2,1421,153.64,-4.38771e-07,2.61369e-06,-3.2648e-08,2.65046e-06,19.25,-177.01,-156.76,3.08325e+06,625000,-1.05259e-07,2.4095e-07,-6.49345e-08,-0.000741255,0.0316787,0.000222534,0.0323751,3,388
12,3.62343e-22,2,1422,153.64,-5.49121e-07,2.71845e-06,-2.92163e-08,2.77351e-06,23,-177.01,-156.76,500000,500000,-1.11166e-07,2.40847e-07,-5.91009e-08,-0.00102123,0.0297393,0.00078419,0.0301336,3,389
12,3.60941e-22,2,1423,153.64,-6.61104e-07,2.83117e-06,-2.89968e-08,2.90747e-06,23.1875,-177.01,-156.76,500000,500000,-1.06708e-07,2.36885e-07,-5.88009e-08,-0.00114335,0.0305402,0.000438224,0.0314837,3,390
12,3.55332e-22,2,1424,153.64,-7.62538e-07,2.92396e-06,-3.3008e-08,3.02194e-06,23.9375,-177.01,-156.76,500000,500000,-8.7567e-08,2.17306e-07,-6.54064e-08,-0.0022897,0.0304733,-0.00129269,0.03336,3,391
12,3.46918e-22,2,1425,84.77,-8.36238e-07,2.96486e-06,-3.56882e-08,3.08074e-06,25.0625,-156.44,-54.66,500000,500000,-6.19245e-08,1.91076e-07,-7.08127e-08,-0.00352352,0.0294351,-0.00152614,0.0330176,3,392
12,3.41309e-22,2,1426,84.77,-8.86387e-07,2.96166e-06,-3.77871e-08,3.09169e-06,25.8125,-156.44,-54.66,500000,500000,-4.60796e-08,1.82333e-07,-7.59155e-08,-0.00397409,0.0293266,-0.000131224,0.0320144,3,393
12,3.39907e-22,2,1427,84.77,-9.28398e-07,2.95345e-06,-4.09573e-08,3.09621e-06,26,-156.44,-54.66,500000,500000,-4.06845e-08,1.84401e-07,-8.18903e-08,-0.00395898,0.0295089,0.000293508,0.0317616,3,394
12,3.39907e-22,2,1428,84.77,-9.67756e-07,2.95519e-06,-4.22853e-08,3.1099e-06,26,-156.44,-54.66,500000,500000,-3.87477e-08,1.84236e-07,-8.47028e-08,-0.00383477,0.0292327,1.04453e-05,0.0315115,3,395
12,3.39907e-22,2,1429,84.77,-1.00589e-06,2.96455e-06,-4.28474e-08,3.13085e-06,26,-156.44,-54.66,500000,500000,-3.811e-08,1.84481e-07,-8.5665e-08,-0.00372257,0.0291787,-8.1121e-05,0.0314028,3,396
12,3.39907e-22,2,1430,84.77,-1.04398e-06,2.98399e-06,-4.23108e-08,3.16163e-06,26,-156.44,-54.66,500000,500000,-4.0108e-08,1.85029e-07,-8.45745e-08,-0.00388966,0.0291401,-2.56949e-05,0.0314095,3,397
12,4.06653e-22,2,1431,84.77,-1.08611e-06,3.01815e-06,-3.76849e-08,3.20785e-06,27.875,-156.44,-54.66,2.43744e+06,593750,-5.16377e-08,1.86433e-07,-7.55946e-08,-0.00362177,0.0291244,-6.73845e-05,0.0316906,3,398
12,5.62393e-22,1,1432,80.81,-1.14725e-06,3.04849e-06,-3.4591e-08,3.2574e-06,32.25,-129.97,-177.44,6.95812e+06,812500,-7.04642e-08,1.93498e-07,-6.88945e-08,-0.00276694,0.0281777,-0.000378402,0.0304367,2,1032
12,6.73636e-22,1,1433,80.81,-1.22704e-06,3.05866e-06,-3.49751e-08,3.29579e-06,35.375,-129.97,-177.44,1.01872e+07,968750,-8.19308e-08,2.01091e-07,-6.97462e-08,-0.00232088,0.0268949,-0.000313721,0.0283619,2,1033
12,6.95884e-22,1,1434,80.81,-1.31111e-06,3.06588e-06,-3.53868e-08,3.33465e-06,36,-129.97,-177.44,1.0833e+07,1e+06,-8.47507e-08,2.06111e-07,-7.10766e-08,-0.00211425,0.0271047,-6.49624e-05,0.0282746,2,1034
12,6.95884e-22,1,1435,80.81,-1.39654e-06,3.08037e-06,-3.70508e-08,3.38236e-06,36,-129.97,-177.44,1.0833e+07,1e+06,-8.60625e-08,2.1375e-07,-7.40564e-08,-0.00170221,0.0282906,-3.79827e-06,0.029295,2,1035
12,6.95884e-22,1,1436,80.81,-1.48324e-06,3.09995e-06,-3.90037e-08,3.43675e-06,36,-129.97,-177.44,1.0833e+07,1e+06,-8.7471e-08,2.23242e-07,-7.80311e-08,-0.0011286,0.0297563,-5.98171e-06,0.0305285,2,1036
12,6.95884e-22,1,1437,80.81,-1.57148e-06,3.12257e-06,-4.13216e-08,3.49595e-06,36,-129.97,-177.44,1.0833e+07,1e+06,-8.94745e-08,2.34728e-07,-8.269e-08,-0.00050671,0.0315341,-1.498e-05,0.0320147,2,1037
12,6.95884e-22,1,1438,80.81,-1.66219e-06,3.1457e-06,-4.40987e-08,3.55812e-06,36,-129.97,-177.44,1.0833e+07,1e+06,-9.34356e-08,2.48827e-07,-8.8255e-08,-0.000169974,0.0335574,-0.000107865,0.0338747,2,1038
12,6.95884e-22,1,1439,80.81,-1.75835e-06,3.16736e-06,-4.72398e-08,3.62301e-06,36,-129.97,-177.44,1.0833e+07,1e+06,-1.01208e-07,2.67904e-07,-9.42497e-08,-0.00028925,0.0361349,6.62141e-05,0.0363295,2,1039
12,6.18175e-22,1,1440,80.81,-1.8646e-06,3.1886e-06,-5.27031e-08,3.69414e-06,37.25,-129.97,-177.44,8.24975e+06,875000,-1.17482e-07,2.92582e-07,-1.05078e-07,-0.000841746,0.0343773,0.000222452,0.0352077,2,1040
12,4.62755e-22,2,1441,150.54,-1.99332e-06,3.24967e-06,-6.12715e-08,3.8128e-06,39.75,178.09,96.28,3.08325e+06,625000,-1.35179e-07,3.12982e-07,-1.22889e-07,-0.00137202,0.0258683,6.99985e-06,0.0271479,3,399
12,3.85046e-22,2,1442,150.54,-2.13496e-06,3.34912e-06,-6.48681e-08,3.97226e-06,41,178.09,96.28,500000,500000,-1.32225e-07,3.08294e-07,-1.2951e-07,-0.000914429,0.020187,0.00018915,0.0207625,3,400
12,4.95578e-22,2,1443,150.54,-2.25776e-06,3.43335e-06,-5.59992e-08,4.10956e-06,44.5,178.09,96.28,3.08325e+06,625000,-1.03291e-07,2.71274e-07,-1.12016e-07,2.27082e-05,0.0258892,-0.000799869,0.0272854,3,401
12,7.16643e-22,1,1444,130.6,-2.34154e-06,3.49093e-06,-3.94896e-08,4.20369e-06,51.5,117.2,-48.36,8.24975e+06,875000,-7.1806e-08,2.36463e-07,-8.0028e-08,0.00221431,0.038696,0.000261202,0.0384029,2,1041
12,8.27175e-22,1,1445,130.6,-2.40138e-06,3.52396e-06,-3.31748e-08,4.26451e-06,55,117.2,-48.36,1.0833e+07,1e+06,-5.93227e-08,2.28598e-07,-6.60843e-08,0.00410054,0.0454235,0.00162767,0.0427301,2,1042
12,8.27175e-22,1,1446,130.6,-2.46019e-06,3.5484e-06,-3.71268e-08,4.31799e-06,55,117.2,-48.36,1.0833e+07,1e+06,-5.93195e-08,2.29555e-07,-7.29521e-08,0.00376006,0.0447334,-0.000270296,0.0431373,2,1043
12,7.6172e-22,1,1447,130.6,-2.52002e-06,3.57085e-06,-3.484e-08,4.37066e-06,57.5,117.2,-48.36,1.0833e+07,1e+06,-6.55061e-08,2.36481e-07,-6.9953e-08,0.00329466,0.0449995,0.00178186,0.0435464,2,1044
12,6.30809e-22,1,1448,80.41,-2.5912e-06,3.56485e-06,-3.85221e-08,4.40726e-06,62.5,-123.18,-170.23,1.0833e+07,1e+06,-7.53494e-08,2.45074e-07,-7.79536e-08,0.00264372,0.0409651,0.00188175,0.039991,2,1045
12,5.65354e-22,1,1449,80.41,-2.67071e-06,3.52773e-06,-4.21029e-08,4.42486e-06,65,-123.18,-170.23,1.0833e+07,1e+06,-7.76984e-08,2.37933e-07,-8.43878e-08,0.0022032,0.0352727,0.000121109,0.0345444,2,1046
12,5.65354e-22,1,1450,80.41,-2.7466e-06,3.48245e-06,-3.71958e-08,4.43539e-06,65,-123.18,-170.23,1.0833e+07,1e+06,-7.47711e-08,2.20579e-07,-7.43872e-08,0.00173816,0.0328408,0.000823876,0.0318717,2,1047
12,5.65354e-22,1,1451,80.41,-2.82026e-06,3.44623e-06,-3.66804e-08,4.45328e-06,65,-123.18,-170.23,1.0833e+07,1e+06,-7.50025e-08,2.13602e-07,-7.28912e-08,0.000988625,0.0311798,0.000403077,0.0306331,2,1048
12,5.65354e-22,1,1452,80.41,-2.8966e-06,3.42665e-06,-3.77972e-08,4.48705e-06,65,-123.18,-170.23,1.0833e+07,1e+06,-7.81312e-08,2.1886e-07,-7.54432e-08,0.000590087,0.0315546,0.000217217,0.0311866,2,1049
12,5.65354e-22,1,1453,80.41,-2.97652e-06,3.41776e-06,-3.89767e-08,4.53236e-06,65,-123.18,-170.23,1.0833e+07,1e+06,-8.03678e-08,2.24507e-07,-7.80787e-08,0.000460482,0.0322326,5.29679e-05,0.0320021,2,1050
12,5.65354e-22,1,1454,80.41,-3.05734e-06,3.41173e-06,-3.98634e-08,4.58136e-06,65,-123.18,-170.23,1.0833e+07,1e+06,-8.03635e-08,2.27975e-07,-7.97137e-08,0.000745251,0.0328908,2.06998e-05,0.0325628,2,1051
12,5.65354e-22,1,1455,80.41,-3.13725e-06,3.40358e-06,-4.03585e-08,4.62907e-06,65,-123.18,-170.23,1.0833e+07,1e+06,-7.90185e-08,2.29067e-07,-8.07042e-08,0.00115114,0.033249,-2.62268e-05,0.0327781,2,1052
12,5.65354e-22,1,1456,80.41,-3.21537e-06,3.39098e-06,-4.06947e-08,4.67322e-06,65,-123.18,-170.23,1.0833e+07,1e+06,-7.74058e-08,2.29469e-07,-8.13874e-08,0.00157855,0.0334955,-4.01539e-05,0.0328468,2,1053
12,5.65354e-22,1,1457,80.41,-3.29206e-06,3.37339e-06,-4.10653e-08,4.71372e-06,65,-123.18,-170.23,1.0833e+07,1e+06,-7.63825e-08,2.30393e-07,-8.21346e-08,0.00191455,0.0337568,-4.25648e-05,0.0329577,2,1054
12,5.65354e-22,1,1458,80.41,-3.36814e-06,3.35034e-06,-4.15716e-08,4.75088e-06,65,-123.18,-170.23,1.0833e+07,1e+06,-7.62855e-08,2.32456e-07,-8.31437e-08,0.0021252,0.0341221,-4.82049e-05,0.0332293,2,1055
12,5.65354e-22,1,1459,80.41,-3.44463e-06,3.32061e-06,-4.22503e-08,4.78474e-06,65,-123.18,-170.23,1.0833e+07,1e+06,-7.72599e-08,2.36091e-07,-8.45179e-08,0.00221374,0.034682,-5.89747e-05,0.0337659,2,1056
12,5.65354e-22,1,1460,80.41,-3.52266e-06,3.28177e-06,-4.32582e-08,4.81466e-06,65,-123.18,-170.23,1.0833e+07,1e+06,-7.9345e-08,2.41824e-07,-8.64495e-08,0.00219765,0.035575,-8.49556e-05,0.0347427,2,1057
12,5.65354e-22,1,1461,80.41,-3.60332e-06,3.22929e-06,-4.38387e-08,4.83882e-06,65,-123.18,-170.23,1.0833e+07,1e+06,-8.31089e-08,2.50996e-07,-8.81669e-08,0.0021,0.0371905,0.000226819,0.0364715,2,1058
12,5.37301e-22,1,1462,80.41,-3.68888e-06,3.15554e-06,-4.91164e-08,4.85465e-06,67.4375,-123.18,-170.23,8.89556e+06,906250,-9.40677e-08,2.70049e-07,-9.83628e-08,0.00150836,0.0362993,-0.000323234,0.0372235,2,1059
12,4.71843e-22,2,1463,31.67,-3.79145e-06,3.06123e-06,-5.87983e-08,4.87337e-06,73.125,13.09,-96.26,4.37488e+06,687500,-1.13005e-07,2.92624e-07,-1.16749e-07,0.00030541,0.0289983,-0.00103811,0.031218,3,402
12,4.25087e-22,2,1464,31.67,-3.91489e-06,2.97267e-06,-6.29237e-08,4.916e-06,77.1875,13.09,-96.26,1.14581e+06,531250,-1.26616e-07,3.03916e-07,-1.26141e-07,-0.000470028,0.0224109,-0.000408706,0.0238184,3,403
12,4.15736e-22,2,1465,31.67,-4.04469e-06,2.88325e-06,-6.41135e-08,4.96757e-06,78,13.09,-96.26,500000,500000,-1.31618e-07,3.08711e-07,-1.28629e-07,-0.000900875,0.0212498,-9.12205e-05,0.0226456,3,404
12,4.15736e-22,2,1466,31.67,-4.17812e-06,2.77035e-06,-6.65051e-08,5.01358e-06,78,13.09,-96.26,500000,500000,-1.36211e-07,3.17249e-07,-1.32797e-07,-0.0014206,0.0217614,-0.000175926,0.0240554,3,405
12,4.04033e-22,2,1467,31.67,-4.31711e-06,2.63933e-06,-6.60819e-08,5.06042e-06,77.5625,13.09,-96.26,500000,500000,-1.34712e-07,3.13856e-07,-1.32294e-07,-0.00244267,0.0228762,-0.000850141,0.0263725,3,406
12,3.80627e-22,2,1468,31.67,-4.44755e-06,2.50183e-06,-6.36249e-08,5.10332e-06,76.6875,13.09,-96.26,500000,500000,-1.2161e-07,2.97193e-07,-1.2597e-07,-0.0024643,0.0243882,-0.00118533,0.0278237,3,407
12,3.45518e-22,2,1469,31.67,-4.56033e-06,2.39708e-06,-5.53332e-08,5.15225e-06,75.375,13.09,-96.26,500000,500000,-9.50539e-08,2.63873e-07,-1.09877e-07,-0.00134172,0.026756,-0.000776381,0.0291485,3,408
12,2.98706e-22,2,1470,78.48,-4.63766e-06,2.3264e-06,-4.36488e-08,5.18863e-06,73.625,28.28,127.2,500000,500000,-6.00978e-08,2.16056e-07,-8.83767e-08,6.7172e-05,0.0282657,-8.38634e-05,0.0292254,3,409
12,3.61993e-22,2,1471,78.48,-4.68052e-06,2.29715e-06,-3.83274e-08,5.21399e-06,75.625,28.28,127.2,2.43744e+06,593750,-2.90887e-08,1.80068e-07,-7.77702e-08,0.00146076,0.0295728,0.000706688,0.0291208,3,410
12,5.6818e-22,1,1472,179.529,-4.69583e-06,2.32298e-06,-4.11977e-08,5.23916e-06,82.3125,-34.9099,-168.19,6.95812e+06,812500,-3.57194e-09,1.5901e-07,-8.27272e-08,0.00130474,0.031915,0.000644028,0.0313525,2,1060
12,7.20471e-22,1,1473,179.529,-4.68767e-06,2.37048e-06,-4.76007e-08,5.25316e-06,87.0625,-34.91,-168.19,1.01872e+07,968750,1.03784e-08,1.55281e-07,-9.46853e-08,0.00077476,0.0337414,0.000247507,0.0333744,2,1061
12,7.5327e-22,1,1474,179.529,-4.67508e-06,2.42139e-06,-5.10067e-08,5.26518e-06,88,-34.91,-168.19,1.0833e+07,1e+06,1.3305e-08,1.60506e-07,-1.01736e-07,0.000781285,0.0349686,-2.22548e-05,0.0347529,2,1062
12,7.5327e-22,1,1475,179.529,-4.66106e-06,2.47406e-06,-5.2451e-08,5.27723e-06,88,-34.91,-168.19,1.0833e+07,1e+06,1.37995e-08,1.65053e-07,-1.04889e-07,0.000760299,0.0359721,-6.91009e-05,0.0358778,2,1063
12,7.5327e-22,1,1476,179.529,-4.64748e-06,2.53219e-06,-5.42081e-08,5.29282e-06,88,-34.91,-168.19,1.0833e+07,1e+06,1.30546e-08,1.71862e-07,-1.08399e-07,0.000474468,0.0375162,-6.07874e-05,0.0376542,2,1064
12,7.5327e-22,1,1477,179.529,-4.63495e-06,2.59296e-06,-5.64536e-08,5.31125e-06,88,-34.91,-168.19,1.0833e+07,1e+06,1.17311e-08,1.8124e-07,-1.12903e-07,7.76767e-05,0.0396256,-1.38912e-05,0.0399736,2,1065
12,7.5327e-22,1,1478,179.529,-4.62402e-06,2.6486e-06,-5.85565e-08,5.32917e-06,88,-34.91,-168.19,1.0833e+07,1e+06,1.01167e-08,1.90458e-07,-1.17131e-07,-0.00034265,0.0416694,3.60493e-05,0.0421509,2,1066
12,7.5327e-22,1,1479,179.529,-4.61472e-06,2.69074e-06,-5.98212e-08,5.34222e-06,88,-34.91,-168.19,1.0833e+07,1e+06,8.69588e-09,1.96283e-07,-1.19657e-07,-0.000673665,0.0429201,4.72954e-05,0.0434623,2,1067
12,7.5327e-22,1,1480,179.529,-4.60662e-06,2.71556e-06,-6.00373e-08,5.34779e-06,88,-34.91,-168.19,1.0833e+07,1e+06,7.71937e-09,1.97861e-07,-1.20077e-07,-0.000863475,0.0432155,3.17157e-05,0.0437691,2,1068
12,7.5327e-22,1,1481,179.529,-4.59928e-06,2.72418e-06,-5.94243e-08,5.34584e-06,88,-34.91,-168.19,1.0833e+07,1e+06,7.12768e-09,1.96206e-07,-1.18848e-07,-0.000940587,0.0428075,1.23218e-05,0.0433508,2,1069
12,7.5327e-22,1,1482,179.529,-4.59237e-06,2.72025e-06,-5.83115e-08,5.33789e-06,88,-34.91,-168.19,1.0833e+07,1e+06,6.72852e-09,1.92695e-07,-1.16625e-07,-0.000965713,0.0420107,-2.19784e-06,0.042545,2,1070
12,7.5327e-22,1,1483,179.529,-4.58582e-06,2.70798e-06,-5.69959e-08,5.32599e-06,88,-34.91,-168.19,1.0833e+07,1e+06,6.28482e-09,1.8848e-07,-1.1399e-07,-0.00101102,0.0410735,-2.24791e-05,0.0416311,2,1071
12,7.5327e-22,1,1484,179.529,-4.5798e-06,2.69088e-06,-5.57669e-08,5.31211e-06,88,-34.91,-168.19,1.0833e+07,1e+06,5.53501e-09,1.84881e-07,-1.11523e-07,-0.00113853,0.0402855,-3.98713e-05,0.040917,2,1072
12,7.5327e-22,1,1485,179.529,-4.57475e-06,2.66999e-06,-5.47797e-08,5.29719e-06,88,-34.91,-168.19,1.0833e+07,1e+06,4.25475e-09,1.82833e-07,-1.09549e-07,-0.00138232,0.0398518,-3.35073e-05,0.0406054,2,1073
12,7.5327e-22,1,1486,179.529,-4.57129e-06,2.64212e-06,-5.38438e-08,5.28019e-06,88,-34.91,-168.19,1.0833e+07,1e+06,2.54908e-09,1.81759e-07,-1.07715e-07,-0.00168494,0.039638,1.42657e-05,0.0405193,2,1074
12,7.5327e-22,1,1487,179.529,-4.56965e-06,2.6004e-06,-5.25806e-08,5.258e-06,88,-34.91,-168.19,1.0833e+07,1e+06,1.15039e-09,1.78689e-07,-1.05265e-07,-0.00191933,0.0389088,-2.34988e-05,0.0399308,2,1075
12,7.5327e-22,1,1488,179.529,-4.56899e-06,2.54031e-06,-5.05153e-08,5.22794e-06,88,-34.91,-168.19,1.0833e+07,1e+06,-1.89167e-09,1.70054e-07,-1.00417e-07,-0.00268643,0.0367408,-0.000473636,0.0384218,2,1076
12,6.6015e-22,1,1489,179.529,-4.57343e-06,2.46767e-06,-3.87123e-08,5.19685e-06,88.5,-34.9101,-168.19,8.24975e+06,875000,-1.82416e-08,1.60269e-07,-7.71658e-08,-0.00247824,0.0332039,0.000530149,0.0346597,2,1077
12,4.66533e-22,2,1490,76.16,-4.60547e-06,2.39681e-06,-2.49125e-08,5.19189e-06,90,-144.72,-126.88,3.08325e+06,625000,-4.69822e-08,1.56215e-07,-5.0788e-08,-0.00196742,0.0267344,0.00137769,0.0278036,3,411
12,3.43901e-22,2,1491,76.16,-4.6674e-06,2.34401e-06,-2.29135e-08,5.22298e-06,92.5,-144.72,-126.88,500000,500000,-7.6198e-08,1.61285e-07,-4.59718e-08,-0.00340922,0.0193984,0.000360916,0.0219109,3,412
12,3.04843e-22,2,1492,9.76002,-4.75787e-06,2.31629e-06,-2.30575e-08,5.29179e-06,95.375,161.5,100.91,500000,500000,-1.07034e-07,1.79656e-07,-4.58731e-08,-0.00455484,0.0152773,0.000458473,0.0185635,3,413
12,2.85752e-22,2,1493,9.76002,-4.88147e-06,2.29833e-06,-2.36275e-08,5.39552e-06,97.125,161.5,100.91,500000,500000,-1.25878e-07,1.95836e-07,-4.68974e-08,-0.00454756,0.0134445,0.000742438,0.016562,3,414
12,3.56873e-22,2,1494,9.76001,-5.00962e-06,2.26567e-06,-2.3029e-08,5.49819e-06,101.562,161.5,100.91,2.43744e+06,593750,-1.11726e-07,1.85399e-07,-4.66159e-08,-0.00438672,0.0159039,0.000492344,0.0193737,3,415
12,5.29615e-22,1,1495,64.15,-5.10492e-06,2.26929e-06,-2.18223e-08,5.58662e-06,111,-139.18,-156.59,6.95812e+06,812500,-8.34264e-08,1.68301e-07,-4.37521e-08,-0.00437353,0.0238208,3.55423e-06,0.0273768,2,1078
12,6.55236e-22,1,1496,64.15,-5.17648e-06,2.34873e-06,-2.35132e-08,5.68445e-06,117.688,-139.18,-156.59,1.01872e+07,968750,-7.31166e-08,1.78005e-07,-4.65292e-08,-0.00395081,0.0328373,-0.000310759,0.0355179,2,1079
12,6.81402e-22,1,1497,64.15,-5.25115e-06,2.45132e-06,-2.50202e-08,5.79519e-06,119,-139.18,-156.59,1.0833e+07,1e+06,-7.47203e-08,1.94222e-07,-5.02701e-08,-0.00321942,0.037676,-0.000138461,0.0395095,2,1080
12,6.81402e-22,1,1498,64.15,-5.32592e-06,2.548e-06,-2.62603e-08,5.9041e-06,119,-139.18,-156.59,1.0833e+07,1e+06,-7.3847e-08,1.99948e-07,-5.23358e-08,-0.00246409,0.0391505,-0.000121356,0.0405211,2,1081
12,6.81402e-22,1,1499,64.15,-5.39885e-06,2.63932e-06,-2.68913e-08,6.00952e-06,119,-139.18,-156.59,1.0833e+07,1e+06,-7.2221e-08,2.04394e-07,-5.38279e-08,-0.00162275,0.0404881,-2.97846e-05,0.0413652,2,1082
12,6.81402e-22,1,1500,64.15,-5.47036e-06,2.72324e-06,-2.74456e-08,6.11078e-06,119,-139.18,-156.59,1.0833e+07,1e+06,-7.06364e-08,2.07013e-07,-5.48889e-08,-0.000989026,0.0413968,-1.43548e-05,0.0419692,2,1083
12,6.81402e-22,1,1501,64.15,-5.54012e-06,2.79897e-06,-2.78369e-08,6.20709e-06,119,-139.18,-156.59,1.0833e+07,1e+06,-6.88851e-08,2.08388e-07,-5.56695e-08,-0.000419804,0.0420013,-2.53516e-05,0.0423433,2,1084
12,6.81402e-22,1,1502,64.15,-5.60813e-06,2.8673e-06,-2.8164e-08,6.29868e-06,119,-139.18,-156.59,1.0833e+07,1e+06,-6.73415e-08,2.0949e-07,-5.6326e-08,8.04495e-05,0.0424914,-3.00351e-05,0.0426439,2,1085
12,6.81402e-22,1,1503,64.15,-5.6748e-06,2.92948e-06,-2.85041e-08,6.38639e-06,119,-139.18,-156.59,1.0833e+07,1e+06,-6.63631e-08,2.1101e-07,-5.70089e-08,0.000471268,0.0430001,-2.95994e-05,0.0430108,2,1086
12,6.81402e-22,1,1504,64.15,-5.74086e-06,2.98668e-06,-2.89067e-08,6.47136e-06,119,-139.18,-156.59,1.0833e+07,1e+06,-6.62855e-08,2.1358e-07,-5.78158e-08,0.000704975,0.0436699,-2.07822e-05,0.0436034,2,1087
12,6.81402e-22,1,1505,64.15,-5.80737e-06,3.04016e-06,-2.88268e-08,6.55507e-06,119,-139.18,-156.59,1.0833e+07,1e+06,-6.70367e-08,2.17812e-07,-5.76356e-08,0.000940827,0.0448264,0.000402034,0.0444608,2,1088
12,6.01582e-22,1,1506,64.15,-5.87493e-06,3.09158e-06,-3.08135e-08,6.6388e-06,118.75,-139.18,-156.59,8.24975e+06,875000,-6.91142e-08,2.23819e-07,-6.16156e-08,0.00060219,0.0443345,-0.000497152,0.044725,2,1089
12,4.41943e-22,2,1507,145.75,-5.9456e-06,3.15534e-06,-2.9878e-08,6.73106e-06,118.25,-116.93,-175.81,3.08325e+06,625000,-7.34999e-08,2.30431e-07,-5.977e-08,0.000527453,0.0423433,-0.000452764,0.0427707,3,416
12,3.62123e-22,2,1508,145.75,-6.02193e-06,3.23062e-06,-2.73846e-08,6.83383e-06,118,-116.93,-175.81,500000,500000,-7.82059e-08,2.35299e-07,-5.47767e-08,0.000614712,0.0416836,0.000469933,0.0414894,3,417
12,3.62123e-22,2,1509,145.75,-6.10201e-06,3.30396e-06,-2.78967e-08,6.93913e-06,118,-116.93,-175.81,500000,500000,-8.08815e-08,2.37165e-07,-5.58012e-08,0.000245774,0.0417274,2.86419e-05,0.0419,3,418
12,3.62123e-22,2,1510,145.75,-6.18369e-06,3.37897e-06,-2.69815e-08,7.04672e-06,118,-116.93,-175.81,500000,500000,-8.22571e-08,2.35481e-07,-5.40258e-08,0.000203915,0.041226,3.51579e-05,0.0413443,3,419
12,3.62123e-22,2,1511,145.75,-6.26653e-06,3.46022e-06,-2.5468e-08,7.15843e-06,118,-116.93,-175.81,500000,500000,-8.24914e-08,2.2941e-07,-5.08111e-08,0.000216008,0.0398899,6.71532e-05,0.0398937,3,420
12,3.62123e-22,2,1512,145.75,-6.34867e-06,3.5479e-06,-2.36559e-08,7.27282e-06,118,-116.93,-175.81,500000,500000,-7.9665e-08,2.20812e-07,-4.7674e-08,0.000573511,0.0382357,0.000262515,0.0378904,3,421
12,4.52997e-22,2,1513,145.75,-6.42586e-06,3.64478e-06,-2.61631e-08,7.38761e-06,119.125,-116.93,-175.81,2.43744e+06,593750,-6.39126e-08,2.08298e-07,-5.16279e-08,0.00093704,0.0387841,0.000601911,0.0381072,3,422
12,6.65035e-22,1,1514,57.67,-6.4765e-06,3.68638e-06,-2.99382e-08,7.45221e-06,121.75,-172.69,-138.33,6.95812e+06,812500,-3.62076e-08,1.77849e-07,-5.93164e-08,0.000168034,0.0380558,0.000213277,0.038017,2,1090
12,8.16491e-22,1,1515,57.67,-6.49827e-06,3.63358e-06,-3.21381e-08,7.44523e-06,123.625,-172.69,-138.33,1.01872e+07,968750,-1.86198e-08,1.65022e-07,-6.52306e-08,0.000151178,0.0394244,0.000341529,0.0392641,2,1091
12,6.45258e-22,1,1516,73.27,-2.62904e-08,2.65531e-06,-2.4735e-08,2.65556e-06,8,-129.16,-171.71,1.0833e+07,1e+06,-5.30443e-08,1.56101e-07,-4.94691e-08,0.00161017,0.024693,0.000260007,0.0238622,2,1092
12,6.45258e-22,1,1517,73.27,-7.97982e-08,2.68076e-06,-2.58837e-08,2.68208e-06,8,-129.16,-171.71,1.0833e+07,1e+06,-5.49793e-08,1.60397e-07,-5.17821e-08,0.00161277,0.0252364,-0.000262045,0.024728,2,1093
12,6.45258e-22,1,1518,73.27,-1.36249e-07,2.70181e-06,-2.63776e-08,2.70537e-06,8,-129.16,-171.71,1.0833e+07,1e+06,-5.90678e-08,1.6855e-07,-5.27615e-08,0.00147231,0.0266516,-7.52784e-06,0.0261998,2,1094
12,6.45258e-22,1,1519,73.27,-1.97934e-07,2.72186e-06,-2.80742e-08,2.72919e-06,8,-129.16,-171.71,1.0833e+07,1e+06,-6.5729e-08,1.81693e-07,-5.61949e-08,0.00105634,0.0285927,-2.16857e-05,0.0284405,2,1095
12,6.45258e-22,1,1520,73.27,-2.67707e-07,2.7471e-06,-3.09658e-08,2.76029e-06,8,-129.16,-171.71,1.0833e+07,1e+06,-7.53976e-08,2.00708e-07,-6.18615e-08,0.000374195,0.0312187,-0.000141649,0.0314288,2,1096
12,5.92212e-22,1,1521,73.27,-3.48729e-07,2.78485e-06,-3.33052e-08,2.8068e-06,10.8125,-129.16,-171.71,8.89556e+06,906250,-8.91315e-08,2.24082e-07,-6.66305e-08,-0.000266821,0.0332355,-7.40082e-05,0.0336895,2,1097
12,4.68436e-22,2,1522,153.64,-4.4597e-07,2.85435e-06,-3.05991e-08,2.88914e-06,17.375,-177.01,-156.76,4.37488e+06,687500,-1.06228e-07,2.35329e-07,-6.12216e-08,-0.00135263,0.0314543,0.000409437,0.0322511,3,423
12,3.78623e-22,2,1523,153.64,-5.61184e-07,2.95974e-06,-2.70833e-08,3.01259e-06,22.25,-177.01,-156.76,1.14581e+06,531250,-1.15215e-07,2.34586e-07,-5.43677e-08,-0.00240162,0.0297976,0.000113153,0.0314884,3,424
12,3.55332e-22,2,1524,153.64,-6.764e-07,3.06533e-06,-2.97338e-08,3.13921e-06,23.9375,-177.01,-156.76,500000,500000,-1.01964e-07,2.22373e-07,-5.87674e-08,-0.00334385,0.0305227,-0.00141271,0.033914,3,425
12,3.46918e-22,2,1525,84.77,-7.65113e-07,3.13007e-06,-3.21367e-08,3.22238e-06,25.0625,-156.44,-54.66,500000,500000,-7.48518e-08,1.97712e-07,-6.41097e-08,-0.00427561,0.0301768,-0.00134336,0.0340552,3,426
12,3.41309e-22,2,1526,84.77,-8.26104e-07,3.14822e-06,-3.34412e-08,3.25498e-06,25.8125,-156.44,-54.66,500000,500000,-5.50289e-08,1.8442e-07,-6.79776e-08,-0.00440519,0.0297496,0.000326639,0.0324517,3,427
12,3.39907e-22,2,1527,84.77,-8.75171e-07,3.14469e-06,-3.80183e-08,3.26442e-06,26,-156.44,-54.66,500000,500000,-4.7162e-08,1.85149e-07,-7.58693e-08,-0.00444016,0.0297818,0.000623638,0.032166,3,428
12,3.39907e-22,2,1528,84.77,-9.20428e-07,3.13913e-06,-4.08456e-08,3.27154e-06,26,-156.44,-54.66,500000,500000,-4.45092e-08,1.85875e-07,-8.13139e-08,-0.00452367,0.0295188,0.000106595,0.0321838,3,429
12,3.39907e-22,2,1529,84.77,-9.64189e-07,3.13944e-06,-4.08322e-08,3.28442e-06,26,-156.44,-54.66,500000,500000,-4.37431e-08,1.84231e-07,-8.17202e-08,-0.00450174,0.029108,-4.11601e-05,0.0318036,3,430
12,3.39907e-22,2,1530,84.77,-1.00791e-06,3.14873e-06,-4.06709e-08,3.30636e-06,26,-156.44,-54.66,500000,500000,-4.42275e-08,1.84064e-07,-8.13221e-08,-0.00450533,0.0290331,-6.86637e-05,0.031722,3,431
12,3.39907e-22,2,1531,84.77,-1.05264e-06,3.16859e-06,-3.99615e-08,3.3391e-06,26,-156.44,-54.66,500000,500000,-4.57887e-08,1.84577e-07,-8.04589e-08,-0.0046254,0.0290553,-4.79587e-05,0.0317763,3,432
12,3.62156e-22,2,1532,84.77,-1.09949e-06,3.2017e-06,-3.74699e-08,3.38543e-06,26.625,-156.44,-54.66,1.14581e+06,531250,-5.02059e-08,1.81229e-07,-7.4177e-08,-0.00446723,0.0285897,-0.000114714,0.0314605,3,433
12,4.73398e-22,2,1533,84.77,-1.15306e-06,3.23638e-06,-3.28005e-08,3.43581e-06,29.75,-156.44,-54.66,4.37488e+06,687500,-6.26391e-08,1.82126e-07,-6.5231e-08,-0.00370421,0.0278134,-7.57978e-05,0.030554,3,434
12,6.29139e-22,1,1534,80.81,-1.22477e-06,3.25497e-06,-3.15359e-08,3.47792e-06,34.125,-129.97,-177.44,8.89556e+06,906250,-7.82595e-08,1.92194e-07,-6.41454e-08,-0.00304211,0.0266454,0.000123903,0.0286378,2,1098
12,6.95884e-22,1,1535,80.81,-1.30958e-06,3.26869e-06,-3.38483e-08,3.52143e-06,36,-129.97,-177.44,1.0833e+07,1e+06,-8.50554e-08,2.00346e-07,-6.74983e-08,-0.00271116,0.0262183,0.000183578,0.0276362,2,1099
12,6.95884e-22,1,1536,80.81,-1.39488e-06,3.29148e-06,-3.57265e-08,3.57503e-06,36,-129.97,-177.44,1.0833e+07,1e+06,-8.60273e-08,2.08509e-07,-7.10951e-08,-0.00217128,0.0275028,0.000140538,0.0286665,2,1100
12,6.95884e-22,1,1537,80.81,-1.48163e-06,3.3217e-06,-3.82679e-08,3.63736e-06,36,-129.97,-177.44,1.0833e+07,1e+06,-8.79571e-08,2.21105e-07,-7.65829e-08,-0.00144174,0.0294245,5.62267e-05,0.0302509,2,1101
12,6.95884e-22,1,1538,80.81,-1.57079e-06,3.35709e-06,-4.10966e-08,3.70664e-06,36,-129.97,-177.44,1.0833e+07,1e+06,-9.02794e-08,2.34673e-07,-8.2334e-08,-0.000714868,0.0315005,-2.27755e-05,0.0319974,2,1102
12,6.95884e-22,1,1539,80.81,-1.66219e-06,3.39533e-06,-4.41253e-08,3.78062e-06,36,-129.97,-177.44,1.0833e+07,1e+06,-9.33661e-08,2.48569e-07,-8.82169e-08,-0.00018173,0.0335369,-0.000150241,0.0338332,2,1103
12,6.95884e-22,1,1540,80.81,-1.75753e-06,3.43697e-06,-4.72194e-08,3.86055e-06,36,-129.97,-177.44,1.0833e+07,1e+06,-9.9728e-08,2.66184e-07,-9.46271e-08,-0.00011528,0.0358769,-0.000156248,0.0361623,2,1104
12,6.18175e-22,1,1541,80.81,-1.86164e-06,3.48206e-06,-5.31695e-08,3.94884e-06,37.25,-129.97,-177.44,8.24975e+06,875000,-1.14028e-07,2.90768e-07,-1.06575e-07,-0.000343916,0.0341857,-5.48114e-05,0.0350207,2,1105
12,4.62755e-22,2,1542,150.54,-1.98558e-06,3.55903e-06,-6.2216e-08,4.07592e-06,39.75,178.09,96.28,3.08325e+06,625000,-1.27564e-07,3.06159e-07,-1.23892e-07,-0.000736486,0.0254944,-0.000323077,0.0266497,3,435
12,3.85046e-22,2,1543,150.54,-2.11677e-06,3.65146e-06,-6.58301e-08,4.22117e-06,41,178.09,96.28,500000,500000,-1.22813e-07,2.99812e-07,-1.31843e-07,-0.000449086,0.0198102,-0.000485681,0.020427,3,436
12,4.95578e-22,2,1544,150.54,-2.23121e-06,3.70516e-06,-5.87431e-08,4.3255e-06,44.5,178.09,96.28,3.08325e+06,625000,-9.82464e-08,2.74473e-07,-1.17239e-07,0.000707807,0.0271407,-0.00137256,0.0283034,3,437
12,7.16643e-22,1,1545,130.6,-2.31327e-06,3.73024e-06,-4.20669e-08,4.38949e-06,51.5,117.2,-48.36,8.24975e+06,875000,-6.87651e-08,2.40238e-07,-8.35953e-08,0.00304338,0.0398474,-0.000273735,0.0393964,2,1106
12,8.27175e-22,1,1546,130.6,-2.36874e-06,3.74842e-06,-3.29317e-08,4.43426e-06,55,117.2,-48.36,1.0833e+07,1e+06,-5.20622e-08,2.21335e-07,-6.65617e-08,0.00532956,0.0445763,0.0010075,0.0418221,2,1107
12,8.27175e-22,1,1547,130.6,-2.41739e-06,3.77172e-06,-3.61507e-08,4.48006e-06,55,117.2,-48.36,1.0833e+07,1e+06,-4.69638e-08,2.19278e-07,-7.2807e-08,0.00625415,0.0436302,-0.000559152,0.0413066,2,1108
12,7.50998e-22,1,1548,130.6,-2.46267e-06,3.80716e-06,-3.78353e-08,4.53438e-06,56.375,117.2,-48.36,1.01872e+07,968750,-4.85409e-08,2.32319e-07,-7.56557e-08,0.00699949,0.0450898,0.00101037,0.0426202,2,1109
12,5.98643e-22,1,1549,80.41,-2.51447e-06,3.81352e-06,-4.68955e-08,4.56812e-06,59.125,-123.18,-170.23,8.89556e+06,906250,-5.95057e-08,2.52398e-07,-9.26213e-08,0.00571539,0.042317,0.000143282,0.0413536,2,1110
12,5.22466e-22,1,1550,80.41,-2.58168e-06,3.76729e-06,-4.92795e-08,4.56727e-06,60.5,-123.18,-170.23,8.24975e+06,875000,-7.36914e-08,2.46974e-07,-9.80679e-08,0.00213369,0.0357078,-0.00212399,0.0368371,2,1111
12,5.33188e-22,1,1551,80.41,-2.66186e-06,3.70067e-06,-3.83843e-08,4.55872e-06,61.625,-123.18,-170.23,8.89556e+06,906250,-8.31808e-08,2.20782e-07,-7.78638e-08,-0.00126105,0.0312839,-0.00115798,0.0333069,2,1112
12,5.54632e-22,1,1552,80.41,-2.74804e-06,3.65738e-06,-3.43052e-08,4.57486e-06,63.875,-123.18,-170.23,1.01872e+07,968750,-8.63094e-08,2.11338e-07,-6.91973e-08,-0.00210284,0.0297129,-0.000147553,0.0312852,2,1113
12,5.65354e-22,1,1553,80.41,-2.83447e-06,3.64621e-06,-3.63228e-08,4.61849e-06,65,-123.18,-170.23,1.0833e+07,1e+06,-8.59037e-08,2.20678e-07,-7.23435e-08,-0.000984586,0.0313962,0.000535028,0.031709,2,1114
12,5.65354e-22,1,1554,80.41,-2.91985e-06,3.64366e-06,-3.90055e-08,4.6694e-06,65,-123.18,-170.23,1.0833e+07,1e+06,-8.41202e-08,2.27788e-07,-7.77818e-08,-0.000125927,0.0326636,0.000122084,0.0327712,2,1115
12,5.65354e-22,1,1555,80.41,-3.00271e-06,3.64062e-06,-3.99684e-08,4.71932e-06,65,-123.18,-170.23,1.0833e+07,1e+06,-8.06352e-08,2.28798e-07,-7.99415e-08,0.000718228,0.0331529,-5.40452e-05,0.0329769,2,1116
12,5.65354e-22,1,1556,80.41,-3.08112e-06,3.63236e-06,-4.0337e-08,4.76329e-06,65,-123.18,-170.23,1.0833e+07,1e+06,-7.64218e-08,2.27547e-07,-8.0661e-08,0.0016317,0.0333591,-6.16907e-05,0.0327788,2,1117
12,5.65354e-22,1,1557,80.41,-3.15556e-06,3.61926e-06,-4.06032e-08,4.8019e-06,65,-123.18,-170.23,1.0833e+07,1e+06,-7.30095e-08,2.26536e-07,-8.12134e-08,0.00238603,0.0335018,-4.2281e-05,0.0325683,2,1118
12,5.65354e-22,1,1558,80.41,-3.22714e-06,3.60201e-06,-4.09966e-08,4.83638e-06,65,-123.18,-170.23,1.0833e+07,1e+06,-7.06059e-08,2.26585e-07,-8.19999e-08,0.00298754,0.0337121,-2.86552e-05,0.0324938,2,1119
12,5.65354e-22,1,1559,80.41,-3.29677e-06,3.58068e-06,-4.16191e-08,4.86741e-06,65,-123.18,-170.23,1.0833e+07,1e+06,-6.91045e-08,2.28128e-07,-8.32502e-08,0.00349896,0.0340917,-2.99679e-05,0.0326417,2,1120
12,5.65354e-22,1,1560,80.41,-3.36534e-06,3.55461e-06,-4.25803e-08,4.89516e-06,65,-123.18,-170.23,1.0833e+07,1e+06,-6.8689e-08,2.31844e-07,-8.51678e-08,0.00393784,0.0347645,-4.44154e-05,0.0331365,2,1121
12,5.65354e-22,1,1561,80.41,-3.43415e-06,3.52235e-06,-4.41302e-08,4.91958e-06,65,-123.18,-170.23,1.0833e+07,1e+06,-7.0461e-08,2.39226e-07,-8.83167e-08,0.00413059,0.0358934,-0.000146079,0.0342668,2,1122
12,5.65354e-22,1,1562,80.41,-3.50627e-06,3.48207e-06,-4.58609e-08,4.94174e-06,65,-123.18,-170.23,1.0833e+07,1e+06,-7.69704e-08,2.53877e-07,-9.17052e-08,0.00389402,0.0380751,0.000264923,0.0363437,2,1123
12,5.27949e-22,1,1563,80.41,-3.58809e-06,3.43536e-06,-5.25072e-08,4.96778e-06,68.25,-123.18,-170.23,8.24975e+06,875000,-9.42315e-08,2.81796e-07,-1.04821e-07,0.00293358,0.036935,-6.65083e-07,0.0367825,2,1124
12,4.53141e-22,2,1564,31.67,-3.69473e-06,3.37022e-06,-6.36315e-08,5.00134e-06,74.75,13.09,-96.26,3.08325e+06,625000,-1.15708e-07,3.11349e-07,-1.27534e-07,0.00184051,0.0287239,-0.000262174,0.0293698,3,438
12,4.15736e-22,2,1565,31.67,-3.81951e-06,3.2889e-06,-6.93388e-08,5.04087e-06,78,13.09,-96.26,500000,500000,-1.24375e-07,3.20702e-07,-1.38687e-07,0.00117577,0.0228518,6.56272e-05,0.0228388,3,439
12,4.15736e-22,2,1566,31.67,-3.94348e-06,3.19977e-06,-7.00767e-08,5.07883e-06,78,13.09,-96.26,500000,500000,-1.23598e-07,3.19802e-07,-1.39914e-07,0.000918003,0.0227361,-0.000124593,0.0231839,3,440
12,4.15736e-22,2,1567,31.67,-4.0667e-06,3.09382e-06,-7.10128e-08,5.11027e-06,78,13.09,-96.26,500000,500000,-1.24363e-07,3.23803e-07,-1.4248e-07,0.00090639,0.0230842,-0.000181011,0.0238556,3,441
12,4.15736e-22,2,1568,31.67,-4.19221e-06,2.97054e-06,-7.27175e-08,5.13848e-06,78,13.09,-96.26,500000,500000,-1.28953e-07,3.3184e-07,-1.45533e-07,0.000622943,0.0235524,-0.000201091,0.0245732,3,442
12,4.15736e-22,2,1569,31.67,-4.32461e-06,2.83905e-06,-7.40552e-08,5.17377e-06,78,13.09,-96.26,500000,500000,-1.34057e-07,3.39656e-07,-1.47957e-07,0.000274848,0.0239775,-0.000157973,0.0252105,3,443
12,4.04033e-22,2,1570,31.67,-4.46032e-06,2.70772e-06,-7.18314e-08,5.21837e-06,77.5625,13.09,-96.26,500000,500000,-1.28397e-07,3.28231e-07,-1.43763e-07,-0.000380589,0.0246088,-0.000790266,0.0265075,3,444
12,3.80627e-22,2,1571,31.67,-4.5814e-06,2.58593e-06,-6.75968e-08,5.26126e-06,76.6875,13.09,-96.26,500000,500000,-1.08896e-07,3.0094e-07,-1.33558e-07,7.3702e-05,0.0254569,-0.00108355,0.0271227,3,445
12,3.78317e-22,2,1572,31.67,-4.67811e-06,2.50635e-06,-5.76907e-08,5.30753e-06,76.6875,13.09,-96.26,1.14581e+06,531250,-7.42823e-08,2.57684e-07,-1.14977e-07,0.00205237,0.0273227,-0.000359665,0.0276755,3,446
12,4.83796e-22,2,1573,78.48,-4.72996e-06,2.48978e-06,-4.85968e-08,5.34546e-06,80.0625,28.28,127.2,4.37488e+06,687500,-2.38199e-08,1.98265e-07,-9.91902e-08,0.00325412,0.0306753,0.000194949,0.0299568,3,447
12,6.66576e-22,1,1574,179.529,-4.72575e-06,2.52519e-06,-4.9711e-08,5.35834e-06,85.5,-34.91,-168.19,8.89556e+06,906250,1.42283e-08,1.61181e-07,-9.97084e-08,0.00345785,0.0330117,0.00034851,0.0315635,2,1125
12,7.5327e-22,1,1575,179.529,-4.70151e-06,2.58057e-06,-5.23278e-08,5.36342e-06,88,-34.91,-168.19,1.0833e+07,1e+06,2.28476e-08,1.56889e-07,-1.04118e-07,0.00302763,0.034231,0.000225398,0.0328783,2,1126
12,7.5327e-22,1,1576,179.529,-4.68006e-06,2.63777e-06,-5.35146e-08,5.37249e-06,88,-34.91,-168.19,1.0833e+07,1e+06,2.09286e-08,1.62156e-07,-1.06899e-07,0.00238251,0.0353455,3.73263e-05,0.0345225,2,1127
12,7.5327e-22,1,1577,179.529,-4.65965e-06,2.70294e-06,-5.52682e-08,5.38714e-06,88,-34.91,-168.19,1.0833e+07,1e+06,1.94272e-08,1.69007e-07,-1.10475e-07,0.00185738,0.0368521,-6.52005e-05,0.0364688,2,1128
12,7.5327e-22,1,1578,179.529,-4.6412e-06,2.77411e-06,-5.79656e-08,5.40738e-06,88,-34.91,-168.19,1.0833e+07,1e+06,1.72397e-08,1.80913e-07,-1.15934e-07,0.00123629,0.0395335,-1.39606e-05,0.0394673,2,1129
12,7.5327e-22,1,1579,179.529,-4.62517e-06,2.8401e-06,-6.06294e-08,5.4279e-06,88,-34.91,-168.19,1.0833e+07,1e+06,1.49477e-08,1.92989e-07,-1.21306e-07,0.000657204,0.0422196,6.58418e-05,0.0423004,2,1130
12,7.5327e-22,1,1580,179.529,-4.61131e-06,2.88861e-06,-6.21314e-08,5.4417e-06,88,-34.91,-168.19,1.0833e+07,1e+06,1.31275e-08,1.99993e-07,-1.2429e-07,0.000241048,0.0437151,7.64502e-05,0.0438349,2,1131
12,7.5327e-22,1,1581,179.529,-4.59892e-06,2.9149e-06,-6.2237e-08,5.44523e-06,88,-34.91,-168.19,1.0833e+07,1e+06,1.20328e-08,2.01168e-07,-1.2448e-07,3.55683e-05,0.0438994,4.40595e-05,0.0440063,2,1132
12,7.5327e-22,1,1582,179.529,-4.58724e-06,2.92146e-06,-6.13636e-08,5.43888e-06,88,-34.91,-168.19,1.0833e+07,1e+06,1.15068e-08,1.98487e-07,-1.22719e-07,-1.08375e-05,0.0432547,1.76526e-05,0.0433244,2,1133
12,7.5327e-22,1,1583,179.529,-4.5759e-06,2.91356e-06,-5.99607e-08,5.42506e-06,88,-34.91,-168.19,1.0833e+07,1e+06,1.12229e-08,1.93929e-07,-1.19928e-07,6.11987e-06,0.0422303,8.41693e-06,0.0422651,2,1134
12,7.5327e-22,1,1584,179.529,-4.5648e-06,2.89663e-06,-5.83663e-08,5.40659e-06,88,-34.91,-168.19,1.0833e+07,1e+06,1.08972e-08,1.88629e-07,-1.16734e-07,-6.44057e-06,0.0410596,-1.33765e-05,0.0411057,2,1135
12,7.5327e-22,1,1585,179.529,-4.55411e-06,2.87572e-06,-5.69901e-08,5.38637e-06,88,-34.91,-168.19,1.0833e+07,1e+06,1.01498e-08,1.8442e-07,-1.13968e-07,-0.000145388,0.040143,-4.35974e-05,0.0402841,2,1136
12,7.5327e-22,1,1586,179.529,-4.5445e-06,2.85311e-06,-5.6147e-08,5.36617e-06,88,-34.91,-168.19,1.0833e+07,1e+06,8.62338e-09,1.83001e-07,-1.1225e-07,-0.000469496,0.0398601,-4.44433e-05,0.040176,2,1137
12,7.5327e-22,1,1587,179.529,-4.53686e-06,2.82505e-06,-5.56178e-08,5.34482e-06,88,-34.91,-168.19,1.0833e+07,1e+06,6.30393e-09,1.84062e-07,-1.11218e-07,-0.000927351,0.0401375,2.32144e-05,0.0406454,2,1138
12,7.5327e-22,1,1588,179.529,-4.53189e-06,2.78111e-06,-5.45395e-08,5.31747e-06,88,-34.91,-168.19,1.0833e+07,1e+06,3.64471e-09,1.8372e-07,-1.09013e-07,-0.00137606,0.040089,0.000125628,0.0407613,2,1139
12,7.5327e-22,1,1589,179.529,-4.52957e-06,2.71198e-06,-5.15054e-08,5.27963e-06,88,-34.91,-168.19,1.0833e+07,1e+06,1.27763e-09,1.73058e-07,-1.02424e-07,-0.0018288,0.0375837,-0.000108698,0.038618,2,1140
12,6.52772e-22,1,1590,179.529,-4.52933e-06,2.62632e-06,-4.01689e-08,5.23584e-06,89,-34.9101,-168.19,8.24975e+06,875000,-1.59884e-08,1.63093e-07,-8.10979e-08,-0.00148252,0.0326881,0.000854078,0.0334385,2,1141
12,4.37021e-22,2,1591,76.16,-4.56155e-06,2.55528e-06,-3.19289e-08,5.2286e-06,92,-144.72,-126.88,3.08325e+06,625000,-6.08566e-08,1.80609e-07,-6.48203e-08,-0.00181472,0.0255309,0.00113537,0.026921,3,448
12,2.99633e-22,2,1592,9.76002,-4.65105e-06,2.52542e-06,-3.45262e-08,5.29256e-06,95.5,161.5,100.91,500000,500000,-1.07984e-07,2.12294e-07,-6.86379e-08,-0.00357745,0.0186078,-0.000119189,0.0216375,3,449
12,2.7012e-22,2,1593,9.76002,-4.77752e-06,2.5238e-06,-3.63497e-08,5.40329e-06,97.5,161.5,100.91,500000,500000,-1.30137e-07,2.27848e-07,-7.23335e-08,-0.00418339,0.0151729,-0.000381975,0.0182144,3,450
12,2.62742e-22,2,1594,9.76002,-4.91132e-06,2.51283e-06,-3.7378e-08,5.51695e-06,98,161.5,100.91,500000,500000,-1.29911e-07,2.27399e-07,-7.48763e-08,-0.00367348,0.0137384,-0.000613183,0.0162318,3,451
12,2.88909e-22,2,1595,9.76003,-5.03734e-06,2.47228e-06,-3.95512e-08,5.61146e-06,99.3125,161.5,100.91,1.14581e+06,531250,-1.19093e-07,2.24828e-07,-7.86111e-08,-0.00316671,0.0152674,-0.000686307,0.0177158,3,452
12,4.1974e-22,2,1596,9.76002,-5.14951e-06,2.45681e-06,-3.24768e-08,5.70565e-06,105.875,161.5,100.91,4.37488e+06,687500,-9.85203e-08,2.05997e-07,-6.44068e-08,-0.00308618,0.0226564,-6.4368e-05,0.025466,3,453
12,6.02903e-22,1,1597,64.15,-5.23438e-06,2.53098e-06,-2.49222e-08,5.81422e-06,115.062,-139.18,-156.59,8.89556e+06,906250,-7.66583e-08,1.87356e-07,-5.02515e-08,-0.00272416,0.0322507,-0.000214624,0.0346051,2,1142
12,6.81402e-22,1,1598,64.15,-5.30282e-06,2.64544e-06,-2.57237e-08,5.92613e-06,119,-139.18,-156.59,1.0833e+07,1e+06,-6.97161e-08,1.92777e-07,-5.16449e-08,-0.00200422,0.0377642,-0.000359141,0.0390225,2,1143
12,6.81402e-22,1,1599,64.15,-5.37381e-06,2.74896e-06,-2.63444e-08,6.03617e-06,119,-139.18,-156.59,1.0833e+07,1e+06,-7.18793e-08,2.02145e-07,-5.28012e-08,-0.00169849,0.0400166,8.07014e-05,0.0408737,2,1144
12,6.81402e-22,1,1600,64.15,-5.44658e-06,2.84532e-06,-2.72732e-08,6.14507e-06,119,-139.18,-156.59,1.0833e+07,1e+06,-7.22809e-08,2.07659e-07,-5.45472e-08,-0.00137646,0.041401,4.31073e-05,0.042147,2,1145
12,6.81402e-22,1,1601,64.15,-5.51837e-06,2.93164e-06,-2.77858e-08,6.24882e-06,119,-139.18,-156.59,1.0833e+07,1e+06,-7.05975e-08,2.09429e-07,-5.55585e-08,-0.000812303,0.042104,-1.33618e-05,0.0426525,2,1146
12,6.81402e-22,1,1602,64.15,-5.58778e-06,3.00826e-06,-2.80864e-08,6.34615e-06,119,-139.18,-156.59,1.0833e+07,1e+06,-6.81817e-08,2.09729e-07,-5.61683e-08,-0.000149797,0.042504,-3.20923e-05,0.0427993,2,1147
12,6.81402e-22,1,1603,64.15,-5.65474e-06,3.07724e-06,-2.83448e-08,6.43788e-06,119,-139.18,-156.59,1.0833e+07,1e+06,-6.60179e-08,2.09921e-07,-5.66871e-08,0.000451572,0.0428177,-3.65822e-05,0.0428757,2,1148
12,6.81402e-22,1,1604,64.15,-5.71981e-06,3.14065e-06,-2.8652e-08,6.52539e-06,119,-139.18,-156.59,1.0833e+07,1e+06,-6.46129e-08,2.10845e-07,-5.7303e-08,0.000919605,0.0431985,-3.62612e-05,0.0430635,2,1149
12,6.81402e-22,1,1605,64.15,-5.78396e-06,3.20035e-06,-2.90605e-08,6.61039e-06,119,-139.18,-156.59,1.0833e+07,1e+06,-6.43272e-08,2.132e-07,-5.8129e-08,0.00120591,0.0438027,-2.73244e-05,0.0435373,2,1150
12,6.81402e-22,1,1606,64.15,-5.84847e-06,3.25808e-06,-2.90116e-08,6.69481e-06,119,-139.18,-156.59,1.0833e+07,1e+06,-6.49427e-08,2.17492e-07,-5.79962e-08,0.0015048,0.0449525,0.000412537,0.0443124,2,1151
12,6.01582e-22,1,1607,64.15,-5.91385e-06,3.31544e-06,-3.12054e-08,6.77988e-06,118.75,-139.18,-156.59,8.24975e+06,875000,-6.62455e-08,2.23537e-07,-6.24019e-08,0.00126195,0.0444718,-0.000465798,0.0445117,2,1152
12,4.41943e-22,2,1608,145.75,-5.98096e-06,3.38537e-06,-3.07397e-08,6.87267e-06,118.25,-116.93,-175.81,3.08325e+06,625000,-6.91584e-08,2.29238e-07,-6.14867e-08,0.00117854,0.0423048,-0.000451084,0.0423874,3,454
12,3.62123e-22,2,1609,145.75,-6.05216e-06,3.46506e-06,-2.85252e-08,6.97396e-06,118,-116.93,-175.81,500000,500000,-7.2818e-08,2.33254e-07,-5.70256e-08,0.0012495,0.0415042,0.000471726,0.0409634,3,455
12,3.62123e-22,2,1610,145.75,-6.12659e-06,3.53985e-06,-2.9024e-08,7.07577e-06,118,-116.93,-175.81,500000,500000,-7.48447e-08,2.34559e-07,-5.80989e-08,0.000919886,0.0414968,5.86258e-05,0.0413014,3,456
12,3.62123e-22,2,1611,145.75,-6.20185e-06,3.61222e-06,-2.8068e-08,7.17718e-06,118,-116.93,-175.81,500000,500000,-7.54142e-08,2.31103e-07,-5.61211e-08,0.000849614,0.0407139,5.60145e-05,0.0404962,3,457
12,3.62123e-22,2,1612,145.75,-6.27742e-06,3.68673e-06,-2.6036e-08,7.28002e-06,118,-116.93,-175.81,500000,500000,-7.60805e-08,2.23486e-07,-5.19956e-08,0.000711529,0.0390738,9.60084e-05,0.0388169,3,458
12,3.62123e-22,2,1613,145.75,-6.35401e-06,3.76718e-06,-2.44359e-08,7.38686e-06,118,-116.93,-175.81,500000,500000,-7.44348e-08,2.17162e-07,-4.89499e-08,0.000953779,0.0378853,0.000359895,0.0373158,3,459
12,4.83288e-22,2,1614,145.75,-6.42629e-06,3.84564e-06,-2.62117e-08,7.48911e-06,119.5,-116.93,-175.81,3.08325e+06,625000,-5.62932e-08,1.96555e-07,-5.27468e-08,0.000973675,0.0373278,0.000345816,0.0367261,3,460
12,7.25618e-22,1,1615,57.67,-6.4666e-06,3.85453e-06,-3.07519e-08,7.5283e-06,122.5,-172.69,-138.33,8.24975e+06,875000,-2.6997e-08,1.66333e-07,-6.12589e-08,0.000551915,0.0372751,-0.000180798,0.0371195,2,1153
12,8.46782e-22,1,1616,57.67,-6.48029e-06,3.79432e-06,-3.34349e-08,7.50946e-06,124,-172.69,-138.33,1.0833e+07,1e+06,-1.36816e-08,1.61245e-07,-6.67979e-08,0.000792824,0.0393396,-9.71147e-05,0.0389804,2,1154
12,6.45258e-22,1,1617,73.27,-2.84498e-08,2.81444e-06,-2.55215e-08,2.8147e-06,8,-129.16,-171.71,1.0833e+07,1e+06,-5.74757e-08,1.62665e-07,-5.10444e-08,0.00108319,0.0254834,0.000273008,0.0248837,2,1155
12,6.45258e-22,1,1618,73.27,-8.65017e-08,2.84435e-06,-2.67e-08,2.84579e-06,8,-129.16,-171.71,1.0833e+07,1e+06,-5.98863e-08,1.66986e-07,-5.34128e-08,0.000955846,0.0259554,-0.000298745,0.0257309,2,1156
12,6.45258e-22,1,1619,73.27,-1.48222e-07,2.87357e-06,-2.70254e-08,2.87752e-06,8,-129.16,-171.71,1.0833e+07,1e+06,-6.47017e-08,1.74842e-07,-5.40866e-08,0.000591897,0.0272099,-1.62429e-05,0.027087,2,1157
12,6.45258e-22,1,1620,73.27,-2.15905e-07,2.90609e-06,-2.84199e-08,2.91424e-06,8,-129.16,-171.71,1.0833e+07,1e+06,-7.15942e-08,1.86261e-07,-5.67485e-08,-6.80943e-05,0.0287591,1.90779e-05,0.0289867,2,1158
12,6.45258e-22,1,1621,73.27,-2.91411e-07,2.94758e-06,-2.99502e-08,2.9621e-06,8,-129.16,-171.71,1.0833e+07,1e+06,-7.99072e-08,2.00101e-07,-6.04425e-08,-0.00091725,0.0305141,2.16292e-05,0.0311036,2,1159
12,6.11466e-22,1,1622,73.27,-3.7572e-07,3.0048e-06,-3.16349e-08,3.02836e-06,9.0625,-129.16,-171.71,9.54138e+06,937500,-8.89229e-08,2.13778e-07,-6.31021e-08,-0.00183636,0.032215,-0.000346342,0.0335213,2,1160
12,5.08516e-22,1,1623,73.27,-4.69256e-07,3.08435e-06,-2.75852e-08,3.11996e-06,13.0625,-129.16,-171.71,5.6665e+06,750000,-1.00738e-07,2.18282e-07,-5.42354e-08,-0.0025916,0.0318616,-0.000168702,0.0337409,2,1161
12,3.98216e-22,2,1624,153.64,-5.77196e-07,3.18762e-06,-2.36664e-08,3.23954e-06,19.25,-177.01,-156.76,1.79163e+06,562500,-1.04293e-07,2.11916e-07,-4.70257e-08,-0.00350707,0.0304856,-0.00087882,0.0335773,3,461
12,3.49892e-22,2,1625,84.77,-6.77842e-07,3.27591e-06,-2.72584e-08,3.34542e-06,24.0625,-156.44,-54.66,500000,500000,-8.65998e-08,1.99585e-07,-5.51694e-08,-0.00479492,0.0302938,-0.00133194,0.0343743,3,462
12,3.41309e-22,2,1626,84.77,-7.50396e-07,3.31938e-06,-3.1726e-08,3.40329e-06,25.8125,-156.44,-54.66,500000,500000,-6.5119e-08,1.90287e-07,-6.44666e-08,-0.00524864,0.030364,0.000257932,0.0335375,3,463
12,3.39907e-22,2,1627,84.77,-8.0808e-07,3.3337e-06,-3.66372e-08,3.43044e-06,26,-156.44,-54.66,500000,500000,-5.45267e-08,1.89161e-07,-7.27894e-08,-0.00506115,0.0302666,0.000645653,0.032959,3,464
12,3.39907e-22,2,1628,84.77,-8.59449e-07,3.33196e-06,-3.99132e-08,3.44125e-06,26,-156.44,-54.66,500000,500000,-4.97306e-08,1.88604e-07,-7.94113e-08,-0.00508367,0.0298753,6.37228e-05,0.0328756,3,465
12,3.39907e-22,2,1629,84.77,-9.07541e-07,3.3252e-06,-3.99567e-08,3.44706e-06,26,-156.44,-54.66,500000,500000,-4.80251e-08,1.86002e-07,-8.00768e-08,-0.00506022,0.0293378,-7.5389e-05,0.0323898,3,466
12,3.39907e-22,2,1630,84.77,-9.555e-07,3.32365e-06,-3.91792e-08,3.45849e-06,26,-156.44,-54.66,500000,500000,-4.88173e-08,1.83782e-07,-7.83318e-08,-0.00512603,0.0289143,-0.000115758,0.0320053,3,467
12,3.39907e-22,2,1631,84.77,-1.00518e-06,3.33268e-06,-3.84245e-08,3.48118e-06,26,-156.44,-54.66,500000,500000,-5.07882e-08,1.8375e-07,-7.70663e-08,-0.00529118,0.0288435,-0.000187846,0.032037,3,468
12,3.39907e-22,2,1632,84.77,-1.05708e-06,3.35315e-06,-3.78304e-08,3.51603e-06,26,-156.44,-54.66,500000,500000,-5.27814e-08,1.84591e-07,-7.50587e-08,-0.00535405,0.0291021,-2.59801e-05,0.0322479,3,469
12,3.44283e-22,2,1633,84.77,-1.11074e-06,3.38061e-06,-3.3474e-08,3.55856e-06,26.125,-156.44,-54.66,500000,500000,-5.50431e-08,1.79173e-07,-6.66603e-08,-0.00526886,0.0286403,0.000650766,0.0316012,3,470
12,4.1978e-22,2,1634,84.77,-1.16716e-06,3.41274e-06,-2.93327e-08,3.60693e-06,28.25,-156.44,-54.66,2.43744e+06,593750,-6.31537e-08,1.77385e-07,-5.92889e-08,-0.00509416,0.0277074,0.000911078,0.0308951,3,471
12,5.7552e-22,1,1635,80.81,-1.23705e-06,3.44304e-06,-3.14825e-08,3.65866e-06,32.625,-129.97,-177.44,6.95813e+06,812500,-7.71876e-08,1.88791e-07,-6.27988e-08,-0.00448974,0.0266737,0.000290893,0.0296894,2,1162
12,6.78011e-22,1,1636,80.81,-1.32154e-06,3.46657e-06,-3.21698e-08,3.71007e-06,35.5,-129.97,-177.44,1.01872e+07,968750,-8.64418e-08,1.98957e-07,-6.41998e-08,-0.00354964,0.026412,0.000858928,0.028199,2,1163
12,6.95884e-22,1,1637,80.81,-1.40993e-06,3.49738e-06,-3.2322e-08,3.77103e-06,36,-129.97,-177.44,1.0833e+07,1e+06,-8.94582e-08,2.07648e-07,-6.54793e-08,-0.00286182,0.027615,0.0013752,0.0287113,2,1164
12,6.95884e-22,1,1638,80.81,-1.50045e-06,3.54216e-06,-3.63749e-08,3.84703e-06,36,-129.97,-177.44,1.0833e+07,1e+06,-9.12215e-08,2.22027e-07,-7.32441e-08,-0.00197733,0.0296665,0.000843845,0.0304338,2,1165
12,6.95884e-22,1,1639,80.81,-1.59237e-06,3.59191e-06,-4.02613e-08,3.92926e-06,36,-129.97,-177.44,1.0833e+07,1e+06,-9.16733e-08,2.34067e-07,-7.9934e-08,-0.000991204,0.0315229,0.000429557,0.0318766,2,1166
12,6.95884e-22,1,1640,80.81,-1.6838e-06,3.64284e-06,-4.29624e-08,4.01339e-06,36,-129.97,-177.44,1.0833e+07,1e+06,-9.19168e-08,2.43312e-07,-8.54401e-08,-0.000251117,0.0329043,4.07864e-05,0.0330883,2,1167
12,6.95884e-22,1,1641,80.81,-1.77621e-06,3.69973e-06,-4.56998e-08,4.10427e-06,36,-129.97,-177.44,1.0833e+07,1e+06,-9.48065e-08,2.5722e-07,-9.16733e-08,0.000339886,0.0348361,-0.000110027,0.0349568,2,1168
12,6.37602e-22,1,1642,80.81,-1.87341e-06,3.77014e-06,-5.03199e-08,4.21024e-06,36.9375,-129.97,-177.44,8.89556e+06,906250,-1.03496e-07,2.77354e-07,-1.00759e-07,0.00074347,0.0341845,0.000289086,0.0344189,2,1169
12,5.0161e-22,2,1643,150.54,-1.9832e-06,3.86199e-06,-5.61361e-08,4.34179e-06,39.125,178.09,96.28,4.37488e+06,687500,-1.13933e-07,2.863e-07,-1.12611e-07,4.90813e-05,0.0266446,0.000269224,0.0273269,3,472
12,4.32106e-22,2,1644,150.54,-2.10128e-06,3.94874e-06,-6.03807e-08,4.47343e-06,41.5625,178.09,96.28,1.79162e+06,562500,-1.10836e-07,2.78039e-07,-1.20365e-07,-0.000686211,0.0214172,-0.000866707,0.0228853,3,473
12,5.50844e-22,2,1645,150.54,-2.20487e-06,3.9823e-06,-5.4225e-08,4.55226e-06,46.25,178.09,96.28,4.37488e+06,687500,-8.91934e-08,2.58354e-07,-1.07179e-07,0.000382831,0.0293212,-0.00169141,0.0312464,3,474
12,7.44276e-22,1,1646,130.6,-2.27967e-06,3.97141e-06,-3.85097e-08,4.57935e-06,52.375,117.2,-48.36,8.89556e+06,906250,-6.62938e-08,2.31561e-07,-7.74853e-08,0.00237523,0.0404496,-0.000309517,0.040633,2,1170
12,8.27175e-22,1,1647,130.6,-2.33746e-06,3.96663e-06,-3.19884e-08,4.60423e-06,55,117.2,-48.36,1.0833e+07,1e+06,-5.63266e-08,2.17457e-07,-6.45915e-08,0.00363135,0.0435741,0.000648871,0.0420196,2,1171
12,8.27175e-22,1,1648,130.6,-2.39232e-06,3.98695e-06,-3.43216e-08,4.64975e-06,55,117.2,-48.36,1.0833e+07,1e+06,-5.40968e-08,2.16338e-07,-6.87769e-08,0.00399927,0.0426518,-0.00032088,0.0412965,2,1172
12,7.5664e-22,1,1649,130.6,-2.44565e-06,4.03549e-06,-3.57791e-08,4.71886e-06,54.625,117.2,-48.36,9.54138e+06,937500,-5.30713e-08,2.21938e-07,-7.26593e-08,0.00414943,0.0424893,3.42458e-05,0.0416533,2,1173
12,5.88483e-22,2,1650,144.83,-2.49846e-06,4.06964e-06,-4.61381e-08,4.77561e-06,53.375,155.44,38.05,6.31231e+06,781250,-5.44868e-08,2.46562e-07,-9.09991e-08,0.00443342,0.0418724,-8.77495e-05,0.0416707,3,475
12,4.63776e-22,2,1651,144.83,-2.55462e-06,4.02168e-06,-5.26037e-08,4.76474e-06,52,155.44,38.05,3.72906e+06,656250,-5.98392e-08,2.54225e-07,-1.04274e-07,0.00324205,0.0374181,-0.00137125,0.0379093,3,476
12,4.58135e-22,2,1652,144.83,-2.61814e-06,3.92402e-06,-4.49278e-08,4.71748e-06,53.75,155.44,38.05,4.37488e+06,687500,-7.03356e-08,2.28858e-07,-9.04206e-08,-7.82431e-06,0.03171,-0.0019471,0.0338043,3,477
12,5.11744e-22,1,1653,80.41,-2.6953e-06,3.86891e-06,-3.77304e-08,4.71535e-06,59.375,-123.18,-170.23,7.60394e+06,843750,-8.38676e-08,2.15365e-07,-7.54308e-08,-0.00246054,0.02984,-0.00140449,0.0328267,2,1174
12,5.54632e-22,1,1654,80.41,-2.78588e-06,3.868e-06,-3.63988e-08,4.76696e-06,63.875,-123.18,-170.23,1.01872e+07,968750,-9.0225e-08,2.22241e-07,-7.33825e-08,-0.00229128,0.0312993,-0.000269517,0.0331465,2,1175
12,5.65354e-22,1,1655,80.41,-2.87575e-06,3.87334e-06,-3.87526e-08,4.82433e-06,65,-123.18,-170.23,1.0833e+07,1e+06,-8.55653e-08,2.28492e-07,-7.74114e-08,-0.000470676,0.0329262,2.01267e-05,0.0335205,2,1176
12,5.65354e-22,1,1656,80.41,-2.95701e-06,3.86933e-06,-3.97928e-08,4.87003e-06,65,-123.18,-170.23,1.0833e+07,1e+06,-7.78749e-08,2.26466e-07,-7.94812e-08,0.00115377,0.0332286,-0.000124567,0.033102,2,1177
12,5.65354e-22,1,1657,80.41,-3.03149e-06,3.85867e-06,-3.9998e-08,4.90723e-06,65,-123.18,-170.23,1.0833e+07,1e+06,-7.23251e-08,2.2413e-07,-8.00058e-08,0.00232102,0.0333315,-6.18655e-05,0.0326094,2,1178
12,5.65354e-22,1,1658,80.41,-3.10166e-06,3.84405e-06,-4.02608e-08,4.9395e-06,65,-123.18,-170.23,1.0833e+07,1e+06,-6.8596e-08,2.22772e-07,-8.05248e-08,0.00312781,0.033407,-2.61632e-05,0.032276,2,1179
12,5.65354e-22,1,1659,80.41,-3.16869e-06,3.82656e-06,-4.06878e-08,4.96838e-06,65,-123.18,-170.23,1.0833e+07,1e+06,-6.58417e-08,2.22643e-07,-8.13814e-08,0.00379931,0.0335975,-1.14118e-05,0.0321419,2,1180
12,5.65354e-22,1,1660,80.41,-3.23334e-06,3.80659e-06,-4.13834e-08,4.99463e-06,65,-123.18,-170.23,1.0833e+07,1e+06,-6.38506e-08,2.24124e-07,-8.27778e-08,0.00442517,0.0340006,-1.13493e-05,0.0322641,2,1181
12,5.65354e-22,1,1661,80.41,-3.29639e-06,3.7843e-06,-4.24882e-08,5.01886e-06,65,-123.18,-170.23,1.0833e+07,1e+06,-6.29752e-08,2.28093e-07,-8.50207e-08,0.00499859,0.0347381,-3.30032e-05,0.0327676,2,1182
12,5.65354e-22,1,1662,80.41,-3.35929e-06,3.76022e-06,-4.43833e-08,5.04243e-06,65,-123.18,-170.23,1.0833e+07,1e+06,-6.46841e-08,2.36461e-07,-8.87476e-08,0.00530094,0.0359768,-0.000120349,0.0339066,2,1183
12,5.65354e-22,1,1663,80.41,-3.42576e-06,3.73704e-06,-4.66168e-08,5.06986e-06,65,-123.18,-170.23,1.0833e+07,1e+06,-7.15211e-08,2.52606e-07,-9.36867e-08,0.00511919,0.0381149,8.87911e-05,0.0359046,2,1184
12,5.27949e-22,1,1664,80.41,-3.50233e-06,3.71913e-06,-5.41173e-08,5.10893e-06,68.25,-123.18,-170.23,8.24975e+06,875000,-8.91032e-08,2.80587e-07,-1.084e-07,0.00397711,0.0366409,-0.000530838,0.0361504,2,1185
12,4.53141e-22,2,1665,31.67,-3.60396e-06,3.68393e-06,-6.77153e-08,5.15407e-06,74.75,13.09,-96.26,3.08325e+06,625000,-1.11199e-07,3.13923e-07,-1.34114e-07,0.00269543,0.0287069,-0.000872765,0.0291097,3,478
12,4.15736e-22,2,1666,31.67,-3.72473e-06,3.61408e-06,-7.38655e-08,5.19044e-06,78,13.09,-96.26,500000,500000,-1.20138e-07,3.28002e-07,-1.47729e-07,0.00201765,0.0234782,-0.000359267,0.0232571,3,479
12,4.15736e-22,2,1667,31.67,-3.84424e-06,3.52286e-06,-7.29334e-08,5.21479e-06,78,13.09,-96.26,500000,500000,-1.18081e-07,3.24779e-07,-1.46645e-07,0.00189282,0.0234473,-0.000237606,0.0235376,3,480
12,4.15736e-22,2,1668,31.67,-3.96089e-06,3.41795e-06,-7.31131e-08,5.23225e-06,78,13.09,-96.26,500000,500000,-1.17345e-07,3.24574e-07,-1.4612e-07,0.00202488,0.0236257,-0.000106955,0.023807,3,481
12,4.15736e-22,2,1669,31.67,-4.07893e-06,3.30301e-06,-7.40141e-08,5.24909e-06,78,13.09,-96.26,500000,500000,-1.20074e-07,3.3023e-07,-1.48125e-07,0.00196899,0.0240346,-7.42637e-05,0.0243028,3,482
12,4.15736e-22,2,1670,31.67,-4.20104e-06,3.18114e-06,-7.54345e-08,5.27011e-06,78,13.09,-96.26,500000,500000,-1.24243e-07,3.38082e-07,-1.51209e-07,0.00183561,0.0244666,-0.000122821,0.0247379,3,483
12,4.15736e-22,2,1671,31.67,-4.32741e-06,3.05354e-06,-7.67925e-08,5.29684e-06,78,13.09,-96.26,500000,500000,-1.29131e-07,3.44865e-07,-1.53525e-07,0.00150002,0.024702,-0.000198733,0.0249741,3,484
12,4.15736e-22,2,1672,31.67,-4.4593e-06,2.92828e-06,-7.67188e-08,5.33536e-06,78,13.09,-96.26,500000,500000,-1.32222e-07,3.4654e-07,-1.53188e-07,0.00111502,0.0246223,-0.00018508,0.024983,3,485
12,4.04033e-22,2,1673,31.67,-4.59186e-06,2.81252e-06,-7.20244e-08,5.38522e-06,77.6875,13.09,-96.26,500000,500000,-1.20645e-07,3.25858e-07,-1.4335e-07,0.00119666,0.024935,-0.000272927,0.0254674,3,486
12,4.55618e-22,2,1674,31.67,-4.70059e-06,2.71951e-06,-6.40017e-08,5.43097e-06,79.25,13.09,-96.26,2.43744e+06,593750,-7.50466e-08,2.70283e-07,-1.27409e-07,0.00201315,0.0281189,-0.000341742,0.0286067,3,487
12,6.14992e-22,1,1675,179.529,-4.74195e-06,2.69285e-06,-5.689e-08,5.45351e-06,83.9375,-34.9101,-168.19,6.95813e+06,812500,-1.13316e-08,2.0063e-07,-1.14825e-07,0.00349603,0.0318353,-0.000174632,0.0313949,2,1186
12,7.32174e-22,1,1676,179.529,-4.72326e-06,2.73517e-06,-5.34899e-08,5.45831e-06,87.375,-34.91,-168.19,1.01872e+07,968750,2.38153e-08,1.61971e-07,-1.07693e-07,0.00445757,0.033589,0.000264088,0.0319328,2,1187
12,7.5327e-22,1,1677,179.529,-4.69432e-06,2.79838e-06,-5.34928e-08,5.46538e-06,88,-34.91,-168.19,1.0833e+07,1e+06,2.69923e-08,1.57544e-07,-1.06589e-07,0.00388076,0.0344554,0.000302425,0.0329333,2,1188
12,7.5327e-22,1,1678,179.529,-4.66927e-06,2.87021e-06,-5.536e-08,5.48117e-06,88,-34.91,-168.19,1.0833e+07,1e+06,2.44225e-08,1.64439e-07,-1.1037e-07,0.00299904,0.0358933,1.5324e-05,0.0351633,2,1189
12,7.5327e-22,1,1679,179.529,-4.64548e-06,2.95478e-06,-5.91191e-08,5.50588e-06,88,-34.91,-168.19,1.0833e+07,1e+06,2.24466e-08,1.80342e-07,-1.18249e-07,0.00236948,0.0394603,7.63852e-05,0.0390579,2,1190
12,7.5327e-22,1,1680,179.529,-4.62438e-06,3.03458e-06,-6.29339e-08,5.5315e-06,88,-34.91,-168.19,1.0833e+07,1e+06,1.97375e-08,1.96868e-07,-1.25949e-07,0.00166477,0.0431103,0.000163333,0.0428032,2,1191
12,7.5327e-22,1,1681,179.529,-4.606e-06,3.09073e-06,-6.48899e-08,5.54726e-06,88,-34.91,-168.19,1.0833e+07,1e+06,1.77805e-08,2.05008e-07,-1.29821e-07,0.00119019,0.0447891,0.000104779,0.0444842,2,1192
12,7.5327e-22,1,1682,179.529,-4.58882e-06,3.1179e-06,-6.48804e-08,5.54822e-06,88,-34.91,-168.19,1.0833e+07,1e+06,1.70342e-08,2.0524e-07,-1.29772e-07,0.00107633,0.0447295,4.70822e-05,0.04433,2,1193
12,7.5327e-22,1,1683,179.529,-4.57193e-06,3.12115e-06,-6.36979e-08,5.53608e-06,88,-34.91,-168.19,1.0833e+07,1e+06,1.69418e-08,2.0099e-07,-1.27352e-07,0.00114989,0.0437304,1.97242e-05,0.0432254,2,1194
12,7.5327e-22,1,1684,179.529,-4.55493e-06,3.10811e-06,-6.2019e-08,5.51467e-06,88,-34.91,-168.19,1.0833e+07,1e+06,1.70477e-08,1.95391e-07,-1.24039e-07,0.00128326,0.0424932,4.2767e-05,0.0418826,2,1195
12,7.5327e-22,1,1685,179.529,-4.53784e-06,3.08524e-06,-6.01033e-08,5.48765e-06,88,-34.91,-168.19,1.0833e+07,1e+06,1.70178e-08,1.88612e-07,-1.20256e-07,0.00133306,0.0409889,-2.46116e-06,0.0403797,2,1196
12,7.5327e-22,1,1686,179.529,-4.5209e-06,3.05972e-06,-5.85255e-08,5.45929e-06,88,-34.91,-168.19,1.0833e+07,1e+06,1.65582e-08,1.83351e-07,-1.17045e-07,0.00125326,0.0398555,-3.31417e-05,0.0393304,2,1197
12,7.5327e-22,1,1687,179.529,-4.50472e-06,3.03599e-06,-5.78705e-08,5.4326e-06,88,-34.91,-168.19,1.0833e+07,1e+06,1.50095e-08,1.82355e-07,-1.15667e-07,0.000883974,0.0396717,-5.85158e-05,0.0393758,2,1198
12,7.5327e-22,1,1688,179.529,-4.49088e-06,3.01024e-06,-5.81481e-08,5.40675e-06,88,-34.91,-168.19,1.0833e+07,1e+06,1.18056e-08,1.864e-07,-1.15945e-07,0.000169126,0.0406165,-9.57536e-06,0.0406451,2,1199
12,7.5327e-22,1,1689,179.529,-4.48111e-06,2.96784e-06,-5.7798e-08,5.37511e-06,88,-34.91,-168.19,1.0833e+07,1e+06,9.18737e-09,1.90076e-07,-1.15294e-07,-0.00019987,0.0415426,0.000280675,0.0415908,2,1200
12,7.22612e-22,1,1690,179.529,-4.4725e-06,2.88642e-06,-5.4866e-08,5.32332e-06,88.625,-34.91,-168.19,1.01872e+07,968750,1.28444e-09,1.87289e-07,-1.10782e-07,-0.000643903,0.0386434,0.000171244,0.0390839,2,1201
12,5.767e-22,1,1691,179.529,-4.47854e-06,2.79386e-06,-4.97577e-08,5.27877e-06,91.25,-34.9101,-168.19,6.95813e+06,812500,-3.75585e-08,2.024e-07,-1.00284e-07,-0.00169463,0.0318126,0.000481401,0.0331686,2,1202
12,3.69472e-22,2,1692,9.76003,-4.54762e-06,2.75803e-06,-4.67586e-08,5.31881e-06,95.125,161.5,100.91,2.43744e+06,593750,-1.00213e-07,2.40507e-07,-9.26893e-08,-0.00291423,0.0236705,0.00038728,0.0261621,3,488
12,2.7012e-22,2,1693,9.76003,-4.67897e-06,2.7686e-06,-4.59329e-08,5.43691e-06,97.5,161.5,100.91,500000,500000,-1.36331e-07,2.61881e-07,-9.14646e-08,-0.00357137,0.0181186,-0.000299331,0.0209818,3,489
12,2.62742e-22,2,1694,9.76003,-4.82028e-06,2.77199e-06,-4.47323e-08,5.56067e-06,98,161.5,100.91,500000,500000,-1.36894e-07,2.57413e-07,-8.96116e-08,-0.00323394,0.0164032,-0.000249896,0.0185551,3,490
12,2.62742e-22,2,1695,9.76003,-4.95276e-06,2.75313e-06,-4.44424e-08,5.6667e-06,98,161.5,100.91,500000,500000,-1.30809e-07,2.49563e-07,-8.91386e-08,-0.00282406,0.0155883,-0.00038509,0.017413,3,491
12,2.62742e-22,2,1696,9.76003,-5.0819e-06,2.71532e-06,-4.66486e-08,5.76202e-06,98,161.5,100.91,500000,500000,-1.2789e-07,2.49434e-07,-9.19847e-08,-0.00252188,0.0154394,-0.000561609,0.0171275,3,492
12,3.67407e-22,2,1697,9.76002,-5.20854e-06,2.68128e-06,-3.48979e-08,5.85827e-06,103.25,161.5,100.91,3.08325e+06,625000,-1.09303e-07,2.27256e-07,-7.03759e-08,-0.00150601,0.0222821,0.000998546,0.0234693,3,493
12,5.76737e-22,1,1698,64.15,-5.30051e-06,2.72345e-06,-2.36634e-08,5.95929e-06,113.75,-139.18,-156.59,8.24975e+06,875000,-7.73418e-08,1.92752e-07,-4.86665e-08,-0.000811822,0.0322849,0.000993212,0.0330787,2,1203
12,6.81402e-22,1,1699,64.15,-5.36322e-06,2.83688e-06,-2.60684e-08,6.06735e-06,119,-139.18,-156.59,1.0833e+07,1e+06,-6.59857e-08,1.92916e-07,-5.13648e-08,-0.000773223,0.038159,7.18161e-05,0.0385084,2,1204
12,6.81402e-22,1,1700,64.15,-5.43248e-06,2.95229e-06,-2.67996e-08,6.18292e-06,119,-139.18,-156.59,1.0833e+07,1e+06,-7.10808e-08,2.06971e-07,-5.35715e-08,-0.000968004,0.0413653,0.000407797,0.0416907,2,1205
12,6.81402e-22,1,1701,64.15,-5.50538e-06,3.05464e-06,-2.78566e-08,6.2961e-06,119,-139.18,-156.59,1.0833e+07,1e+06,-7.19574e-08,2.11088e-07,-5.56548e-08,-0.00103268,0.042375,3.62579e-05,0.0430107,2,1206
12,6.81402e-22,1,1702,64.15,-5.57639e-06,3.14209e-06,-2.81511e-08,6.40076e-06,119,-139.18,-156.59,1.0833e+07,1e+06,-6.94772e-08,2.11181e-07,-5.62882e-08,-0.00040319,0.042773,-2.93092e-05,0.0432288,2,1207
12,6.81402e-22,1,1703,64.15,-5.64434e-06,3.21843e-06,-2.82889e-08,6.49751e-06,119,-139.18,-156.59,1.0833e+07,1e+06,-6.64684e-08,2.10188e-07,-5.65815e-08,0.000316109,0.0429175,-3.95672e-05,0.0431118,2,1208
12,6.81402e-22,1,1704,64.15,-5.70933e-06,3.28714e-06,-2.84423e-08,6.58806e-06,119,-139.18,-156.59,1.0833e+07,1e+06,-6.38666e-08,2.09367e-07,-5.68788e-08,0.000958876,0.0430125,-4.18921e-05,0.0429459,2,1209
12,6.81402e-22,1,1705,64.15,-5.77207e-06,3.35117e-06,-2.87002e-08,6.67442e-06,119,-139.18,-156.59,1.0833e+07,1e+06,-6.21459e-08,2.09663e-07,-5.73923e-08,0.00147186,0.0432433,-4.07774e-05,0.0429389,2,1210
12,6.81402e-22,1,1706,64.15,-5.83362e-06,3.41308e-06,-2.91064e-08,6.75878e-06,119,-139.18,-156.59,1.0833e+07,1e+06,-6.17116e-08,2.11648e-07,-5.82165e-08,0.00178003,0.0437287,-4.35595e-05,0.0432528,2,1211
12,6.81402e-22,1,1707,64.15,-5.89549e-06,3.47514e-06,-2.90165e-08,6.84356e-06,119,-139.18,-156.59,1.0833e+07,1e+06,-6.24155e-08,2.16033e-07,-5.8043e-08,0.00208667,0.0448605,0.000428717,0.0439458,2,1212
12,6.01582e-22,1,1708,64.15,-5.95845e-06,3.53866e-06,-3.15607e-08,6.9301e-06,118.75,-139.18,-156.59,8.24975e+06,875000,-6.2865e-08,2.22925e-07,-6.31234e-08,0.00197543,0.0446048,-0.000392147,0.0442675,2,1213
12,4.41943e-22,2,1709,145.75,-6.02122e-06,3.61382e-06,-3.17794e-08,7.02252e-06,118.25,-116.93,-175.81,3.08325e+06,625000,-6.32705e-08,2.27601e-07,-6.36048e-08,0.00199981,0.0423396,-0.000398223,0.0420037,3,494
12,3.62123e-22,2,1710,145.75,-6.08499e-06,3.69713e-06,-2.99993e-08,7.12017e-06,118,-116.93,-175.81,500000,500000,-6.49748e-08,2.29932e-07,-6.03009e-08,0.00208176,0.0412508,0.000413832,0.0403343,3,495
12,3.62123e-22,2,1711,145.75,-6.15117e-06,3.77308e-06,-3.08387e-08,7.21623e-06,118,-116.93,-175.81,500000,500000,-6.65255e-08,2.30168e-07,-6.15986e-08,0.00174078,0.0410336,-0.000120071,0.0405369,3,496
12,3.62123e-22,2,1712,145.75,-6.21804e-06,3.84118e-06,-2.97884e-08,7.30887e-06,118,-116.93,-175.81,500000,500000,-6.69485e-08,2.24828e-07,-5.92111e-08,0.00157159,0.0398728,-0.000201021,0.0394464,3,497
12,3.62123e-22,2,1713,145.75,-6.28507e-06,3.90719e-06,-2.73032e-08,7.40061e-06,118,-116.93,-175.81,500000,500000,-6.6887e-08,2.16547e-07,-5.47667e-08,0.00157155,0.038156,-6.18844e-05,0.0375718,3,498
12,3.92414e-22,2,1714,145.75,-6.35182e-06,3.98223e-06,-2.6592e-08,7.49696e-06,118.375,-116.93,-175.81,1.14581e+06,531250,-6.17796e-08,2.07346e-07,-5.27449e-08,0.00167977,0.0373003,0.000216084,0.036507,3,499
12,5.4387e-22,2,1715,145.75,-6.40863e-06,4.03789e-06,-2.76884e-08,7.57468e-06,120.25,-116.93,-175.81,4.37488e+06,687500,-4.46724e-08,1.81554e-07,-5.53357e-08,0.000613741,0.0359135,-0.000149501,0.0358418,3,500
12,7.55909e-22,1,1716,57.67,-6.44116e-06,4.01905e-06,-3.04589e-08,7.59225e-06,122.875,-172.69,-138.33,8.89556e+06,906250,-2.49251e-08,1.60757e-07,-6.12933e-08,-0.000327074,0.0368201,-0.000403169,0.037266,2,1214
12,8.46782e-22,1,1717,57.67,-6.45848e-06,3.95607e-06,-3.30493e-08,7.57387e-06,124,-172.69,-138.33,1.0833e+07,1e+06,-1.7108e-08,1.63666e-07,-6.61305e-08,1.7761e-05,0.0399192,-6.93146e-05,0.0399655,2,1215
12,6.45258e-22,1,1718,73.27,-3.16218e-08,2.98065e-06,-2.61571e-08,2.98093e-06,8,-129.16,-171.71,1.0833e+07,1e+06,-6.3776e-08,1.69745e-07,-5.2322e-08,0.00010373,0.0261858,0.000302899,0.0260484,2,1216
12,6.45258e-22,1,1719,73.27,-9.59302e-08,3.01474e-06,-2.73541e-08,3.01639e-06,8,-129.16,-171.71,1.0833e+07,1e+06,-6.61137e-08,1.73394e-07,-5.47385e-08,-8.14526e-05,0.0264755,-0.000349043,0.0267352,2,1217
12,6.45258e-22,1,1720,73.27,-1.63849e-07,3.0515e-06,-2.73975e-08,3.05602e-06,8,-129.16,-171.71,1.0833e+07,1e+06,-7.1084e-08,1.79714e-07,-5.4805e-08,-0.000648841,0.0273672,-3.76476e-05,0.0277861,2,1218
12,6.45258e-22,1,1721,73.27,-2.38098e-07,3.09438e-06,-2.80891e-08,3.10366e-06,8,-129.16,-171.71,1.0833e+07,1e+06,-7.79308e-08,1.89172e-07,-5.61864e-08,-0.00147627,0.0285706,0.000196462,0.0293103,2,1219
12,6.29148e-22,1,1722,73.27,-3.19711e-07,3.1473e-06,-2.85875e-08,3.16363e-06,8.125,-129.16,-171.71,1.01872e+07,968750,-8.48405e-08,1.9733e-07,-5.64614e-08,-0.0024905,0.0298782,0.000135755,0.0312347,2,1220
12,5.64706e-22,1,1723,73.27,-4.07779e-07,3.21241e-06,-2.56097e-08,3.23829e-06,8.625,-129.16,-171.71,7.60394e+06,843750,-9.15506e-08,2.01066e-07,-5.02657e-08,-0.00339958,0.0317417,-0.000401997,0.0340573,2,1221
12,4.60662e-22,2,1724,102.34,-5.02812e-07,3.29091e-06,-1.75498e-08,3.32915e-06,10.4375,54.45,119.09,3.72906e+06,656250,-9.6083e-08,2.00286e-07,-3.56057e-08,-0.00310806,0.0330494,0.00041863,0.0351189,3,501
12,3.74104e-22,2,1725,102.34,-5.99945e-07,3.38357e-06,-1.8041e-08,3.4364e-06,15.25,54.45,119.09,1.14581e+06,531250,-8.74055e-08,1.96235e-07,-3.81991e-08,-0.00291101,0.031912,0.000954509,0.0339341,3,502
12,3.38747e-22,2,1726,84.77,-6.77623e-07,3.4645e-06,-2.98445e-08,3.53027e-06,21.5625,-156.44,-54.66,500000,500000,-6.75193e-08,1.95032e-07,-6.06594e-08,-0.0036552,0.0310288,0.000570961,0.0335372,3,503
12,3.3707e-22,2,1727,84.77,-7.34984e-07,3.51064e-06,-3.84267e-08,3.58696e-06,25.25,-156.44,-54.66,500000,500000,-5.51696e-08,1.96561e-07,-7.54272e-08,-0.00434014,0.0312707,0.000642625,0.0336297,3,504
12,3.39907e-22,2,1728,84.77,-7.87962e-07,3.52654e-06,-4.08785e-08,3.61373e-06,26,-156.44,-54.66,500000,500000,-5.16766e-08,1.95145e-07,-8.09179e-08,-0.00490089,0.0308192,0.000227899,0.0335273,3,505
12,3.39907e-22,2,1729,84.77,-8.38337e-07,3.5219e-06,-4.06669e-08,3.62053e-06,26,-156.44,-54.66,500000,500000,-4.98884e-08,1.90855e-07,-8.15201e-08,-0.0051372,0.0300583,-7.2364e-05,0.0331213,3,506
12,3.39907e-22,2,1730,84.77,-8.87739e-07,3.51113e-06,-3.90612e-08,3.62183e-06,26,-156.44,-54.66,500000,500000,-5.01119e-08,1.8571e-07,-7.85181e-08,-0.00525435,0.0292208,-0.000107068,0.0323803,3,507
12,3.39907e-22,2,1731,84.77,-9.38561e-07,3.507e-06,-3.73477e-08,3.63061e-06,26,-156.44,-54.66,500000,500000,-5.24212e-08,1.82036e-07,-7.43845e-08,-0.00541989,0.0285877,-8.12866e-05,0.0318057,3,508
12,3.39907e-22,2,1732,84.77,-9.92581e-07,3.51623e-06,-3.60403e-08,3.65382e-06,26,-156.44,-54.66,500000,500000,-5.66788e-08,1.82072e-07,-7.16503e-08,-0.0058405,0.0284945,-0.00018925,0.0319643,3,509
12,3.44283e-22,2,1733,84.77,-1.05192e-06,3.53777e-06,-3.38638e-08,3.691e-06,26.125,-156.44,-54.66,500000,500000,-6.21656e-08,1.85003e-07,-6.6997e-08,-0.00621312,0.0292378,0.000316723,0.032886,3,510
12,3.61785e-22,2,1734,84.77,-1.11691e-06,3.56004e-06,-3.07615e-08,3.73126e-06,26.625,-156.44,-54.66,500000,500000,-6.58711e-08,1.84741e-07,-6.2473e-08,-0.0065837,0.0289909,0.00116692,0.0328665,3,511
12,4.05912e-22,2,1735,28.53,-1.18366e-06,3.59115e-06,-3.25686e-08,3.78133e-06,27.875,113.47,108.04,1.14581e+06,531250,-6.85582e-08,1.86197e-07,-6.5944e-08,-0.00709861,0.0276097,0.0012762,0.0319097,3,512
12,4.73371e-22,2,1736,28.53,-1.25403e-06,3.63255e-06,-3.85645e-08,3.84311e-06,30.5,113.47,108.04,3.72906e+06,656250,-8.02656e-08,1.98701e-07,-7.62529e-08,-0.00743476,0.0262975,-0.000544888,0.031635,3,513
12,5.24041e-22,1,1737,80.81,-1.34419e-06,3.6666e-06,-3.93884e-08,3.90543e-06,33.375,-129.97,-177.44,6.95813e+06,812500,-9.70799e-08,2.17449e-07,-7.93153e-08,-0.00644583,0.0260835,-0.00086641,0.0310166,2,1222
12,5.38252e-22,1,1738,80.81,-1.44819e-06,3.70678e-06,-4.06941e-08,3.97984e-06,34.5,-129.97,-177.44,8.24975e+06,875000,-1.00353e-07,2.31393e-07,-8.12394e-08,-0.00429946,0.0273155,9.06133e-05,0.0304968,2,1223
12,5.7766e-22,1,1739,80.81,-1.5449e-06,3.76576e-06,-4.24549e-08,4.07056e-06,34.875,-129.97,-177.44,8.89556e+06,906250,-9.32166e-08,2.38519e-07,-8.42892e-08,-0.00164847,0.0301198,0.000521584,0.0314305,2,1224
12,6.56476e-22,1,1740,80.81,-1.63462e-06,3.82523e-06,-3.96405e-08,4.16004e-06,35.625,-129.97,-177.44,1.01872e+07,968750,-8.89341e-08,2.37885e-07,-7.94598e-08,0.000141532,0.0323696,0.00151945,0.0318241,2,1225
12,6.95884e-22,1,1741,80.81,-1.72277e-06,3.88195e-06,-3.89639e-08,4.24723e-06,36,-129.97,-177.44,1.0833e+07,1e+06,-8.97067e-08,2.37336e-07,-7.89005e-08,8.70638e-05,0.0326498,0.00133172,0.0319937,2,1226
12,6.95884e-22,1,1742,80.81,-1.81404e-06,3.95141e-06,-4.2172e-08,4.34812e-06,36,-129.97,-177.44,1.0833e+07,1e+06,-9.3133e-08,2.48729e-07,-8.41963e-08,0.000239907,0.0340719,0.00108105,0.0336526,2,1227
12,6.76457e-22,1,1743,80.81,-1.90903e-06,4.03677e-06,-4.40993e-08,4.46563e-06,36.3125,-129.97,-177.44,1.01872e+07,968750,-9.48604e-08,2.55776e-07,-8.77087e-08,0.000589995,0.0339667,0.00121611,0.0336743,2,1228
12,6.06953e-22,1,1744,80.81,-2.00376e-06,4.13164e-06,-4.43682e-08,4.5921e-06,38.75,-129.97,-177.44,7.60394e+06,843750,-9.35516e-08,2.45934e-07,-8.91279e-08,-8.70986e-05,0.0289887,0.000625035,0.029979,2,1229
12,5.81493e-22,2,1745,150.54,-2.09614e-06,4.20754e-06,-4.42135e-08,4.70097e-06,44.4375,178.09,96.28,5.6665e+06,750000,-8.51105e-08,2.27617e-07,-8.76777e-08,-0.000760828,0.026139,-0.00067543,0.0284553,3,514
12,6.8901e-22,1,1746,130.6,-2.17398e-06,4.22187e-06,-3.71286e-08,4.74886e-06,50.625,117.2,-48.36,7.60394e+06,843750,-7.11568e-08,2.13551e-07,-7.46874e-08,-0.000126232,0.0325716,-0.000559883,0.0343995,2,1230
12,7.99542e-22,1,1747,130.6,-2.23845e-06,4.19336e-06,-3.06846e-08,4.75351e-06,54.125,117.2,-48.36,1.01872e+07,968750,-6.53566e-08,2.1233e-07,-6.19436e-08,0.000553824,0.0405075,0.00057427,0.0410608,2,1231
12,8.27175e-22,1,1748,130.6,-2.30469e-06,4.18334e-06,-3.13599e-08,4.77628e-06,55,117.2,-48.36,1.0833e+07,1e+06,-6.76819e-08,2.1648e-07,-6.2007e-08,0.000234188,0.0423754,0.000412645,0.0426144,2,1232
12,8.27175e-22,1,1749,130.6,-2.37381e-06,4.20439e-06,-3.24729e-08,4.82835e-06,55,117.2,-48.36,1.0833e+07,1e+06,-6.97419e-08,2.17929e-07,-6.47851e-08,-0.000265622,0.0417463,-0.000138456,0.0421743,2,1233
12,8.00089e-22,1,1750,130.6,-2.44417e-06,4.25104e-06,-3.22995e-08,4.90371e-06,54.5,117.2,-48.36,1.01872e+07,968750,-6.86567e-08,2.1263e-07,-6.4151e-08,-0.000716749,0.0398873,-0.000123167,0.0406125,2,1234
12,6.6466e-22,1,1751,130.6,-2.51113e-06,4.30664e-06,-3.37453e-08,4.98538e-06,52,117.2,-48.36,6.95812e+06,812500,-6.43435e-08,2.22138e-07,-6.89559e-08,0.000410225,0.0390591,0.00147643,0.038942,2,1235
12,4.7506e-22,2,1752,144.83,-2.57286e-06,4.27574e-06,-4.42981e-08,4.99034e-06,48.5,155.44,38.05,2.43744e+06,593750,-6.16222e-08,2.4638e-07,-8.83215e-08,0.0020861,0.0377786,0.00180399,0.0367333,3,515
12,4.15247e-22,2,1753,144.83,-2.63437e-06,4.15838e-06,-4.73183e-08,4.92284e-06,49.25,155.44,38.05,1.79162e+06,562500,-6.3642e-08,2.39678e-07,-9.36348e-08,0.00175989,0.0336485,-0.000325766,0.033872,3,516
12,4.79578e-22,2,1754,144.83,-2.70015e-06,4.08811e-06,-3.99585e-08,4.89949e-06,56,155.44,38.05,5.6665e+06,750000,-6.95085e-08,2.24864e-07,-8.05667e-08,0.00165041,0.0329474,-0.000471507,0.033728,3,517
12,5.4391e-22,1,1755,80.41,-2.77339e-06,4.09069e-06,-3.84733e-08,4.94236e-06,62.75,-123.18,-170.23,9.54138e+06,937500,-7.43026e-08,2.25081e-07,-7.67386e-08,0.00192267,0.0338037,0.000228407,0.0338383,2,1236
12,5.65354e-22,1,1756,80.41,-2.84875e-06,4.10065e-06,-3.90146e-08,4.99322e-06,65,-123.18,-170.23,1.0833e+07,1e+06,-7.33561e-08,2.23277e-07,-7.81407e-08,0.00208189,0.0333814,0.000117994,0.0330053,2,1237
12,5.65354e-22,1,1757,80.41,-2.9201e-06,4.09355e-06,-3.93979e-08,5.02849e-06,65,-123.18,-170.23,1.0833e+07,1e+06,-6.97859e-08,2.21036e-07,-7.87502e-08,0.00267467,0.0332721,-9.04652e-06,0.0326269,2,1238
12,5.65354e-22,1,1758,80.41,-2.98832e-06,4.08062e-06,-3.95405e-08,5.05797e-06,65,-123.18,-170.23,1.0833e+07,1e+06,-6.69319e-08,2.19545e-07,-7.90798e-08,0.00324239,0.0332091,-1.03117e-06,0.0322379,2,1239
12,5.65354e-22,1,1759,80.41,-3.05396e-06,4.0648e-06,-3.98221e-08,5.08438e-06,65,-123.18,-170.23,1.0833e+07,1e+06,-6.45117e-08,2.1886e-07,-7.96399e-08,0.00377901,0.0332505,3.19511e-06,0.0319869,2,1240
12,5.65354e-22,1,1760,80.41,-3.11735e-06,4.0473e-06,-4.02795e-08,5.10883e-06,65,-123.18,-170.23,1.0833e+07,1e+06,-6.24766e-08,2.19224e-07,-8.05597e-08,0.00431375,0.0334491,3.1957e-06,0.0319183,2,1241
12,5.65354e-22,1,1761,80.41,-3.17892e-06,4.02893e-06,-4.09985e-08,5.1322e-06,65,-123.18,-170.23,1.0833e+07,1e+06,-6.10603e-08,2.21145e-07,-8.20045e-08,0.0048354,0.0338702,-1.60794e-06,0.0320951,2,1242
12,5.65354e-22,1,1762,80.41,-3.23947e-06,4.01079e-06,-4.2109e-08,5.15581e-06,65,-123.18,-170.23,1.0833e+07,1e+06,-6.07801e-08,2.25484e-07,-8.42418e-08,0.00529441,0.0346028,-1.24729e-05,0.0326079,2,1243
12,5.65354e-22,1,1763,80.41,-3.30048e-06,3.99527e-06,-4.38567e-08,5.1824e-06,65,-123.18,-170.23,1.0833e+07,1e+06,-6.24239e-08,2.33521e-07,-8.77751e-08,0.00560621,0.0357489,-5.28375e-05,0.0335721,2,1244
12,5.65354e-22,1,1764,80.41,-3.36431e-06,3.98728e-06,-4.62525e-08,5.2172e-06,65,-123.18,-170.23,1.0833e+07,1e+06,-6.69837e-08,2.46344e-07,-9.24808e-08,0.0057132,0.0372981,5.4562e-05,0.0348736,2,1245
12,5.37301e-22,1,1765,80.41,-3.43444e-06,3.99653e-06,-5.06425e-08,5.26975e-06,67.4375,-123.18,-170.23,8.89556e+06,906250,-7.90583e-08,2.65418e-07,-1.01859e-07,0.00499579,0.0360005,-0.000160238,0.0346782,2,1246
12,4.71843e-22,2,1766,31.67,-3.52243e-06,3.99806e-06,-6.1427e-08,5.32877e-06,73.125,13.09,-96.26,4.37488e+06,687500,-9.84251e-08,2.9588e-07,-1.22842e-07,0.00385249,0.0299565,-0.000263421,0.0296881,3,518
12,4.25087e-22,2,1767,31.67,-3.63129e-06,3.94491e-06,-7.32633e-08,5.36227e-06,77.1875,13.09,-96.26,1.14581e+06,531250,-1.11856e-07,3.2244e-07,-1.45053e-07,0.00298652,0.0249929,-0.000291075,0.0246957,3,519
12,4.15736e-22,2,1768,31.67,-3.74614e-06,3.84933e-06,-7.59168e-08,5.37184e-06,78,13.09,-96.26,500000,500000,-1.1381e-07,3.27623e-07,-1.52003e-07,0.00252115,0.0238148,-0.000499057,0.0238207,3,520
12,4.15736e-22,2,1769,31.67,-3.85891e-06,3.74297e-06,-7.4371e-08,5.37648e-06,78,13.09,-96.26,500000,500000,-1.12544e-07,3.24815e-07,-1.49471e-07,0.00262825,0.0238436,-0.000221068,0.0238425,3,521
12,4.15736e-22,2,1770,31.67,-3.97123e-06,3.631e-06,-7.43495e-08,5.38148e-06,78,13.09,-96.26,500000,500000,-1.13289e-07,3.25821e-07,-1.48544e-07,0.00272499,0.0240478,-2.56988e-05,0.0239202,3,522
12,4.15736e-22,2,1771,31.67,-4.08549e-06,3.51522e-06,-7.49622e-08,5.39014e-06,78,13.09,-96.26,500000,500000,-1.16582e-07,3.30834e-07,-1.50085e-07,0.00258117,0.0242914,-5.07437e-05,0.0241458,3,523
12,4.15736e-22,2,1772,31.67,-4.20439e-06,3.39745e-06,-7.6291e-08,5.40605e-06,78,13.09,-96.26,500000,500000,-1.21582e-07,3.39035e-07,-1.52683e-07,0.00240846,0.0247249,-5.91792e-05,0.0244923,3,524
12,4.15736e-22,2,1773,31.67,-4.32866e-06,3.27901e-06,-7.7246e-08,5.43094e-06,78,13.09,-96.26,500000,500000,-1.25909e-07,3.44873e-07,-1.54675e-07,0.00213817,0.0248819,-0.000146794,0.0246012,3,525
12,4.15736e-22,2,1774,31.67,-4.45621e-06,3.15806e-06,-7.66273e-08,5.46233e-06,78,13.09,-96.26,500000,500000,-1.27951e-07,3.43473e-07,-1.53178e-07,0.00169515,0.0245324,-0.000167804,0.0243567,3,526
12,4.36832e-22,2,1775,31.67,-4.58456e-06,3.03035e-06,-7.4127e-08,5.49606e-06,78.625,13.09,-96.26,1.14581e+06,531250,-1.16243e-07,3.27896e-07,-1.47389e-07,0.00148087,0.0257357,-7.24402e-05,0.025899,3,527
12,5.21215e-22,2,1776,31.67,-4.6887e-06,2.92645e-06,-6.7999e-08,5.52744e-06,81.125,13.09,-96.26,3.72906e+06,656250,-7.09162e-08,2.77037e-07,-1.35531e-07,0.00197819,0.0294584,-0.00027991,0.0301126,3,528
12,6.47791e-22,1,1777,179.529,-4.72639e-06,2.90451e-06,-5.94341e-08,5.54784e-06,84.875,-34.9101,-168.19,7.60394e+06,843750,-9.37902e-09,2.0683e-07,-1.19365e-07,0.00365299,0.0330946,8.58375e-06,0.0327938,2,1247
12,7.32174e-22,1,1778,179.529,-4.70746e-06,2.95286e-06,-5.34002e-08,5.55719e-06,87.375,-34.91,-168.19,1.01872e+07,968750,2.55271e-08,1.62784e-07,-1.07787e-07,0.00502693,0.0338614,0.000584501,0.0321568,2,1248
12,7.5327e-22,1,1779,179.529,-4.67534e-06,3.03182e-06,-5.37029e-08,5.57258e-06,88,-34.91,-168.19,1.0833e+07,1e+06,2.98244e-08,1.58731e-07,-1.07615e-07,0.00454688,0.0349708,0.000604326,0.0334749,2,1249
12,7.5327e-22,1,1780,179.529,-4.64781e-06,3.13479e-06,-5.96433e-08,5.60648e-06,88,-34.9099,-168.19,1.0833e+07,1e+06,2.55806e-08,1.8063e-07,-1.18702e-07,0.00320505,0.0397425,0.000430067,0.0389968,2,1250
12,7.5327e-22,1,1781,179.529,-4.62418e-06,3.23384e-06,-6.56428e-08,5.64314e-06,88,-34.91,-168.19,1.0833e+07,1e+06,2.33753e-08,2.02706e-07,-1.31227e-07,0.00238187,0.0444136,0.00022362,0.0438772,2,1251
12,7.5327e-22,1,1782,179.529,-4.60106e-06,3.29862e-06,-6.8441e-08,5.66174e-06,88,-34.91,-168.19,1.0833e+07,1e+06,2.32361e-08,2.1191e-07,-1.369e-07,0.00230918,0.0462529,0.000138265,0.0454278,2,1252
12,7.5327e-22,1,1783,179.529,-4.5777e-06,3.32538e-06,-6.83788e-08,5.65846e-06,88,-34.91,-168.19,1.0833e+07,1e+06,2.37742e-08,2.10376e-07,-1.36683e-07,0.00250295,0.0457563,5.47963e-05,0.0446654,2,1253
12,7.5327e-22,1,1784,179.529,-4.55351e-06,3.32344e-06,-6.68616e-08,5.63774e-06,88,-34.91,-168.19,1.0833e+07,1e+06,2.42556e-08,2.03419e-07,-1.33763e-07,0.00263488,0.0440602,-0.000143402,0.0429317,2,1254
12,7.5327e-22,1,1785,179.529,-4.52919e-06,3.30434e-06,-6.52287e-08,5.60683e-06,88,-34.91,-168.19,1.0833e+07,1e+06,2.44058e-08,1.97133e-07,-1.30545e-07,0.00270782,0.0426252,-0.000227624,0.0414887,2,1255
12,7.5327e-22,1,1786,179.529,-4.5047e-06,3.27386e-06,-6.3303e-08,5.56906e-06,88,-34.91,-168.19,1.0833e+07,1e+06,2.4702e-08,1.88933e-07,-1.26543e-07,0.00277438,0.0407649,-0.00036825,0.0397104,2,1256
12,7.5327e-22,1,1787,179.529,-4.47979e-06,3.24243e-06,-6.14397e-08,5.53043e-06,88,-34.91,-168.19,1.0833e+07,1e+06,2.44571e-08,1.82535e-07,-1.22853e-07,0.00273594,0.0393842,-0.000412659,0.0384244,2,1257
12,7.5327e-22,1,1788,179.529,-4.45578e-06,3.21782e-06,-6.0938e-08,5.49655e-06,88,-34.91,-168.19,1.0833e+07,1e+06,2.35369e-08,1.82841e-07,-1.22024e-07,0.00255307,0.0395669,-0.000305797,0.038681,2,1258
12,7.5327e-22,1,1789,179.529,-4.43272e-06,3.19785e-06,-6.25764e-08,5.46618e-06,88,-34.91,-168.19,1.0833e+07,1e+06,2.25536e-08,1.87641e-07,-1.25331e-07,0.00213961,0.0404782,-0.000551269,0.0399299,2,1259
12,7.22612e-22,1,1790,179.529,-4.41068e-06,3.16126e-06,-6.63178e-08,5.42697e-06,88.625,-34.91,-168.19,1.01872e+07,968750,1.32705e-08,2.05803e-07,-1.32571e-07,0.00120317,0.0418474,-0.000647776,0.041812,2,1260
12,5.9998e-22,1,1791,179.529,-4.40617e-06,3.08656e-06,-6.92706e-08,5.38015e-06,91.125,-34.91,-168.19,7.60394e+06,843750,-2.67418e-08,2.44146e-07,-1.38709e-07,-0.000715075,0.0384574,-0.000682119,0.0397381,2,1261
12,4.16032e-22,2,1792,9.76004,-4.46416e-06,3.03112e-06,-6.77712e-08,5.39639e-06,94.875,161.5,100.91,3.72906e+06,656250,-9.19449e-08,2.87528e-07,-1.35131e-07,-0.00239314,0.0296393,-0.000567202,0.0321551,3,529
12,2.934e-22,2,1793,9.76004,-4.59006e-06,3.03629e-06,-6.1247e-08,5.50377e-06,97.375,161.5,100.91,1.14581e+06,531250,-1.34431e-07,3.01357e-07,-1.22032e-07,-0.00283067,0.0221347,-0.000366314,0.024685,3,530
12,2.62742e-22,2,1794,9.76004,-4.73302e-06,3.04918e-06,-5.48548e-08,5.63045e-06,98,161.5,100.91,500000,500000,-1.38471e-07,2.87006e-07,-1.10078e-07,-0.00250271,0.0188485,-0.00027022,0.0207265,3,531
12,2.62742e-22,2,1795,9.76003,-4.86701e-06,3.03863e-06,-5.16959e-08,5.73792e-06,98,161.5,100.91,500000,500000,-1.31567e-07,2.72359e-07,-1.03425e-07,-0.0020699,0.0177978,-0.000108685,0.0190639,3,532
12,2.62742e-22,2,1796,9.76003,-4.99615e-06,3.01195e-06,-4.9977e-08,5.83403e-06,98,161.5,100.91,500000,500000,-1.28564e-07,2.6429e-07,-9.98177e-08,-0.00192223,0.0170491,-0.000117128,0.0181977,3,533
12,2.62742e-22,2,1797,9.76003,-5.12413e-06,2.97115e-06,-5.00752e-08,5.92343e-06,98,161.5,100.91,500000,500000,-1.27114e-07,2.604e-07,-9.96332e-08,-0.00188359,0.0163635,-0.000413054,0.0177709,3,534
12,3.41241e-22,2,1798,9.76003,-5.25038e-06,2.91132e-06,-4.20063e-08,6.00367e-06,101.938,161.5,100.91,2.43744e+06,593750,-1.13519e-07,2.45628e-07,-8.47034e-08,-0.00136303,0.0218439,0.000470323,0.0235503,3,535
12,5.24405e-22,1,1799,64.15,-5.35117e-06,2.91648e-06,-3.08089e-08,6.09441e-06,111.125,-139.18,-156.59,6.95813e+06,812500,-8.80972e-08,2.14026e-07,-6.20683e-08,-0.00176949,0.0311969,0.000467197,0.0334005,2,1262
12,6.55236e-22,1,1800,64.15,-5.42658e-06,3.03128e-06,-2.78161e-08,6.21588e-06,117.688,-139.18,-156.59,1.01872e+07,968750,-7.50693e-08,2.04773e-07,-5.52053e-08,-0.0019859,0.038555,-9.53893e-05,0.0401329,2,1263
12,6.81402e-22,1,1801,64.15,-5.50131e-06,3.1629e-06,-2.78331e-08,6.3458e-06,119,-139.18,-156.59,1.0833e+07,1e+06,-7.4029e-08,2.14742e-07,-5.57914e-08,-0.00112734,0.0429039,0.000318694,0.0434406,2,1264
12,6.81402e-22,1,1802,64.15,-5.57464e-06,3.2675e-06,-2.84145e-08,6.46173e-06,119,-139.18,-156.59,1.0833e+07,1e+06,-7.13579e-08,2.14865e-07,-5.67086e-08,-0.000546796,0.0434601,0.000112546,0.0438994,2,1265
12,6.81402e-22,1,1803,64.15,-5.64403e-06,3.35401e-06,-2.83543e-08,6.56545e-06,119,-139.18,-156.59,1.0833e+07,1e+06,-6.75619e-08,2.12883e-07,-5.67283e-08,0.000279218,0.0435244,0.000111665,0.0437032,2,1266
12,6.81402e-22,1,1804,64.15,-5.70976e-06,3.42863e-06,-2.83046e-08,6.66016e-06,119,-139.18,-156.59,1.0833e+07,1e+06,-6.40311e-08,2.10405e-07,-5.6589e-08,0.00101547,0.0433739,0.000116969,0.0433006,2,1267
12,6.81402e-22,1,1805,64.15,-5.77209e-06,3.49597e-06,-2.82985e-08,6.74831e-06,119,-139.18,-156.59,1.0833e+07,1e+06,-6.10799e-08,2.08268e-07,-5.66826e-08,0.00163369,0.0431594,7.02127e-05,0.0428567,2,1268
12,6.81402e-22,1,1806,64.15,-5.83192e-06,3.55998e-06,-2.84987e-08,6.83268e-06,119,-139.18,-156.59,1.0833e+07,1e+06,-5.91768e-08,2.07708e-07,-5.70878e-08,0.0021242,0.0431656,3.86025e-05,0.042618,2,1269
12,6.81402e-22,1,1807,64.15,-5.89044e-06,3.62364e-06,-2.89593e-08,6.91585e-06,119,-139.18,-156.59,1.0833e+07,1e+06,-5.85618e-08,2.09083e-07,-5.78503e-08,0.00243473,0.0434864,1.54732e-05,0.0427278,2,1270
12,6.81402e-22,1,1808,64.15,-5.94904e-06,3.69014e-06,-2.88558e-08,7.00065e-06,119,-139.18,-156.59,1.0833e+07,1e+06,-5.94208e-08,2.13229e-07,-5.76021e-08,0.00268986,0.0445115,0.000487921,0.0432908,2,1271
12,6.01582e-22,1,1809,64.15,-6.00928e-06,3.76129e-06,-3.1698e-08,7.08941e-06,118.75,-139.18,-156.59,8.24975e+06,875000,-6.03976e-08,2.22051e-07,-6.37627e-08,0.0024319,0.0446232,-0.000409369,0.0440922,2,1272
12,4.41943e-22,2,1810,145.75,-6.06984e-06,3.84057e-06,-3.25331e-08,7.1829e-06,118.25,-116.93,-175.81,3.08325e+06,625000,-5.95112e-08,2.26234e-07,-6.52425e-08,0.00244005,0.0423642,-0.000512273,0.0419132,3,536
12,3.82228e-22,2,1811,145.75,-6.12831e-06,3.92493e-06,-3.07509e-08,7.27751e-06,117.938,-116.93,-175.81,1.14581e+06,531250,-5.62203e-08,2.19791e-07,-6.09745e-08,0.00250015,0.0408281,-6.86318e-05,0.0399856,3,537
12,4.22438e-22,2,1812,145.75,-6.18228e-06,4.00018e-06,-2.90764e-08,7.36362e-06,117.813,-116.93,-175.81,2.43744e+06,593750,-5.3235e-08,2.08989e-07,-5.7899e-08,0.00198656,0.0405476,-0.000702752,0.0402484,3,538
12,4.42543e-22,2,1813,145.75,-6.23478e-06,4.06187e-06,-2.5708e-08,7.44123e-06,117.75,-116.93,-175.81,3.08325e+06,625000,-5.44934e-08,1.99628e-07,-5.14999e-08,0.00134432,0.0393803,-0.000523786,0.0392536,3,539
12,4.42543e-22,2,1814,145.75,-6.29126e-06,4.11983e-06,-2.34716e-08,7.52021e-06,117.75,-116.93,-175.81,3.08325e+06,625000,-5.73894e-08,1.928e-07,-4.70835e-08,0.000635627,0.0376574,-0.00045603,0.0378086,3,540
12,5.13312e-22,2,1815,145.75,-6.34955e-06,4.18187e-06,-2.30691e-08,7.60299e-06,118.938,-116.93,-175.81,4.37488e+06,687500,-5.0879e-08,1.79177e-07,-4.59986e-08,-3.00083e-06,0.0361944,-1.28459e-05,0.0364916,3,541
12,6.8514e-22,1,1816,57.67,-6.39302e-06,4.20874e-06,-2.64185e-08,7.65408e-06,121.688,-172.69,-138.33,7.60394e+06,843750,-3.42134e-08,1.58976e-07,-5.25996e-08,-0.00110867,0.0350522,-0.000191482,0.0359472,2,1273
12,8.16491e-22,1,1817,57.67,-6.41798e-06,4.17604e-06,-3.06799e-08,7.65707e-06,123.625,-172.69,-138.33,1.01872e+07,968750,-2.24855e-08,1.55616e-07,-6.16311e-08,-0.00137032,0.0369177,-0.000451397,0.0379102,2,1274
12,8.46782e-22,1,1818,57.67,-6.43799e-06,4.12165e-06,-3.34332e-08,7.6444e-06,124,-172.69,-138.33,1.0833e+07,1e+06,-1.95808e-08,1.66487e-07,-6.69898e-08,-0.000668915,0.0404442,-0.000160733,0.0408781,2,1275
12,6.45258e-22,1,1819,73.27,-3.50618e-08,3.15393e-06,-2.65708e-08,3.15423e-06,8,-129.16,-171.71,1.0833e+07,1e+06,-7.06923e-08,1.76126e-07,-5.31899e-08,-0.00111743,0.026688,0.000326309,0.0271786,2,1276
12,6.45258e-22,1,1820,73.27,-1.06323e-07,3.19114e-06,-2.77243e-08,3.19303e-06,8,-129.16,-171.71,1.0833e+07,1e+06,-7.25031e-08,1.78787e-07,-5.52577e-08,-0.00124906,0.026821,-0.000278496,0.0276203,2,1277
12,6.45258e-22,1,1821,73.27,-1.80068e-07,3.233e-06,-2.71808e-08,3.23812e-06,8,-129.16,-171.71,1.0833e+07,1e+06,-7.61143e-08,1.82262e-07,-5.39409e-08,-0.00172126,0.0273297,0.000270417,0.0281286,2,1278
12,6.29148e-22,1,1822,73.27,-2.58551e-07,3.28443e-06,-2.67844e-08,3.2947e-06,7.75,-129.16,-171.71,1.01872e+07,968750,-8.17738e-08,1.88581e-07,-5.34645e-08,-0.00254233,0.0284736,0.000265425,0.0297865,2,1279
12,5.58896e-22,1,1823,73.27,-3.43616e-07,3.34224e-06,-2.58007e-08,3.35995e-06,8.125,-129.16,-171.71,7.60394e+06,843750,-8.60728e-08,1.93403e-07,-5.07553e-08,-0.00339899,0.0301686,-0.000156451,0.0324915,2,1280
12,4.50612e-22,2,1824,102.34,-4.30697e-07,3.40693e-06,-2.34188e-08,3.43412e-06,9.75,54.45,119.09,3.72906e+06,656250,-8.74192e-08,1.99402e-07,-4.77345e-08,-0.00370305,0.0321524,-0.000155609,0.0349755,3,542
12,3.68738e-22,2,1825,102.34,-5.18454e-07,3.48492e-06,-2.42374e-08,3.52336e-06,11.375,54.45,119.09,1.14581e+06,531250,-8.31716e-08,2.08928e-07,-5.11659e-08,-0.00295548,0.0333521,0.00114913,0.0352678,3,543
12,3.2641e-22,2,1826,79.76,-5.9704e-07,3.58009e-06,-3.79787e-08,3.62973e-06,13.5,-174.76,-145.86,500000,500000,-6.92439e-08,2.16835e-07,-7.52785e-08,-0.00322186,0.0316743,0.00177434,0.0333832,3,544
12,3.14513e-22,2,1827,79.76,-6.56942e-07,3.66598e-06,-4.98975e-08,3.72471e-06,17.5,-174.76,-145.86,500000,500000,-5.52291e-08,2.18967e-07,-9.80302e-08,-0.00389571,0.030848,0.000513482,0.0335319,3,545
12,3.25723e-22,2,1828,84.77,-7.07498e-07,3.71251e-06,-4.67353e-08,3.77961e-06,22.25,-156.44,-54.66,500000,500000,-4.97412e-08,2.11992e-07,-9.40549e-08,-0.00357278,0.0321328,-5.42359e-05,0.0347826,3,546
12,3.3707e-22,2,1829,84.77,-7.56424e-07,3.72399e-06,-4.22787e-08,3.80027e-06,25.25,-156.44,-54.66,500000,500000,-4.93636e-08,2.00692e-07,-8.47403e-08,-0.00406082,0.0316379,0.000256689,0.0339822,3,547
12,3.39907e-22,2,1830,84.77,-8.06226e-07,3.71367e-06,-4.08425e-08,3.8004e-06,26,-156.44,-54.66,500000,500000,-5.05875e-08,1.92181e-07,-8.09323e-08,-0.00496074,0.0301917,0.000125533,0.0329862,3,548
12,3.39907e-22,2,1831,84.77,-8.57599e-07,3.69662e-06,-3.83605e-08,3.79499e-06,26,-156.44,-54.66,500000,500000,-5.27059e-08,1.86096e-07,-7.60832e-08,-0.00531677,0.0292223,4.87906e-05,0.0323239,3,549
12,3.44283e-22,2,1832,84.77,-9.11637e-07,3.68772e-06,-3.33184e-08,3.79888e-06,26.125,-156.44,-54.66,500000,500000,-5.655e-08,1.81886e-07,-6.65e-08,-0.00519537,0.0289848,0.000803944,0.0318453,3,550
12,3.53034e-22,2,1833,84.77,-9.70699e-07,3.69682e-06,-3.15533e-08,3.82227e-06,26.375,-156.44,-54.66,500000,500000,-6.22971e-08,1.85145e-07,-6.35497e-08,-0.00565342,0.0293653,0.00107473,0.0325612,3,551
12,3.66161e-22,2,1834,84.77,-1.03623e-06,3.72316e-06,-3.13323e-08,3.8648e-06,26.75,-156.44,-54.66,500000,500000,-6.68584e-08,1.92536e-07,-6.42114e-08,-0.00612965,0.0300919,0.0017306,0.0334653,3,552
12,3.66503e-22,2,1835,28.53,-1.10442e-06,3.75009e-06,-3.88668e-08,3.90953e-06,27.5,113.47,108.04,500000,500000,-6.9443e-08,2.04184e-07,-7.79365e-08,-0.00673374,0.0292501,0.00122781,0.0334103,3,553
12,3.40935e-22,2,1836,28.53,-1.17512e-06,3.78514e-06,-4.84048e-08,3.96365e-06,28.25,113.47,108.04,500000,500000,-7.20427e-08,2.18437e-07,-9.62388e-08,-0.0068884,0.0275838,0.000269631,0.0322669,3,554
12,2.98578e-22,2,1837,28.53,-1.2485e-06,3.84045e-06,-5.35741e-08,4.03864e-06,29.25,113.47,108.04,1.14581e+06,531250,-8.24303e-08,2.35362e-07,-1.0727e-07,-0.00668081,0.0265373,-0.00088874,0.0317347,3,555
12,2.48184e-22,2,1838,95.09,-1.33998e-06,3.90147e-06,-5.68709e-08,4.12556e-06,30.75,-9.02,-160.64,2.43744e+06,593750,-1.02091e-07,2.59398e-07,-1.13359e-07,-0.00613025,0.0258645,-0.00146574,0.031132,3,556
12,2.22986e-22,2,1839,95.09,-1.45268e-06,3.96017e-06,-5.73579e-08,4.21859e-06,31.5,-9.02,-160.64,3.08325e+06,625000,-1.12706e-07,2.76087e-07,-1.14141e-07,-0.00494502,0.0263548,-0.000685412,0.0305924,3,557
12,3.01803e-22,2,1840,95.09,-1.56539e-06,4.0192e-06,-5.60454e-08,4.31365e-06,32.25,-9.02,-160.64,4.37488e+06,687500,-1.09769e-07,2.74798e-07,-1.11573e-07,-0.00386034,0.0283752,-0.000903959,0.0322752,3,558
12,4.59435e-22,1,1841,80.81,-1.67222e-06,4.06768e-06,-5.07143e-08,4.39829e-06,33.75,-129.97,-177.44,6.95812e+06,812500,-1.03025e-07,2.64989e-07,-1.022e-07,-0.00233079,0.0305901,-0.000633662,0.0332192,2,1281
12,5.38252e-22,1,1842,80.81,-1.77144e-06,4.11751e-06,-4.94137e-08,4.48267e-06,34.5,-129.97,-177.44,8.24975e+06,875000,-9.58655e-08,2.57408e-07,-9.94004e-08,-0.00112444,0.0308503,-0.000687751,0.0323948,2,1282
12,5.7766e-22,1,1843,80.81,-1.86395e-06,4.19719e-06,-4.80647e-08,4.59271e-06,34.875,-129.97,-177.44,8.89556e+06,906250,-9.03693e-08,2.56158e-07,-9.62397e-08,0.000676999,0.0325107,-7.96109e-06,0.0329947,2,1283
12,6.64682e-22,1,1844,80.81,-1.95218e-06,4.28169e-06,-4.34523e-08,4.70593e-06,36.8125,-129.97,-177.44,1.01872e+07,968750,-8.30789e-08,2.39238e-07,-8.63358e-08,0.00112348,0.0330136,5.93548e-05,0.0336605,2,1284
12,7.17485e-22,1,1845,80.81,-2.03011e-06,4.35386e-06,-3.82464e-08,4.80405e-06,42.25,-129.97,-177.44,1.01872e+07,968750,-6.94311e-08,2.07225e-07,-7.5133e-08,0.000503263,0.0310588,-0.000990915,0.0330472,2,1285
12,7.47292e-22,1,1846,130.6,-2.09104e-06,4.40397e-06,-3.06331e-08,4.87528e-06,49.6875,117.2,-48.36,9.54138e+06,937500,-5.68595e-08,1.84064e-07,-6.21595e-08,0.000826673,0.0310181,-0.00046559,0.0323472,2,1286
12,7.99542e-22,1,1847,130.6,-2.14383e-06,4.4094e-06,-2.55544e-08,4.903e-06,54.125,117.2,-48.36,1.01872e+07,968750,-5.63612e-08,1.83262e-07,-5.26307e-08,0.000654368,0.0349607,0.000826855,0.0351179,2,1287
12,8.27175e-22,1,1848,130.6,-2.20376e-06,4.39607e-06,-2.78755e-08,4.9176e-06,55,117.2,-48.36,1.0833e+07,1e+06,-6.5145e-08,2.01472e-07,-5.51467e-08,-0.000333485,0.039724,0.000850241,0.0401599,2,1288
12,8.27175e-22,1,1849,130.6,-2.27412e-06,4.39959e-06,-3.06454e-08,4.95267e-06,55,117.2,-48.36,1.0833e+07,1e+06,-7.27695e-08,2.14187e-07,-6.07372e-08,-0.00141799,0.0411614,0.000249674,0.0421749,2,1289
12,8.27175e-22,1,1850,130.6,-2.3493e-06,4.42281e-06,-3.1139e-08,5.00814e-06,55,117.2,-48.36,1.0833e+07,1e+06,-7.48814e-08,2.16462e-07,-6.24511e-08,-0.00178686,0.0409508,6.02136e-05,0.0420226,2,1290
12,8.27175e-22,1,1851,130.6,-2.42388e-06,4.46075e-06,-3.12212e-08,5.07686e-06,55,117.2,-48.36,1.0833e+07,1e+06,-7.30735e-08,2.10135e-07,-6.18692e-08,-0.00185467,0.0392549,-0.000127343,0.040349,2,1291
12,7.45918e-22,1,1852,130.6,-2.49545e-06,4.51392e-06,-2.9225e-08,5.15787e-06,53.5,117.2,-48.36,8.89556e+06,906250,-7.05396e-08,2.01468e-07,-5.95207e-08,-0.00229577,0.0361174,0.000439748,0.0375969,2,1292
12,5.56317e-22,2,1853,144.83,-2.56496e-06,4.51444e-06,-3.76142e-08,5.19236e-06,50,155.44,38.05,4.37488e+06,687500,-6.88497e-08,2.24982e-07,-7.52977e-08,-0.00104824,0.0357349,0.00106134,0.0367934,3,559
12,4.53054e-22,2,1854,144.83,-2.63315e-06,4.40337e-06,-4.7278e-08,5.13083e-06,50.875,155.44,38.05,3.08325e+06,625000,-6.8344e-08,2.44591e-07,-9.32035e-08,0.00120274,0.0354111,-0.000513852,0.0362866,3,560
12,5.01022e-22,1,1855,80.41,-2.70165e-06,4.31864e-06,-4.37174e-08,5.09426e-06,58.25,-123.18,-170.23,6.95813e+06,812500,-6.67465e-08,2.37874e-07,-8.81073e-08,0.00375099,0.0354928,-0.000389248,0.0350033,2,1293
12,5.54632e-22,1,1856,80.41,-2.76664e-06,4.31817e-06,-4.08431e-08,5.1286e-06,63.875,-123.18,-170.23,1.01872e+07,968750,-6.26461e-08,2.29168e-07,-8.17078e-08,0.00532929,0.0356233,0.000669318,0.0335709,2,1294
12,5.65354e-22,1,1857,80.41,-2.82694e-06,4.31989e-06,-4.00002e-08,5.16281e-06,65,-123.18,-170.23,1.0833e+07,1e+06,-6.06826e-08,2.18663e-07,-7.98973e-08,0.00477451,0.0337487,0.000182272,0.0321332,2,1295
12,5.65354e-22,1,1858,80.41,-2.88801e-06,4.3114e-06,-3.92627e-08,5.18944e-06,65,-123.18,-170.23,1.0833e+07,1e+06,-6.16001e-08,2.16318e-07,-7.8649e-08,0.00429482,0.0332847,0.000127362,0.0319354,2,1296
12,5.65354e-22,1,1859,80.41,-2.95014e-06,4.29776e-06,-3.9244e-08,5.21303e-06,65,-123.18,-170.23,1.0833e+07,1e+06,-6.19261e-08,2.15599e-07,-7.84763e-08,0.00413036,0.0330797,6.48042e-05,0.0318094,2,1297
12,5.65354e-22,1,1860,80.41,-3.01186e-06,4.28177e-06,-3.94553e-08,5.23511e-06,65,-123.18,-170.23,1.0833e+07,1e+06,-6.12851e-08,2.15657e-07,-7.8909e-08,0.00428427,0.0330924,3.02681e-05,0.0317326,2,1298
12,5.65354e-22,1,1861,80.41,-3.07271e-06,4.26501e-06,-3.98888e-08,5.25676e-06,65,-123.18,-170.23,1.0833e+07,1e+06,-6.05231e-08,2.16693e-07,-7.97763e-08,0.0045619,0.0332928,1.35454e-05,0.0317812,2,1299
12,5.65354e-22,1,1862,80.41,-3.13291e-06,4.24888e-06,-4.05706e-08,5.27918e-06,65,-123.18,-170.23,1.0833e+07,1e+06,-6.02621e-08,2.1917e-07,-8.11448e-08,0.00484721,0.0336974,2.32844e-06,0.032022,2,1300
12,5.65354e-22,1,1863,80.41,-3.19324e-06,4.23527e-06,-4.15655e-08,5.30434e-06,65,-123.18,-170.23,1.0833e+07,1e+06,-6.10586e-08,2.23621e-07,-8.31112e-08,0.00505134,0.0343306,1.83464e-06,0.0324908,2,1301
12,5.65354e-22,1,1864,80.41,-3.25502e-06,4.22726e-06,-4.28544e-08,5.33542e-06,65,-123.18,-170.23,1.0833e+07,1e+06,-6.32815e-08,2.30258e-07,-8.57688e-08,0.00510461,0.035148,1.83823e-06,0.0331537,2,1302
12,5.65354e-22,1,1865,80.41,-3.3198e-06,4.22973e-06,-4.46071e-08,5.37714e-06,65,-123.18,-170.23,1.0833e+07,1e+06,-6.59596e-08,2.38132e-07,-8.87447e-08,0.00523477,0.0359996,0.000120682,0.033721,2,1303
12,5.56003e-22,1,1866,80.41,-3.38694e-06,4.24997e-06,-4.52745e-08,5.43467e-06,65.8125,-123.18,-170.23,1.01872e+07,968750,-6.86579e-08,2.42403e-07,-9.03619e-08,0.00523973,0.0352173,0.000328443,0.0330167,2,1304
12,5.18598e-22,1,1867,80.41,-3.45711e-06,4.27569e-06,-4.8039e-08,5.49868e-06,69.0625,-123.18,-170.23,7.60394e+06,843750,-7.74867e-08,2.54139e-07,-9.78481e-08,0.00467071,0.0318319,0.000380292,0.030604,2,1305
12,4.62492e-22,2,1868,31.67,-3.54192e-06,4.25896e-06,-6.04466e-08,5.53963e-06,73.9375,13.09,-96.26,3.72906e+06,656250,-9.47683e-08,2.88681e-07,-1.21017e-07,0.00390937,0.0279316,0.000234813,0.0275188,3,561
12,4.25087e-22,2,1869,31.67,-3.64665e-06,4.1781e-06,-7.3363e-08,5.54617e-06,77.1875,13.09,-96.26,1.14581e+06,531250,-1.07948e-07,3.18698e-07,-1.44694e-07,0.00311753,0.0250125,-0.000219007,0.0249936,3,562
12,4.15736e-22,2,1870,31.67,-3.75781e-06,4.06758e-06,-7.54177e-08,5.53824e-06,78,13.09,-96.26,500000,500000,-1.10179e-07,3.23019e-07,-1.50814e-07,0.00268856,0.0236736,-0.000435356,0.0238506,3,563
12,4.15736e-22,2,1871,31.67,-3.86701e-06,3.95465e-06,-7.39659e-08,5.53159e-06,78,13.09,-96.26,500000,500000,-1.09511e-07,3.21682e-07,-1.48684e-07,0.00290787,0.0237812,-0.000151613,0.0236769,3,564
12,4.15736e-22,2,1872,31.67,-3.97683e-06,3.84281e-06,-7.45031e-08,5.53063e-06,78,13.09,-96.26,500000,500000,-1.10854e-07,3.25279e-07,-1.49026e-07,0.0031335,0.0241724,3.07512e-05,0.0237584,3,565
12,4.15736e-22,2,1873,31.67,-4.08872e-06,3.73161e-06,-7.52495e-08,5.53608e-06,78,13.09,-96.26,500000,500000,-1.12462e-07,3.29151e-07,-1.50545e-07,0.00320987,0.0244091,2.95009e-05,0.023802,3,566
12,4.15736e-22,2,1874,31.67,-4.20176e-06,3.61803e-06,-7.58733e-08,5.54533e-06,78,13.09,-96.26,500000,500000,-1.13339e-07,3.31544e-07,-1.51867e-07,0.00328485,0.0244923,-4.77512e-05,0.0236918,3,567
12,4.15736e-22,2,1875,31.67,-4.3154e-06,3.49946e-06,-7.65097e-08,5.5565e-06,78,13.09,-96.26,500000,500000,-1.15045e-07,3.34003e-07,-1.53155e-07,0.00320117,0.0244732,-0.000168614,0.0235685,3,568
12,4.15736e-22,2,1876,31.67,-4.43185e-06,3.3753e-06,-7.73255e-08,5.57135e-06,78,13.09,-96.26,500000,500000,-1.19422e-07,3.39819e-07,-1.54655e-07,0.00293811,0.0246787,-0.000136421,0.0237156,3,569
12,4.36832e-22,2,1877,31.67,-4.55424e-06,3.24692e-06,-7.68959e-08,5.5937e-06,78.625,13.09,-96.26,1.14581e+06,531250,-1.1234e-07,3.34185e-07,-1.5291e-07,0.00261224,0.0265608,-8.13204e-05,0.0260561,3,570
12,5.21215e-22,2,1878,31.67,-4.65653e-06,3.14883e-06,-7.16192e-08,5.6217e-06,81.125,13.09,-96.26,3.72906e+06,656250,-7.02356e-08,2.88046e-07,-1.42684e-07,0.0025969,0.030872,-0.000359944,0.0312239,3,571
12,6.26695e-22,1,1879,179.529,-4.69471e-06,3.12395e-06,-6.40246e-08,5.63945e-06,84.25,-34.9101,-168.19,6.95812e+06,812500,-1.54979e-08,2.25009e-07,-1.28647e-07,0.00443167,0.0327245,-0.000548177,0.0330539,2,1306
12,6.89982e-22,1,1880,179.529,-4.68752e-06,3.18767e-06,-5.93447e-08,5.66901e-06,86.125,-34.91,-168.19,8.89556e+06,906250,1.51603e-08,1.899e-07,-1.19458e-07,0.00576427,0.0342514,0.000104326,0.0339119,2,1307
12,7.32174e-22,1,1881,179.529,-4.66439e-06,3.31604e-06,-6.23767e-08,5.72333e-06,87.375,-34.9099,-168.19,1.01872e+07,968750,2.77141e-08,1.90242e-07,-1.25064e-07,0.00490294,0.040131,0.000552306,0.0392484,2,1308
12,7.5327e-22,1,1882,179.529,-4.6321e-06,3.43999e-06,-7.01488e-08,5.77016e-06,88,-34.91,-168.19,1.0833e+07,1e+06,3.15269e-08,2.10326e-07,-1.39947e-07,0.00411836,0.0460565,0.000339689,0.0447614,2,1309
12,7.5327e-22,1,1883,179.529,-4.60134e-06,3.51455e-06,-7.38495e-08,5.79049e-06,88,-34.91,-168.19,1.0833e+07,1e+06,3.13979e-08,2.21239e-07,-1.47562e-07,0.00393494,0.0481111,3.93295e-05,0.0465796,2,1310
12,7.5327e-22,1,1884,179.529,-4.5693e-06,3.53865e-06,-7.36485e-08,5.77979e-06,88,-34.91,-168.19,1.0833e+07,1e+06,3.37802e-08,2.16786e-07,-1.47526e-07,0.00447291,0.0468327,-0.000228917,0.0449942,2,1311
12,7.5327e-22,1,1885,179.529,-4.53378e-06,3.52799e-06,-7.23062e-08,5.74518e-06,88,-34.91,-168.19,1.0833e+07,1e+06,3.77983e-08,2.05308e-07,-1.4429e-07,0.00539302,0.0440761,-0.000485983,0.0419605,2,1312
12,7.21333e-22,1,1886,179.529,-4.4937e-06,3.50238e-06,-7.0907e-08,5.69781e-06,88.0625,-34.91,-168.19,1.01872e+07,968750,3.89536e-08,2.01656e-07,-1.40915e-07,0.00626299,0.0425033,1.1728e-05,0.0398894,2,1313
12,6.57458e-22,1,1887,179.529,-4.45587e-06,3.46311e-06,-6.84557e-08,5.64381e-06,88.1875,-34.91,-168.19,8.89556e+06,906250,3.40006e-08,2.05263e-07,-1.37116e-07,0.00630062,0.0411849,0.000929518,0.038214,2,1314
12,6.25521e-22,1,1888,179.529,-4.4257e-06,3.42479e-06,-6.62934e-08,5.59646e-06,88.25,-34.91,-168.19,8.24975e+06,875000,2.75285e-08,2.05666e-07,-1.33299e-07,0.00545722,0.0398101,0.00112778,0.037126,2,1315
12,6.25521e-22,1,1889,179.529,-4.40081e-06,3.40168e-06,-6.61444e-08,5.56264e-06,88.25,-34.91,-168.19,8.24975e+06,875000,2.41169e-08,2.0818e-07,-1.32513e-07,0.00488358,0.0403182,0.00116543,0.0378582,2,1316
12,6.25521e-22,1,1890,179.529,-4.37747e-06,3.38552e-06,-6.81605e-08,5.53431e-06,88.25,-34.91,-168.19,8.24975e+06,875000,2.22764e-08,2.13071e-07,-1.36904e-07,0.00427936,0.0407948,0.000570441,0.0389683,2,1317
12,5.64205e-22,1,1891,179.529,-4.35626e-06,3.37945e-06,-7.3582e-08,5.5139e-06,89.5,-34.91,-168.19,6.95812e+06,812500,-2.52812e-09,2.43415e-07,-1.48034e-07,0.00152078,0.0416127,-0.000265176,0.0418643,2,1318
12,4.12195e-22,2,1892,9.76005,-4.38252e-06,3.37472e-06,-8.05232e-08,5.53188e-06,93.1875,161.5,100.91,3.72906e+06,656250,-6.98465e-08,3.10487e-07,-1.60246e-07,-0.00125944,0.0375454,-0.000544201,0.0397292,3,572
12,2.92121e-22,2,1893,9.76005,-4.49595e-06,3.36892e-06,-7.93916e-08,5.61867e-06,96.8125,161.5,100.91,1.14581e+06,531250,-1.30697e-07,3.49522e-07,-1.57213e-07,-0.00162613,0.0281907,-0.000580237,0.0302885,3,573
12,2.62742e-22,2,1894,9.76005,-4.64392e-06,3.36075e-06,-6.93896e-08,5.73283e-06,98,161.5,100.91,500000,500000,-1.41279e-07,3.28402e-07,-1.38816e-07,-0.0014533,0.0221031,-0.000457616,0.0234825,3,574
12,2.62742e-22,2,1895,9.76004,-4.77851e-06,3.34261e-06,-6.11743e-08,5.83189e-06,98,161.5,100.91,500000,500000,-1.31287e-07,2.98386e-07,-1.22783e-07,-0.00130472,0.0200131,-0.000184294,0.0209737,3,575
12,2.62742e-22,2,1896,9.76004,-4.90649e-06,3.3167e-06,-5.68567e-08,5.92262e-06,98,161.5,100.91,500000,500000,-1.27411e-07,2.8366e-07,-1.13849e-07,-0.00121286,0.0189307,5.26844e-06,0.0196281,3,576
12,2.62742e-22,2,1897,9.76004,-5.03333e-06,3.28171e-06,-5.42424e-08,6.00891e-06,98,161.5,100.91,500000,500000,-1.25993e-07,2.75289e-07,-1.08597e-07,-0.00119434,0.0181632,4.35733e-05,0.0188112,3,577
12,2.62742e-22,2,1898,9.76004,-5.15848e-06,3.23612e-06,-5.38564e-08,6.08977e-06,98,161.5,100.91,500000,500000,-1.25876e-07,2.71347e-07,-1.08672e-07,-0.00143592,0.0172682,-0.000449969,0.0184409,3,578
12,2.88909e-22,2,1899,9.76004,-5.28508e-06,3.17254e-06,-5.52302e-08,6.16443e-06,99.3125,161.5,100.91,1.14581e+06,531250,-1.2521e-07,2.76327e-07,-1.09418e-07,-0.00162494,0.0197969,-0.000593061,0.0216928,3,579
12,4.19138e-22,2,1900,9.76003,-5.4089e-06,3.1515e-06,-4.43047e-08,6.2602e-06,105.375,161.5,100.91,4.37488e+06,687500,-1.10728e-07,2.57368e-07,-8.74879e-08,-0.00214702,0.0288216,2.54978e-05,0.0314435,3,580
12,6.01097e-22,1,1901,64.15,-5.50654e-06,3.24643e-06,-3.25451e-08,6.39237e-06,113.562,-139.18,-156.59,8.89556e+06,906250,-8.60478e-08,2.29321e-07,-6.60897e-08,-0.00194285,0.0395008,-0.000126172,0.0415984,2,1319
12,6.78994e-22,1,1902,64.15,-5.58099e-06,3.38177e-06,-3.18948e-08,6.52571e-06,117,-139.18,-156.59,1.0833e+07,1e+06,-7.23468e-08,2.24514e-07,-6.39693e-08,-0.000664415,0.0445514,-0.000167709,0.0451883,2,1320
12,6.78994e-22,1,1903,64.15,-5.65123e-06,3.48437e-06,-3.10457e-08,6.63915e-06,117,-139.18,-156.59,1.0833e+07,1e+06,-6.85577e-08,2.21134e-07,-6.21106e-08,2.37327e-05,0.0446462,0.000173553,0.0448888,2,1321
12,6.78994e-22,1,1904,64.15,-5.71811e-06,3.56786e-06,-3.06403e-08,6.73998e-06,117,-139.18,-156.59,1.0833e+07,1e+06,-6.51408e-08,2.17154e-07,-6.12872e-08,0.000552233,0.0442478,0.000172581,0.0444272,2,1322
12,6.78994e-22,1,1905,64.15,-5.78152e-06,3.63924e-06,-3.02555e-08,6.83161e-06,117,-139.18,-156.59,1.0833e+07,1e+06,-6.16512e-08,2.13104e-07,-6.05232e-08,0.00113594,0.043759,0.000178377,0.0437876,2,1323
12,6.78994e-22,1,1906,64.15,-5.84141e-06,3.70368e-06,-3.01042e-08,6.91666e-06,117,-139.18,-156.59,1.0833e+07,1e+06,-5.82626e-08,2.09353e-07,-6.02282e-08,0.001738,0.0432051,9.7225e-05,0.0430333,2,1324
12,6.79596e-22,1,1907,64.15,-5.89804e-06,3.76659e-06,-2.95765e-08,6.99821e-06,117.5,-139.18,-156.59,1.0833e+07,1e+06,-5.60196e-08,2.06931e-07,-5.91722e-08,0.00237831,0.0429666,0.000130118,0.0423975,2,1325
12,6.808e-22,1,1908,64.15,-5.95345e-06,3.83124e-06,-2.86984e-08,7.07975e-06,118.5,-139.18,-156.59,1.0833e+07,1e+06,-5.61507e-08,2.06176e-07,-5.72649e-08,0.00270747,0.0430235,0.000250095,0.042073,2,1326
12,6.81402e-22,1,1909,64.15,-6.01034e-06,3.9016e-06,-2.77346e-08,7.16572e-06,119,-139.18,-156.59,1.0833e+07,1e+06,-5.76943e-08,2.10072e-07,-5.61219e-08,0.00293992,0.0440416,0.000732235,0.0425563,2,1327
12,6.21687e-22,1,1910,64.15,-6.06884e-06,3.98276e-06,-3.0905e-08,7.25907e-06,118.688,-139.18,-156.59,8.89556e+06,906250,-5.72758e-08,2.15564e-07,-6.16892e-08,0.00235917,0.0446449,-0.000622521,0.0442615,2,1328
12,5.02258e-22,2,1911,145.75,-6.12489e-06,4.06628e-06,-2.94534e-08,7.35186e-06,118.062,-116.93,-175.81,5.02069e+06,718750,-5.51149e-08,2.09898e-07,-5.79546e-08,0.00159895,0.0424311,-0.000881125,0.0426406,3,581
12,4.82753e-22,2,1912,145.75,-6.17907e-06,4.13671e-06,-2.33547e-08,7.43598e-06,117.625,-116.93,-175.81,4.37488e+06,687500,-5.13046e-08,1.91297e-07,-4.64407e-08,0.000861008,0.0404012,-0.000124971,0.0404186,3,582
12,5.63174e-22,1,1913,121.75,-6.2275e-06,4.19106e-06,-1.90704e-08,7.50647e-06,117.375,-23.35,126.79,6.95812e+06,812500,-4.56941e-08,1.71208e-07,-3.84606e-08,9.94216e-05,0.0401724,-0.000276496,0.0405308,2,1329
12,6.03384e-22,1,1914,121.75,-6.27046e-06,4.24044e-06,-1.53184e-08,7.56969e-06,117.25,-23.35,126.79,8.24975e+06,875000,-4.42233e-08,1.59927e-07,-3.11746e-08,-0.000257175,0.0393761,0.000345027,0.0395117,2,1330
12,6.03384e-22,1,1915,121.75,-6.31595e-06,4.29279e-06,-1.45939e-08,7.63672e-06,117.25,-23.35,126.79,8.24975e+06,875000,-4.59349e-08,1.53866e-07,-2.91003e-08,-0.000966887,0.0375294,0.000215921,0.0380583,2,1331
12,6.54047e-22,1,1916,121.75,-6.36233e-06,4.34058e-06,-1.4641e-08,7.70195e-06,118.5,-23.35,126.79,8.89556e+06,906250,-4.11704e-08,1.43266e-07,-2.99718e-08,-0.00147065,0.0353456,0.000397673,0.0361361,2,1332
12,7.6556e-22,1,1917,57.67,-6.39829e-06,4.35584e-06,-2.1501e-08,7.74028e-06,121.438,-172.69,-138.33,1.01872e+07,968750,-2.89213e-08,1.41742e-07,-4.26403e-08,-0.00133408,0.0354603,0.000310622,0.0362582,2,1333
12,8.36596e-22,1,1918,57.67,-6.42017e-06,4.33028e-06,-3.04107e-08,7.74408e-06,123.563,-172.69,-138.33,1.0833e+07,1e+06,-1.96708e-08,1.54006e-07,-6.01894e-08,-0.000765528,0.0377607,-0.00024128,0.0383774,2,1334
12,8.46782e-22,1,1919,57.67,-6.43763e-06,4.28905e-06,-3.43139e-08,7.73565e-06,124,-172.69,-138.33,1.0833e+07,1e+06,-1.73262e-08,1.66636e-07,-6.89158e-08,-0.000231368,0.0404023,-0.000319917,0.0406903,2,1335
12,6.45258e-22,1,1920,73.27,-3.81246e-08,3.3329e-06,-2.67304e-08,3.33322e-06,8,-129.16,-171.71,1.0833e+07,1e+06,-7.65461e-08,1.80731e-07,-5.33011e-08,-0.00221669,0.0269961,0.000443352,0.0280491,2,1336
12,6.45258e-22,1,1921,73.27,-1.14968e-07,3.37231e-06,-2.74543e-08,3.37438e-06,8,-129.16,-171.71,1.0833e+07,1e+06,-7.85736e-08,1.82294e-07,-5.42541e-08,-0.00248209,0.0269453,5.68636e-05,0.0282053,2,1337
12,6.23337e-22,1,1922,73.27,-1.95272e-07,3.41602e-06,-2.74652e-08,3.42171e-06,8.375,-129.16,-171.71,1.01872e+07,968750,-8.07111e-08,1.85139e-07,-5.4806e-08,-0.00315512,0.0270961,0.000328946,0.0287635,2,1338
12,5.47274e-22,1,1923,73.27,-2.7639e-07,3.47155e-06,-3.0488e-08,3.48266e-06,8.625,-129.16,-171.71,7.60394e+06,843750,-7.87294e-08,1.92833e-07,-6.14052e-08,-0.00347165,0.0284499,-0.000406492,0.0310268,2,1339
12,4.33179e-22,2,1924,102.34,-3.52731e-07,3.53411e-06,-3.33643e-08,3.55182e-06,9.375,54.45,119.09,3.72906e+06,656250,-7.18511e-08,2.03922e-07,-6.86603e-08,-0.00293027,0.0307977,-0.000129737,0.03329,3,583
12,3.45494e-22,2,1925,79.76,-4.20092e-07,3.61121e-06,-4.36891e-08,3.63583e-06,11.625,-174.76,-145.86,1.14581e+06,531250,-6.38745e-08,2.21577e-07,-8.83939e-08,-0.00302452,0.0316594,0.000579006,0.033877,3,584
12,3.11951e-22,2,1926,79.76,-4.8048e-07,3.70877e-06,-5.83221e-08,3.74022e-06,13.25,-174.76,-145.86,500000,500000,-5.82078e-08,2.41493e-07,-1.15339e-07,-0.00366506,0.0315774,0.00048942,0.0339948,3,585
12,3.0033e-22,2,1927,79.76,-5.36507e-07,3.81724e-06,-6.87202e-08,3.85537e-06,13.75,-174.76,-145.86,500000,500000,-5.42516e-08,2.50662e-07,-1.36154e-07,-0.00499991,0.030335,-0.000147659,0.0335055,3,586
12,2.97355e-22,2,1928,79.76,-5.88983e-07,3.90243e-06,-6.95918e-08,3.94724e-06,14.75,-174.76,-145.86,500000,500000,-5.3443e-08,2.45705e-07,-1.38208e-07,-0.00620165,0.0295541,-0.000757679,0.0336652,3,587
12,3.08703e-22,2,1929,79.76,-6.43393e-07,3.93463e-06,-5.76414e-08,3.9873e-06,17.75,-174.76,-145.86,500000,500000,-5.46434e-08,2.32061e-07,-1.1511e-07,-0.0051992,0.0316034,-0.000359699,0.0354304,3,588
12,3.25723e-22,2,1930,84.77,-6.9827e-07,3.92793e-06,-4.4558e-08,3.98976e-06,22.25,-156.44,-54.66,500000,500000,-5.34613e-08,2.11226e-07,-8.96687e-08,-0.00407945,0.0322098,0.00033391,0.0350333,3,589
12,3.3707e-22,2,1931,84.77,-7.50316e-07,3.90626e-06,-3.87158e-08,3.97786e-06,25.25,-156.44,-54.66,500000,500000,-5.27356e-08,1.94508e-07,-7.74952e-08,-0.00441955,0.0306727,0.000614956,0.0331067,3,590
12,3.22747e-22,2,1932,84.77,-8.03741e-07,3.88332e-06,-3.81983e-08,3.96581e-06,26.25,-156.44,-54.66,500000,500000,-5.94165e-08,1.94533e-07,-7.59857e-08,-0.00530379,0.0296015,0.00041903,0.032578,3,591
12,2.97179e-22,2,1933,84.77,-8.69149e-07,3.87077e-06,-3.7771e-08,3.96733e-06,27,-156.44,-54.66,500000,500000,-6.91846e-08,2.06214e-07,-7.70096e-08,-0.00505274,0.0293102,0.000830708,0.0324096,3,592
12,2.97522e-22,2,1934,28.53,-9.4211e-07,3.88652e-06,-4.45866e-08,3.99932e-06,27.75,113.47,108.04,500000,500000,-7.03618e-08,2.21066e-07,-8.98045e-08,-0.0044804,0.0294,0.000536783,0.0327179,3,593
12,3.10649e-22,2,1935,28.53,-1.00987e-06,3.92284e-06,-5.18154e-08,4.05108e-06,28.125,113.47,108.04,500000,500000,-6.36028e-08,2.30852e-07,-1.03986e-07,-0.00369808,0.0297361,0.000406051,0.0327647,3,594
12,2.7633e-22,2,1936,28.53,-1.06932e-06,3.96841e-06,-6.31078e-08,4.11044e-06,28.625,113.47,108.04,500000,500000,-6.31083e-08,2.48106e-07,-1.25735e-07,-0.00342744,0.0289123,-0.000712717,0.0322466,3,595
12,1.94565e-22,2,1937,95.09,-1.13609e-06,4.02802e-06,-7.1875e-08,4.18579e-06,29.25,-9.02,-160.64,500000,500000,-7.32558e-08,2.71418e-07,-1.42567e-07,-0.00303386,0.0275537,-0.00128104,0.0306784,3,596
12,1.29959e-22,2,1938,95.09,-1.21583e-06,4.10328e-06,-7.22834e-08,4.28023e-06,29.625,-9.02,-160.64,500000,500000,-8.33751e-08,2.86673e-07,-1.44811e-07,-0.00228662,0.0271187,-0.000384551,0.0292272,3,597
12,8.68887e-23,2,1939,95.09,-1.30284e-06,4.1854e-06,-7.31454e-08,4.3841e-06,29.875,-9.02,-160.64,500000,500000,-9.34889e-08,2.97115e-07,-1.45936e-07,-0.00242423,0.0265891,-5.02939e-05,0.0285632,3,598
12,6.53535e-23,2,1940,95.09,-1.4028e-06,4.25895e-06,-7.09654e-08,4.48459e-06,30,-9.02,-160.64,500000,500000,-1.05637e-07,3.05241e-07,-1.42373e-07,-0.00313669,0.026549,0.00051032,0.0287338,3,599
12,1.04762e-22,2,1941,95.09,-1.51411e-06,4.31535e-06,-6.93294e-08,4.5738e-06,30.375,-9.02,-160.64,1.14581e+06,531250,-1.14709e-07,3.04912e-07,-1.39904e-07,-0.00476053,0.0266155,-0.000749702,0.0305665,3,600
12,1.83578e-22,2,1942,95.09,-1.63222e-06,4.35521e-06,-6.83733e-08,4.65152e-06,31.125,-9.02,-160.64,2.43744e+06,593750,-1.17924e-07,3.03946e-07,-1.37422e-07,-0.00500596,0.0274022,-0.00195749,0.03206,3,601
12,2.22986e-22,2,1943,95.09,-1.74996e-06,4.39677e-06,-6.71732e-08,4.7327e-06,31.5,-9.02,-160.64,3.08325e+06,625000,-1.12671e-07,2.97037e-07,-1.32434e-07,-0.00353315,0.0274694,-0.0019764,0.0310477,3,602
12,3.2334e-22,2,1944,95.09,-1.85756e-06,4.46372e-06,-5.74075e-08,4.83515e-06,32.5625,-9.02,-160.64,4.37488e+06,687500,-9.94496e-08,2.70169e-07,-1.12986e-07,-0.00104304,0.0285537,-0.00166141,0.0311825,3,603
12,5.66536e-22,1,1945,80.81,-1.94886e-06,4.51525e-06,-4.15126e-08,4.91806e-06,38.3125,-129.97,-177.44,7.60394e+06,843750,-7.98849e-08,2.26684e-07,-8.29586e-08,0.000497207,0.0313272,-0.00133871,0.0337123,2,1340
12,7.6007e-22,1,1946,130.6,-2.01733e-06,4.54609e-06,-3.06393e-08,4.97368e-06,47.8125,117.2,-48.36,1.01872e+07,968750,-5.94303e-08,1.89354e-07,-6.24007e-08,0.00109988,0.0329327,-0.000788201,0.0341994,2,1341
12,8.18969e-22,1,1947,130.6,-2.06772e-06,4.57567e-06,-2.62526e-08,5.02125e-06,53.8125,117.2,-48.36,1.0833e+07,1e+06,-5.0371e-08,1.76114e-07,-5.38903e-08,0.00160985,0.0338727,0.000134771,0.0334892,2,1342
12,8.27175e-22,1,1948,130.6,-2.11808e-06,4.58839e-06,-2.67195e-08,5.05374e-06,55,117.2,-48.36,1.0833e+07,1e+06,-5.49245e-08,1.83636e-07,-5.30201e-08,0.000987923,0.0360272,0.000504849,0.0355742,2,1343
12,8.27175e-22,1,1949,130.6,-2.17757e-06,4.5963e-06,-2.91698e-08,5.08612e-06,55,117.2,-48.36,1.0833e+07,1e+06,-6.40019e-08,2.00275e-07,-5.79536e-08,-0.000197477,0.0388642,0.000156294,0.0392629,2,1344
12,8.27175e-22,1,1950,130.6,-2.24608e-06,4.61171e-06,-3.02326e-08,5.12969e-06,55,117.2,-48.36,1.0833e+07,1e+06,-7.11582e-08,2.10164e-07,-6.0673e-08,-0.00131937,0.0400897,5.92157e-05,0.0409923,2,1345
12,8.27175e-22,1,1951,130.6,-2.31989e-06,4.63732e-06,-3.07342e-08,5.18532e-06,55,117.2,-48.36,1.0833e+07,1e+06,-7.49911e-08,2.12447e-07,-6.13803e-08,-0.00217238,0.0398906,-7.56024e-06,0.0411409,2,1346
12,8.27175e-22,1,1952,130.6,-2.39606e-06,4.67131e-06,-3.03143e-08,5.25006e-06,55,117.2,-48.36,1.0833e+07,1e+06,-7.58405e-08,2.08679e-07,-6.06664e-08,-0.00276238,0.0386722,-0.000134321,0.0402383,2,1347
12,8.00089e-22,1,1953,130.6,-2.47157e-06,4.70958e-06,-2.87036e-08,5.3188e-06,54.5,117.2,-48.36,1.01872e+07,968750,-7.26862e-08,1.94461e-07,-5.67905e-08,-0.00338711,0.0353675,-0.000168238,0.0374894,2,1348
12,6.91746e-22,1,1954,130.6,-2.54143e-06,4.7257e-06,-3.01918e-08,5.36582e-06,52.5,117.2,-48.36,7.60394e+06,843750,-6.50403e-08,1.98111e-07,-6.21085e-08,-0.00201521,0.0343659,0.000394236,0.0361752,2,1349
12,5.72119e-22,2,1955,144.83,-2.60165e-06,4.64757e-06,-4.12081e-08,5.32636e-06,54,155.44,38.05,6.31231e+06,781250,-6.13163e-08,2.32955e-07,-8.20921e-08,0.00217613,0.0383867,0.000222436,0.0390499,3,604
12,5.49552e-22,1,1956,80.41,-2.66407e-06,4.56386e-06,-4.6976e-08,5.28472e-06,61,-123.18,-170.23,8.89556e+06,906250,-6.50102e-08,2.4562e-07,-9.2117e-08,0.00450987,0.0383871,-0.000604067,0.0379441,2,1350
12,5.65354e-22,1,1957,80.41,-2.73167e-06,4.54903e-06,-4.28621e-08,5.30637e-06,65,-123.18,-170.23,1.0833e+07,1e+06,-6.51949e-08,2.30927e-07,-8.66924e-08,0.00450444,0.0350659,-0.000390426,0.0337387,2,1351
12,5.65354e-22,1,1958,80.41,-2.79446e-06,4.53797e-06,-4.06118e-08,5.32953e-06,65,-123.18,-170.23,1.0833e+07,1e+06,-6.13905e-08,2.20214e-07,-8.12505e-08,0.00463305,0.0338258,-5.98319e-06,0.0322985,2,1352
12,5.65354e-22,1,1959,80.41,-2.85445e-06,4.52619e-06,-3.95549e-08,5.35125e-06,65,-123.18,-170.23,1.0833e+07,1e+06,-5.97981e-08,2.15479e-07,-7.91446e-08,0.00464118,0.0332347,6.27536e-05,0.0317426,2,1353
12,5.65354e-22,1,1960,80.41,-2.91405e-06,4.51182e-06,-3.91878e-08,5.37119e-06,65,-123.18,-170.23,1.0833e+07,1e+06,-5.96323e-08,2.13851e-07,-7.83985e-08,0.00453303,0.0329918,5.91858e-05,0.031585,2,1354
12,5.65354e-22,1,1961,80.41,-2.97371e-06,4.49612e-06,-3.92347e-08,5.39069e-06,65,-123.18,-170.23,1.0833e+07,1e+06,-5.96933e-08,2.13848e-07,-7.84746e-08,0.00451114,0.0329674,3.60013e-05,0.0315756,2,1355
12,5.65354e-22,1,1962,80.41,-3.03344e-06,4.48069e-06,-3.9563e-08,5.41109e-06,65,-123.18,-170.23,1.0833e+07,1e+06,-5.9907e-08,2.15125e-07,-7.91278e-08,0.00456936,0.0331311,1.74328e-05,0.0316842,2,1356
12,5.65354e-22,1,1963,80.41,-3.09353e-06,4.46727e-06,-4.0137e-08,5.43397e-06,65,-123.18,-170.23,1.0833e+07,1e+06,-6.06144e-08,2.17752e-07,-8.02707e-08,0.00462998,0.0334654,7.37377e-06,0.0319245,2,1357
12,5.65354e-22,1,1964,80.41,-3.15467e-06,4.45804e-06,-4.0917e-08,5.46147e-06,65,-123.18,-170.23,1.0833e+07,1e+06,-6.20848e-08,2.21684e-07,-8.18285e-08,0.0046229,0.0339204,7.52398e-06,0.0322638,2,1358
12,5.65354e-22,1,1965,80.41,-3.2177e-06,4.45579e-06,-4.18066e-08,5.49631e-06,65,-123.18,-170.23,1.0833e+07,1e+06,-6.4092e-08,2.26242e-07,-8.3534e-08,0.00454837,0.034377,4.44925e-05,0.0325657,2,1359
12,5.65354e-22,1,1966,80.41,-3.28285e-06,4.46354e-06,-4.24959e-08,5.54095e-06,65,-123.18,-170.23,1.0833e+07,1e+06,-6.51186e-08,2.29334e-07,-8.50681e-08,0.00460123,0.0345694,6.24238e-05,0.0325666,2,1360
12,5.65354e-22,1,1967,80.41,-3.34794e-06,4.48134e-06,-4.27765e-08,5.594e-06,65,-123.18,-170.23,1.0833e+07,1e+06,-6.32431e-08,2.26782e-07,-8.51103e-08,0.00490526,0.0339292,4.22244e-05,0.0317067,2,1361
12,5.56003e-22,1,1968,80.41,-3.40934e-06,4.50634e-06,-4.23538e-08,5.65088e-06,65.8125,-123.18,-170.23,1.01872e+07,968750,-6.24501e-08,2.23338e-07,-8.45471e-08,0.00498717,0.0323188,7.39374e-05,0.0303186,2,1362
12,5.18598e-22,1,1969,80.41,-3.47284e-06,4.52227e-06,-4.60052e-08,5.70207e-06,69.0625,-123.18,-170.23,7.60394e+06,843750,-7.28792e-08,2.41887e-07,-9.33077e-08,0.00457562,0.0304229,0.000449445,0.0292168,2,1363
12,4.62492e-22,2,1970,31.67,-3.5551e-06,4.48672e-06,-5.88672e-08,5.72476e-06,73.9375,13.09,-96.26,3.72906e+06,656250,-9.21916e-08,2.83619e-07,-1.17546e-07,0.0039441,0.0278938,0.000683001,0.0274016,3,605
12,4.25087e-22,2,1971,31.67,-3.65722e-06,4.38901e-06,-7.04632e-08,5.71346e-06,77.1875,13.09,-96.26,1.14581e+06,531250,-1.05176e-07,3.1182e-07,-1.40229e-07,0.00311954,0.0247959,0.000134761,0.0248431,3,606
12,4.15736e-22,2,1972,31.67,-3.76545e-06,4.27436e-06,-7.36901e-08,5.69686e-06,78,13.09,-96.26,500000,500000,-1.08395e-07,3.19358e-07,-1.47654e-07,0.00291361,0.023669,-0.000119214,0.0236827,3,607
12,4.15736e-22,2,1973,31.67,-3.87401e-06,4.16577e-06,-7.42428e-08,5.68921e-06,78,13.09,-96.26,500000,500000,-1.07601e-07,3.21633e-07,-1.48478e-07,0.00333832,0.0240431,2.05921e-05,0.0236857,3,608
12,4.15736e-22,2,1974,31.67,-3.98065e-06,4.05575e-06,-7.43374e-08,5.68333e-06,78,13.09,-96.26,500000,500000,-1.04654e-07,3.19503e-07,-1.48669e-07,0.00369776,0.0239878,-2.19414e-05,0.0233993,3,609
12,4.15736e-22,2,1975,31.67,-4.08332e-06,3.94209e-06,-7.41954e-08,5.67619e-06,78,13.09,-96.26,500000,500000,-1.01473e-07,3.16585e-07,-1.48355e-07,0.0040838,0.0238542,-3.36094e-05,0.0228972,3,610
12,4.15736e-22,2,1976,31.67,-4.1836e-06,3.82607e-06,-7.4685e-08,5.66982e-06,78,13.09,-96.26,500000,500000,-1.00953e-07,3.18057e-07,-1.49445e-07,0.00438736,0.0239502,-5.58567e-05,0.0226085,3,611
12,4.15736e-22,2,1977,31.67,-4.28522e-06,3.70998e-06,-7.63287e-08,5.66859e-06,78,13.09,-96.26,500000,500000,-1.04365e-07,3.26117e-07,-1.52874e-07,0.00450327,0.0243818,-9.39465e-05,0.0227667,3,612
12,4.15736e-22,2,1978,31.67,-4.39233e-06,3.59482e-06,-7.90795e-08,5.6764e-06,78,13.09,-96.26,500000,500000,-1.10837e-07,3.40501e-07,-1.58412e-07,0.00456194,0.0252569,-3.56264e-05,0.0234221,3,613
12,4.36832e-22,2,1979,31.67,-4.5069e-06,3.48061e-06,-8.16281e-08,5.69503e-06,78.625,13.09,-96.26,1.14581e+06,531250,-1.07538e-07,3.45682e-07,-1.62912e-07,0.00413473,0.0278717,-0.00030417,0.0268113,3,614
12,4.79024e-22,2,1980,31.67,-4.6074e-06,3.40288e-06,-8.1449e-08,5.72838e-06,79.875,13.09,-96.26,2.43744e+06,593750,-8.50799e-08,3.2766e-07,-1.6179e-07,0.00482699,0.0298348,-0.000839236,0.0297708,3,615
12,5.42311e-22,2,1981,31.67,-4.67706e-06,3.41162e-06,-7.59777e-08,5.78963e-06,81.75,13.09,-96.26,4.37488e+06,687500,-4.32898e-08,2.8304e-07,-1.52353e-07,0.00649923,0.0321929,-0.000734064,0.0324683,3,616
12,6.47791e-22,1,1982,179.529,-4.69398e-06,3.51528e-06,-7.41432e-08,5.86482e-06,84.875,-34.91,-168.19,7.60394e+06,843750,8.7781e-09,2.39365e-07,-1.49105e-07,0.0072431,0.0396341,-0.000342896,0.0393416,2,1364
12,7.32174e-22,1,1983,179.529,-4.6595e-06,3.65449e-06,-7.92429e-08,5.92221e-06,87.375,-34.91,-168.19,1.01872e+07,968750,4.07078e-08,2.28517e-07,-1.58281e-07,0.00722662,0.0473363,-0.000236066,0.0456288,2,1365
12,7.5327e-22,1,1984,179.529,-4.61257e-06,3.7411e-06,-8.22097e-08,5.93956e-06,88,-34.91,-168.19,1.0833e+07,1e+06,4.85422e-08,2.29769e-07,-1.64104e-07,0.0073841,0.049538,-0.000309885,0.0468316,2,1366
12,7.21333e-22,1,1985,179.529,-4.56242e-06,3.75895e-06,-8.13323e-08,5.91202e-06,88.0625,-34.91,-168.19,1.01872e+07,968750,4.97889e-08,2.27006e-07,-1.61788e-07,0.00837567,0.0478467,0.000100777,0.0443838,2,1367
12,6.57458e-22,1,1986,179.529,-4.51299e-06,3.73405e-06,-7.77952e-08,5.85801e-06,88.1875,-34.91,-168.19,8.89556e+06,906250,4.57945e-08,2.23978e-07,-1.56254e-07,0.00866449,0.0445229,0.000693131,0.0407671,2,1368
12,5.61647e-22,1,1987,179.529,-4.47083e-06,3.70766e-06,-7.68416e-08,5.8087e-06,88.375,-34.91,-168.19,6.95812e+06,812500,3.49237e-08,2.29446e-07,-1.55079e-07,0.00747289,0.0419564,0.000911882,0.0387613,2,1369
12,4.33898e-22,2,1988,99.87,-4.44314e-06,3.68438e-06,-8.12713e-08,5.77259e-06,88.625,165.01,-32.53,4.37488e+06,687500,2.12682e-08,2.46383e-07,-1.62238e-07,0.00577975,0.0400182,0.00102224,0.0375631,3,617
12,3.70024e-22,2,1989,99.87,-4.42829e-06,3.65376e-06,-8.45838e-08,5.74168e-06,88.75,165.01,-32.53,3.08325e+06,625000,1.28275e-08,2.5737e-07,-1.6858e-07,0.00456782,0.0385394,0.000740384,0.0366677,3,618
12,3.70024e-22,2,1990,99.87,-4.41749e-06,3.63418e-06,-8.48677e-08,5.7209e-06,88.75,165.01,-32.53,3.08325e+06,625000,8.27856e-09,2.60825e-07,-1.69635e-07,0.00373384,0.0387957,0.000376394,0.0374727,3,619
12,3.70024e-22,2,1991,99.87,-4.41174e-06,3.624e-06,-8.55448e-08,5.71e-06,88.75,165.01,-32.53,3.08325e+06,625000,1.82588e-09,2.67597e-07,-1.70888e-07,0.00259991,0.0396782,7.17511e-05,0.0391507,3,620
12,3.39366e-22,2,1992,99.87,-4.41383e-06,3.64809e-06,-8.62657e-08,5.72695e-06,89.375,165.01,-32.53,2.43744e+06,593750,-1.61139e-08,2.83129e-07,-1.72144e-07,0.000545256,0.0404365,-0.00012435,0.0414431,3,621
12,2.80608e-22,2,1993,99.87,-4.44396e-06,3.70753e-06,-8.38534e-08,5.78806e-06,91.75,165.01,-32.53,1.14581e+06,531250,-5.91769e-08,3.15642e-07,-1.68138e-07,-0.000564085,0.0379385,0.000250077,0.0397551,3,622
12,2.56346e-22,2,1994,9.76005,-4.53219e-06,3.73016e-06,-7.61538e-08,5.87032e-06,95.1875,161.5,100.91,500000,500000,-1.10113e-07,3.36017e-07,-1.52844e-07,-0.000627148,0.0307145,0.000451677,0.032115,3,623
12,2.61463e-22,2,1995,9.76005,-4.66419e-06,3.6931e-06,-6.83013e-08,5.94965e-06,97.4375,161.5,100.91,500000,500000,-1.3494e-07,3.26129e-07,-1.36342e-07,-0.00099376,0.0237896,0.000129977,0.0247333,3,624
12,2.62742e-22,2,1996,9.76004,-4.80207e-06,3.64595e-06,-6.35923e-08,6.02967e-06,98,161.5,100.91,500000,500000,-1.35512e-07,3.09727e-07,-1.2705e-07,-0.00114023,0.020888,-3.25381e-05,0.0216284,3,625
12,2.62742e-22,2,1997,9.76004,-4.93521e-06,3.60595e-06,-5.99682e-08,6.11251e-06,98,161.5,100.91,500000,500000,-1.32092e-07,2.96584e-07,-1.19961e-07,-0.00119736,0.0198253,-1.37782e-05,0.0205047,3,626
12,2.62742e-22,2,1998,9.76004,-5.06625e-06,3.56253e-06,-5.72261e-08,6.19369e-06,98,161.5,100.91,500000,500000,-1.30823e-07,2.87645e-07,-1.14499e-07,-0.00124393,0.0189653,-3.00778e-05,0.0196541,3,627
12,2.62742e-22,2,1999,9.76004,-5.19686e-06,3.51384e-06,-5.62292e-08,6.27356e-06,98,161.5,100.91,500000,500000,-1.32507e-07,2.84257e-07,-1.12872e-07,-0.00161114,0.018236,-0.000373697,0.0193383,3,628
12,2.62742e-22,2,2000,9.76004,-5.33127e-06,3.46398e-06,-5.92494e-08,6.35807e-06,98,161.5,100.91,500000,500000,-1.37007e-07,2.91436e-07,-1.17982e-07,-0.00214261,0.0183039,-0.000926449,0.0198732,3,629
12,3.65601e-22,2,2001,9.76003,-5.47087e-06,3.43122e-06,-4.91379e-08,6.45803e-06,101.75,161.5,100.91,3.08325e+06,625000,-1.23847e-07,2.79958e-07,-9.79932e-08,-0.00169652,0.0275352,0.000663346,0.0289929,3,630
12,5.71319e-22,1,2002,123.67,-5.57896e-06,3.48992e-06,-3.8126e-08,6.58071e-06,109.25,-64.23,128.87,8.24975e+06,875000,-8.99522e-08,2.50874e-07,-7.66096e-08,-0.00094507,0.0412939,0.000553939,0.0425399,2,1370
12,6.74177e-22,1,2003,123.67,-5.65078e-06,3.61193e-06,-3.83276e-08,6.70662e-06,113,-64.23,128.87,1.0833e+07,1e+06,-6.97723e-08,2.36851e-07,-7.65079e-08,-0.000525173,0.0461331,-0.000712298,0.0469638,2,1371
12,6.74177e-22,1,2004,123.67,-5.7185e-06,3.70977e-06,-3.61293e-08,6.81652e-06,113,-64.23,128.87,1.0833e+07,1e+06,-6.64493e-08,2.30241e-07,-7.2377e-08,-0.000197608,0.0455882,-7.63863e-05,0.0461412,2,1372
12,6.74177e-22,1,2005,123.67,-5.78368e-06,3.78831e-06,-3.53067e-08,6.91401e-06,113,-64.23,128.87,1.0833e+07,1e+06,-6.37308e-08,2.2423e-07,-7.05974e-08,-6.99257e-05,0.0447345,-0.00010071,0.045468,2,1373
12,6.74177e-22,1,2006,123.67,-5.84596e-06,3.85484e-06,-3.44623e-08,7.00259e-06,113,-64.23,128.87,1.0833e+07,1e+06,-6.08633e-08,2.18504e-07,-6.89572e-08,0.000193867,0.043866,-9.96242e-05,0.044633,2,1374
12,6.74177e-22,1,2007,123.67,-5.9054e-06,3.91468e-06,-3.39437e-08,7.08517e-06,113,-64.23,128.87,1.0833e+07,1e+06,-5.81204e-08,2.13245e-07,-6.77249e-08,0.00050068,0.0429768,-0.000153733,0.04369,2,1375
12,6.75381e-22,1,2008,123.67,-5.96221e-06,3.97384e-06,-3.23074e-08,7.16522e-06,114,-64.23,128.87,1.0833e+07,1e+06,-5.6734e-08,2.08426e-07,-6.44904e-08,0.000910352,0.0423467,-3.1713e-05,0.0427404,2,1376
12,6.7779e-22,1,2009,64.15,-6.01887e-06,4.036e-06,-2.95569e-08,7.24686e-06,116,-139.18,-156.59,1.0833e+07,1e+06,-5.73662e-08,2.04784e-07,-5.94276e-08,0.00129561,0.0420352,0.000285518,0.0418594,2,1377
12,6.79746e-22,1,2010,64.15,-6.07694e-06,4.11029e-06,-2.82542e-08,7.33651e-06,117.375,-139.18,-156.59,1.0833e+07,1e+06,-5.73288e-08,2.0546e-07,-5.68305e-08,0.00157818,0.0435543,0.000125146,0.0432158,2,1378
12,6.61596e-22,1,2011,64.15,-6.13353e-06,4.19242e-06,-2.70527e-08,7.42949e-06,117.812,-139.18,-156.59,1.01872e+07,968750,-5.30264e-08,1.97292e-07,-5.31426e-08,0.00083499,0.0447657,-0.00101515,0.0455025,2,1379
12,6.23038e-22,1,2012,121.75,-6.18299e-06,4.26037e-06,-1.95804e-08,7.5087e-06,117.562,-23.35,126.79,8.89556e+06,906250,-4.74479e-08,1.7527e-07,-3.89229e-08,8.25219e-06,0.0424757,-0.000294474,0.043107,2,1380
12,6.23489e-22,1,2013,121.75,-6.22842e-06,4.30752e-06,-1.30483e-08,7.57286e-06,117.188,-23.35,126.79,8.89556e+06,906250,-4.49268e-08,1.56895e-07,-2.71201e-08,-0.000570098,0.0401298,0.000772244,0.0402462,2,1381
12,6.63699e-22,1,2014,121.75,-6.27284e-06,4.3426e-06,-1.21868e-08,7.62934e-06,117.063,-23.35,126.79,1.01872e+07,968750,-4.26973e-08,1.4673e-07,-2.44488e-08,-0.00116861,0.0396717,0.000513144,0.0401267,2,1382
12,6.83804e-22,1,2015,121.75,-6.31382e-06,4.38173e-06,-1.15252e-08,7.68531e-06,117,-23.35,126.79,1.0833e+07,1e+06,-3.96657e-08,1.39958e-07,-2.29054e-08,-0.00108582,0.0387854,0.000660939,0.0390485,2,1383
12,6.83804e-22,1,2016,121.75,-6.35218e-06,4.42756e-06,-1.14836e-08,7.74297e-06,117,-23.35,126.79,1.0833e+07,1e+06,-3.64805e-08,1.33184e-07,-2.29309e-08,-0.000851589,0.0368808,0.000539558,0.0370521,2,1384
12,6.9399e-22,1,2017,121.75,-6.38678e-06,4.4684e-06,-1.18514e-08,7.79472e-06,117.438,-23.35,126.79,1.0833e+07,1e+06,-3.24711e-08,1.27005e-07,-2.3737e-08,-0.000518928,0.0351355,0.000477385,0.0352313,2,1385
12,7.44921e-22,1,2018,121.75,-6.41712e-06,4.49223e-06,-1.65756e-08,7.83325e-06,119.625,-23.35,126.79,1.0833e+07,1e+06,-2.65226e-08,1.33824e-07,-3.354e-08,-4.86952e-05,0.035985,0.000626803,0.0359369,2,1386
12,8.16224e-22,1,2019,57.67,-6.43982e-06,4.48406e-06,-2.73815e-08,7.84722e-06,122.688,-172.69,-138.33,1.0833e+07,1e+06,-1.96996e-08,1.51626e-07,-5.43299e-08,1.35424e-06,0.0381996,0.000263493,0.038254,2,1387
12,8.46782e-22,1,2020,57.67,-6.45652e-06,4.45492e-06,-3.47379e-08,7.84437e-06,124,-172.69,-138.33,1.0833e+07,1e+06,-1.65072e-08,1.64636e-07,-6.93986e-08,-0.000203547,0.0398206,-0.000590863,0.0402435,2,1388
12,6.45258e-22,1,2021,73.27,-4.00668e-08,3.51539e-06,-2.63651e-08,3.51571e-06,8,-129.16,-171.71,1.0833e+07,1e+06,-8.08211e-08,1.83466e-07,-5.1953e-08,-0.00302654,0.0272538,0.000900479,0.0285409,2,1389
12,6.23337e-22,1,2022,73.27,-1.21575e-07,3.55572e-06,-2.79373e-08,3.55791e-06,8.375,-129.16,-171.71,1.01872e+07,968750,-8.10794e-08,1.847e-07,-5.6389e-08,-0.00350914,0.026714,-0.000106918,0.0287509,2,1390
12,5.35652e-22,1,2023,73.27,-2.02226e-07,3.60328e-06,-3.50164e-08,3.60912e-06,9.875,-129.16,-171.71,7.60394e+06,843750,-7.28456e-08,1.94181e-07,-7.13137e-08,-0.0035463,0.0269709,-0.000257367,0.029525,2,1391
12,4.09936e-22,2,2024,79.76,-2.67267e-07,3.6701e-06,-4.89677e-08,3.68014e-06,11.5,-174.76,-145.86,3.72906e+06,656250,-5.69062e-08,2.10781e-07,-9.8114e-08,-0.00325221,0.0279556,-0.000496621,0.0306104,3,631
12,3.28062e-22,2,2025,79.76,-3.16038e-07,3.75008e-06,-5.97792e-08,3.76385e-06,12.375,-174.76,-145.86,1.14581e+06,531250,-4.57298e-08,2.30158e-07,-1.19569e-07,-0.00266329,0.0298265,0.000122534,0.0317619,3,632
12,3.0033e-22,2,2026,79.76,-3.58726e-07,3.85008e-06,-7.14322e-08,3.86742e-06,13.375,-174.76,-145.86,500000,500000,-4.11803e-08,2.49012e-07,-1.4229e-07,-0.00305613,0.0302666,0.00018589,0.0321868,3,633
12,2.94519e-22,2,2027,79.76,-3.98399e-07,3.96791e-06,-8.0375e-08,3.98867e-06,14,-174.76,-145.86,500000,500000,-4.0632e-08,2.62288e-07,-1.59668e-07,-0.00397013,0.0302245,-0.000342997,0.0326585,3,634
12,3.00211e-22,2,2028,79.76,-4.3999e-07,4.08141e-06,-7.83663e-08,4.10581e-06,13.9375,-174.76,-145.86,500000,500000,-4.16952e-08,2.5967e-07,-1.57191e-07,-0.00434632,0.0307079,-0.000953905,0.0336615,3,635
12,3.11595e-22,2,2029,79.76,-4.81789e-07,4.15739e-06,-6.94203e-08,4.18579e-06,13.8125,-174.76,-145.86,500000,500000,-4.50001e-08,2.4138e-07,-1.38863e-07,-0.00508876,0.0303693,-0.00123801,0.0339744,3,636
12,3.20124e-22,2,2030,79.76,-5.2999e-07,4.17663e-06,-5.77157e-08,4.21052e-06,14.5,-174.76,-145.86,500000,500000,-5.56452e-08,2.30183e-07,-1.13637e-07,-0.00569046,0.0316653,-0.000518105,0.0355791,3,637
12,3.11456e-22,2,2031,79.76,-5.93079e-07,4.14644e-06,-4.64194e-08,4.1889e-06,18.5625,-174.76,-145.86,500000,500000,-6.71661e-08,2.21515e-07,-9.22723e-08,-0.00586095,0.0324072,-0.000598028,0.0369694,3,638
12,2.8561e-22,2,2032,84.77,-6.64323e-07,4.10269e-06,-4.21646e-08,4.15634e-06,24.4375,-156.44,-54.66,500000,500000,-6.90006e-08,2.16138e-07,-8.64409e-08,-0.00519527,0.030761,-0.000194721,0.0346455,3,639
12,2.36949e-22,2,2033,84.77,-7.31081e-07,4.08569e-06,-4.90971e-08,4.15087e-06,27.5,-156.44,-54.66,500000,500000,-6.93226e-08,2.32406e-07,-1.00384e-07,-0.00388837,0.0296635,0.000433493,0.032165,3,640
12,1.72687e-22,2,2034,95.09,-8.02968e-07,4.10015e-06,-6.20574e-08,4.1785e-06,28.625,-9.02,-160.64,500000,500000,-7.53783e-08,2.61647e-07,-1.2379e-07,-0.00263559,0.0285852,0.000166474,0.0305907,3,641
12,1.47119e-22,2,2035,95.09,-8.81837e-07,4.13895e-06,-7.44854e-08,4.23251e-06,29.375,-9.02,-160.64,500000,500000,-7.48583e-08,2.82003e-07,-1.47845e-07,-0.00191209,0.027478,-0.000778559,0.0296421,3,642
12,1.51494e-22,2,2036,95.09,-9.52684e-07,4.18486e-06,-8.11447e-08,4.2927e-06,29.5,-9.02,-160.64,500000,500000,-6.78752e-08,2.91199e-07,-1.61292e-07,-0.0009106,0.0280382,-0.00119835,0.0299297,3,643
12,1.29959e-22,2,2037,95.09,-1.01759e-06,4.2463e-06,-8.53327e-08,4.36736e-06,29.625,-9.02,-160.64,500000,500000,-6.71151e-08,3.02061e-07,-1.70495e-07,-0.000177708,0.0283469,-0.00122832,0.0297826,3,644
12,8.68887e-23,2,2038,95.09,-1.08691e-06,4.32797e-06,-8.63146e-08,4.4632e-06,29.875,-9.02,-160.64,500000,500000,-7.44122e-08,3.1196e-07,-1.72992e-07,-1.6898e-05,0.0276677,-0.000666505,0.0284272,3,645
12,6.53535e-23,2,2039,95.09,-1.16641e-06,4.41379e-06,-8.44118e-08,4.56609e-06,30,-9.02,-160.64,500000,500000,-8.18882e-08,3.15922e-07,-1.69e-07,-0.000204247,0.0272827,0.000106193,0.0275966,3,646
12,6.53535e-23,2,2040,95.09,-1.25069e-06,4.4957e-06,-8.33318e-08,4.66717e-06,30,-9.02,-160.64,500000,500000,-8.64073e-08,3.14183e-07,-1.67571e-07,-0.0010992,0.0267068,-0.000441979,0.0278056,3,647
12,6.53535e-23,2,2041,95.09,-1.33923e-06,4.57065e-06,-8.18193e-08,4.76351e-06,30,-9.02,-160.64,500000,500000,-9.11635e-08,3.13116e-07,-1.64466e-07,-0.00175959,0.0264506,-0.000661634,0.028043,3,648
12,6.53535e-23,2,2042,95.09,-1.43302e-06,4.62903e-06,-7.96569e-08,4.84642e-06,30,-9.02,-160.64,500000,500000,-9.63879e-08,3.10508e-07,-1.58325e-07,-0.00232162,0.0262186,-0.000574618,0.028091,3,649
12,8.68911e-23,2,2043,95.09,-1.532e-06,4.67558e-06,-7.29098e-08,4.92071e-06,30.3125,-9.02,-160.64,500000,500000,-1.05573e-07,3.06455e-07,-1.43848e-07,-0.00274072,0.0271238,-0.000542559,0.0295144,3,650
12,1.29966e-22,2,2044,95.09,-1.64416e-06,4.71158e-06,-5.62393e-08,4.99053e-06,30.9375,-9.02,-160.64,500000,500000,-1.18146e-07,2.91306e-07,-1.12299e-07,-0.00294545,0.0278767,0.000509221,0.0303006,3,651
12,2.33988e-22,2,2045,95.09,-1.76829e-06,4.73753e-06,-3.77877e-08,5.05692e-06,32.25,-9.02,-160.64,1.14581e+06,531250,-1.21537e-07,2.52198e-07,-7.55993e-08,-0.00335184,0.0267493,3.79372e-05,0.0301814,3,652
12,4.85389e-22,2,2046,117.14,-1.88724e-06,4.73506e-06,-2.49708e-08,5.09736e-06,39.1875,133.75,99.63,4.37488e+06,687500,-1.02455e-07,2.12554e-07,-5.10315e-08,-0.00236799,0.0296869,-0.000146136,0.0327573,3,653
12,7.40741e-22,1,2047,130.6,-1.9732e-06,4.73256e-06,-2.33243e-08,5.1275e-06,50.0625,117.2,-48.36,8.89556e+06,906250,-7.20324e-08,1.90595e-07,-4.79267e-08,-0.00040595,0.034029,0.000739184,0.0345618,2,1392
12,8.27175e-22,1,2048,130.6,-2.0313e-06,4.7562e-06,-2.8081e-08,5.17189e-06,55,117.2,-48.36,1.0833e+07,1e+06,-5.75591e-08,1.85596e-07,-5.54626e-08,0.000474189,0.0353593,0.000141267,0.0350704,2,1393
12,8.27175e-22,1,2049,130.6,-2.08832e-06,4.77667e-06,-2.89292e-08,5.2133e-06,55,117.2,-48.36,1.0833e+07,1e+06,-5.91056e-08,1.9182e-07,-5.75047e-08,0.00048955,0.0368393,-4.76303e-05,0.0367352,2,1394
12,8.27175e-22,1,2050,130.6,-2.14951e-06,4.79662e-06,-2.96966e-08,5.25631e-06,55,117.2,-48.36,1.0833e+07,1e+06,-6.38861e-08,2.00979e-07,-5.95598e-08,-7.19003e-05,0.0385412,-3.6154e-05,0.0387649,2,1395
12,8.27175e-22,1,2051,130.6,-2.21609e-06,4.81992e-06,-3.03289e-08,5.30506e-06,55,117.2,-48.36,1.0833e+07,1e+06,-6.83504e-08,2.06967e-07,-6.06452e-08,-0.000772826,0.0393799,4.32379e-05,0.0398828,2,1396
12,8.27175e-22,1,2052,130.6,-2.28621e-06,4.84771e-06,-3.04533e-08,5.35985e-06,55,117.2,-48.36,1.0833e+07,1e+06,-7.04484e-08,2.08143e-07,-6.08881e-08,-0.0012289,0.0392427,5.90945e-05,0.0399108,2,1397
12,8.27175e-22,1,2053,130.6,-2.35699e-06,4.87811e-06,-2.98515e-08,5.41777e-06,55,117.2,-48.36,1.0833e+07,1e+06,-6.9082e-08,2.03962e-07,-5.97461e-08,-0.00117082,0.0382871,0.000127157,0.0388487,2,1398
12,8.27175e-22,1,2054,130.6,-2.42438e-06,4.90284e-06,-2.8644e-08,5.46958e-06,55,117.2,-48.36,1.0833e+07,1e+06,-6.46801e-08,1.93402e-07,-5.67946e-08,-0.000850834,0.0363503,0.00015455,0.0367441,2,1399
12,8.00089e-22,1,2055,130.6,-2.48635e-06,4.91066e-06,-2.81833e-08,5.5043e-06,54.5,117.2,-48.36,1.01872e+07,968750,-6.06556e-08,1.85499e-07,-5.64842e-08,-0.000882948,0.0347223,-0.00038412,0.0358958,2,1400
12,7.07548e-22,1,2056,130.6,-2.54569e-06,4.86928e-06,-3.17049e-08,5.49468e-06,56.5,117.2,-48.36,9.54138e+06,937500,-6.30368e-08,2.14088e-07,-6.44444e-08,0.00123782,0.0396403,0.00100618,0.0403754,2,1401
12,6.03723e-22,1,2057,80.41,-2.61242e-06,4.80988e-06,-4.05466e-08,5.47369e-06,62,-123.18,-170.23,1.01872e+07,968750,-6.92945e-08,2.39876e-07,-8.08338e-08,0.00321464,0.0399469,0.00070988,0.039804,2,1402
12,5.65354e-22,1,2058,80.41,-2.68428e-06,4.78002e-06,-4.36182e-08,5.48232e-06,65,-123.18,-170.23,1.0833e+07,1e+06,-6.98029e-08,2.31792e-07,-8.67424e-08,0.00328587,0.0347591,-0.000745245,0.0343124,2,1403
12,5.65354e-22,1,2059,80.41,-2.75203e-06,4.76032e-06,-4.06405e-08,5.49872e-06,65,-123.18,-170.23,1.0833e+07,1e+06,-6.5876e-08,2.23446e-07,-8.13554e-08,0.0037937,0.0340256,-4.01663e-05,0.0328997,2,1404
12,5.65354e-22,1,2060,80.41,-2.81603e-06,4.74236e-06,-3.97286e-08,5.51557e-06,65,-123.18,-170.23,1.0833e+07,1e+06,-6.25808e-08,2.17281e-07,-7.94389e-08,0.00408479,0.0332685,-4.63719e-05,0.0320764,2,1405
12,5.65354e-22,1,2061,80.41,-2.87719e-06,4.72547e-06,-3.9199e-08,5.53261e-06,65,-123.18,-170.23,1.0833e+07,1e+06,-6.06779e-08,2.14259e-07,-7.84189e-08,0.00429752,0.0329544,5.63999e-06,0.0316828,2,1406
12,5.65354e-22,1,2062,80.41,-2.93739e-06,4.70947e-06,-3.90843e-08,5.55057e-06,65,-123.18,-170.23,1.0833e+07,1e+06,-6.02049e-08,2.13467e-07,-7.81763e-08,0.00434485,0.0328599,1.47482e-05,0.031565,2,1407
12,5.65354e-22,1,2063,80.41,-2.9976e-06,4.69526e-06,-3.92686e-08,5.5707e-06,65,-123.18,-170.23,1.0833e+07,1e+06,-6.05745e-08,2.14347e-07,-7.85409e-08,0.00433287,0.0329468,1.22851e-05,0.0316142,2,1408
12,5.65354e-22,1,2064,80.41,-3.05854e-06,4.68439e-06,-3.96811e-08,5.59461e-06,65,-123.18,-170.23,1.0833e+07,1e+06,-6.15625e-08,2.16505e-07,-7.93618e-08,0.00428523,0.0331677,1.24501e-05,0.0317649,2,1409
12,5.65354e-22,1,2065,80.41,-3.12073e-06,4.67864e-06,-4.02189e-08,5.62407e-06,65,-123.18,-170.23,1.0833e+07,1e+06,-6.28619e-08,2.19273e-07,-8.04281e-08,0.00421895,0.0334237,2.20153e-05,0.0319092,2,1410
12,5.65354e-22,1,2066,80.41,-3.18426e-06,4.67975e-06,-4.07264e-08,5.66049e-06,65,-123.18,-170.23,1.0833e+07,1e+06,-6.37135e-08,2.21455e-07,-8.14391e-08,0.00421654,0.0335638,4.27687e-05,0.0318789,2,1411
12,5.65354e-22,1,2067,80.41,-3.24815e-06,4.6884e-06,-4.10027e-08,5.70379e-06,65,-123.18,-170.23,1.0833e+07,1e+06,-6.31268e-08,2.21391e-07,-8.1982e-08,0.00436753,0.0333871,5.80551e-05,0.0314937,2,1412
12,5.65354e-22,1,2068,80.41,-3.31051e-06,4.70353e-06,-4.09361e-08,5.7519e-06,65,-123.18,-170.23,1.0833e+07,1e+06,-6.05795e-08,2.18556e-07,-8.1951e-08,0.00475785,0.0328876,4.0325e-05,0.0307836,2,1413
12,5.65354e-22,1,2069,80.41,-3.36931e-06,4.72236e-06,-4.09068e-08,5.80126e-06,65,-123.18,-170.23,1.0833e+07,1e+06,-5.66979e-08,2.13806e-07,-8.12397e-08,0.00534056,0.032208,5.91887e-05,0.029814,2,1414
12,5.56003e-22,1,2070,80.41,-3.42391e-06,4.74273e-06,-4.06666e-08,5.84964e-06,65.8125,-123.18,-170.23,1.01872e+07,968750,-5.68997e-08,2.1457e-07,-8.16142e-08,0.00553279,0.0315097,0.000216533,0.0292403,2,1415
12,5.09247e-22,1,2071,80.41,-3.48311e-06,4.74534e-06,-4.79609e-08,5.88665e-06,69.875,-123.18,-170.23,6.95812e+06,812500,-7.10968e-08,2.42849e-07,-9.73907e-08,0.00496862,0.0298256,-2.29998e-05,0.0289851,2,1416
12,4.43789e-22,2,2072,31.67,-3.5661e-06,4.69122e-06,-6.50925e-08,5.89312e-06,75.5625,13.09,-96.26,2.43744e+06,593750,-9.38702e-08,2.91356e-07,-1.29011e-07,0.00398722,0.0260214,-0.000220488,0.0260314,3,654
12,4.15736e-22,2,2073,31.67,-3.67085e-06,4.59337e-06,-7.45678e-08,5.88045e-06,78,13.09,-96.26,500000,500000,-1.05939e-07,3.18592e-07,-1.48604e-07,0.00326756,0.0237255,-0.000220418,0.0237155,3,655
12,4.15736e-22,2,2074,31.67,-3.77798e-06,4.48607e-06,-7.45185e-08,5.86545e-06,78,13.09,-96.26,500000,500000,-1.04087e-07,3.18541e-07,-1.49762e-07,0.0034213,0.0238478,-0.000227644,0.0238951,3,656
12,4.15736e-22,2,2075,31.67,-3.87903e-06,4.37062e-06,-7.34085e-08,5.84419e-06,78,13.09,-96.26,500000,500000,-9.74805e-08,3.09455e-07,-1.46454e-07,0.0039839,0.0234878,-8.42923e-05,0.0231426,3,657
12,4.15736e-22,2,2076,31.67,-3.97294e-06,4.2512e-06,-7.19977e-08,5.81912e-06,78,13.09,-96.26,500000,500000,-9.21315e-08,3.02278e-07,-1.44157e-07,0.00449753,0.0231188,-3.27974e-05,0.0222503,3,658
12,4.15736e-22,2,2077,31.67,-4.06329e-06,4.13558e-06,-7.21214e-08,5.79815e-06,78,13.09,-96.26,500000,500000,-9.08139e-08,3.02408e-07,-1.44343e-07,0.00491556,0.0231774,1.82708e-05,0.0217597,3,659
12,4.15736e-22,2,2078,31.67,-4.15457e-06,4.02754e-06,-7.37741e-08,5.78679e-06,78,13.09,-96.26,500000,500000,-9.34563e-08,3.09731e-07,-1.47509e-07,0.00515322,0.0236018,-1.08536e-05,0.0217974,3,660
12,4.15736e-22,2,2079,31.67,-4.2502e-06,3.92792e-06,-7.71518e-08,5.78781e-06,78,13.09,-96.26,500000,500000,-1.00583e-07,3.26158e-07,-1.54627e-07,0.00524908,0.0245344,-0.000127094,0.0225729,3,661
12,4.15736e-22,2,2080,31.67,-4.35573e-06,3.84019e-06,-8.29478e-08,5.80744e-06,78,13.09,-96.26,500000,500000,-1.13548e-07,3.55126e-07,-1.66018e-07,0.00533173,0.0263448,-9.23072e-05,0.0243574,3,662
12,4.15736e-22,2,2081,31.67,-4.4773e-06,3.77927e-06,-8.83605e-08,5.85977e-06,78,13.09,-96.26,500000,500000,-1.23371e-07,3.79912e-07,-1.76427e-07,0.00558749,0.0279783,-7.81446e-05,0.0259458,3,663
12,4.36832e-22,2,2082,31.67,-4.60248e-06,3.75375e-06,-8.91348e-08,5.93981e-06,78.625,13.09,-96.26,1.14581e+06,531250,-1.06925e-07,3.70354e-07,-1.78061e-07,0.00652978,0.0298422,-0.000359279,0.0284717,3,664
12,5.42311e-22,2,2083,31.67,-4.69115e-06,3.79477e-06,-8.62927e-08,6.03445e-06,81.75,13.09,-96.26,4.37488e+06,687500,-4.35868e-08,3.17206e-07,-1.7268e-07,0.00773141,0.0383915,-0.000136511,0.0371096,3,665
12,6.89982e-22,1,2084,179.529,-4.68965e-06,3.89702e-06,-8.60314e-08,6.09811e-06,86.125,-34.91,-168.19,8.89556e+06,906250,3.20415e-08,2.56556e-07,-1.71911e-07,0.00921989,0.0477844,-6.39522e-05,0.0450389,2,1417
12,7.21333e-22,1,2085,179.529,-4.62707e-06,3.97409e-06,-8.72147e-08,6.10006e-06,88.0625,-34.91,-168.19,1.01872e+07,968750,5.98458e-08,2.38582e-07,-1.73331e-07,0.0105484,0.0504329,0.000299445,0.0462111,2,1418
12,5.93584e-22,1,2086,179.529,-4.56996e-06,3.99266e-06,-8.71322e-08,6.06906e-06,88.3125,-34.91,-168.19,7.60394e+06,843750,4.69114e-08,2.51082e-07,-1.74834e-07,0.00934304,0.0478609,0.000853798,0.043979,2,1419
12,4.33898e-22,2,2087,99.87,-4.53324e-06,3.97594e-06,-8.98876e-08,6.03046e-06,88.625,165.01,-32.53,4.37488e+06,687500,2.70597e-08,2.68319e-07,-1.80888e-07,0.00665095,0.0434056,0.000770227,0.0408571,3,666
12,3.38087e-22,2,2088,99.87,-4.51584e-06,3.96127e-06,-9.25566e-08,6.00775e-06,88.8125,165.01,-32.53,2.43744e+06,593750,1.17137e-08,2.77671e-07,-1.85441e-07,0.00411673,0.0403831,6.58894e-05,0.0392248,3,667
12,2.74212e-22,2,2089,99.87,-4.50982e-06,3.95587e-06,-9.58778e-08,5.99971e-06,88.9375,165.01,-32.53,1.14581e+06,531250,3.0488e-09,2.8239e-07,-1.91647e-07,0.00240122,0.038074,-0.000835836,0.0380562,3,668
12,2.42275e-22,2,2090,99.87,-4.50974e-06,3.93953e-06,-9.91151e-08,5.98894e-06,89,165.01,-32.53,500000,500000,-1.1824e-09,2.8996e-07,-1.97542e-07,0.00185944,0.0373748,-0.00109776,0.0376222,3,669
12,2.42275e-22,2,2091,99.87,-4.51218e-06,3.92333e-06,-9.89813e-08,5.98014e-06,89,165.01,-32.53,500000,500000,-4.933e-09,2.92681e-07,-1.97758e-07,0.00128915,0.0376234,-0.00129652,0.0382851,3,670
12,2.42275e-22,2,2092,99.87,-4.51961e-06,3.92072e-06,-9.82691e-08,5.98402e-06,89,165.01,-32.53,500000,500000,-9.59145e-09,2.96776e-07,-1.96186e-07,0.000577922,0.0386265,-0.00116717,0.0397496,3,671
12,2.42275e-22,2,2093,99.87,-4.53136e-06,3.94571e-06,-9.58542e-08,6.00925e-06,89,165.01,-32.53,500000,500000,-1.11656e-08,2.94488e-07,-1.90989e-07,0.000124335,0.0392564,-0.000785322,0.0407443,3,672
12,2.43554e-22,2,2094,99.87,-4.54194e-06,4.006e-06,-8.87524e-08,6.05682e-06,89.5625,165.01,-32.53,500000,500000,-2.09832e-08,2.88628e-07,-1.77206e-07,-0.0001432,0.038112,-0.000165494,0.039739,3,673
12,2.4995e-22,2,2095,99.87,-4.57333e-06,4.04095e-06,-7.56962e-08,6.10331e-06,92.375,165.01,-32.53,500000,500000,-6.39923e-08,2.97107e-07,-1.52818e-07,-0.000310998,0.0334676,0.000407889,0.0349709,3,674
12,2.58905e-22,2,2096,9.76004,-4.66992e-06,4.013e-06,-6.691e-08,6.15767e-06,96.3125,161.5,100.91,500000,500000,-1.1974e-07,3.16604e-07,-1.34797e-07,-0.000641122,0.0260948,0.000490636,0.0270174,3,675
12,2.62742e-22,2,2097,9.76004,-4.81281e-06,3.96206e-06,-6.47054e-08,6.2342e-06,98,161.5,100.91,500000,500000,-1.43383e-07,3.21694e-07,-1.28846e-07,-0.00127958,0.0217527,0.000203283,0.0224439,3,676
12,2.62742e-22,2,2098,9.76004,-4.95669e-06,3.90987e-06,-6.1853e-08,6.31345e-06,98,161.5,100.91,500000,500000,-1.41861e-07,3.10354e-07,-1.23382e-07,-0.00162425,0.0205591,-7.8356e-05,0.0214881,3,677
12,2.62742e-22,2,2099,9.76004,-5.09653e-06,3.857e-06,-5.88634e-08,6.39176e-06,98,161.5,100.91,500000,500000,-1.3996e-07,3.00583e-07,-1.17654e-07,-0.00165206,0.0196985,-8.54218e-05,0.0206223,3,678
12,2.62742e-22,2,2100,9.76004,-5.23661e-06,3.80464e-06,-5.67616e-08,6.47306e-06,98,161.5,100.91,500000,500000,-1.40061e-07,2.94665e-07,-1.13374e-07,-0.00178039,0.0191057,-9.11758e-05,0.0201337,3,679
12,2.62742e-22,2,2101,9.76004,-5.37665e-06,3.75541e-06,-5.76241e-08,6.55857e-06,98,161.5,100.91,500000,500000,-1.3975e-07,2.90546e-07,-1.15593e-07,-0.00246383,0.0181233,-0.000944427,0.0197985,3,680
12,3.64999e-22,2,2102,9.76003,-5.51611e-06,3.71141e-06,-4.86547e-08,6.64864e-06,101.25,161.5,100.91,3.08325e+06,625000,-1.24389e-07,2.79118e-07,-9.74848e-08,-0.00206166,0.0275062,0.000710396,0.0291401,3,681
12,5.69512e-22,1,2103,123.67,-5.62543e-06,3.74817e-06,-4.09786e-08,6.75988e-06,107.75,-64.23,128.87,8.24975e+06,875000,-9.22297e-08,2.61406e-07,-8.16311e-08,-0.00132342,0.0428905,0.000769921,0.0442739,2,1420
12,6.71769e-22,1,2104,123.67,-5.70057e-06,3.85547e-06,-4.17591e-08,6.88207e-06,111,-64.23,128.87,1.0833e+07,1e+06,-7.23601e-08,2.47827e-07,-8.3489e-08,-0.00119136,0.0476824,-0.000897799,0.0489365,2,1421
12,6.71769e-22,1,2105,123.67,-5.77015e-06,3.94485e-06,-3.9117e-08,6.98985e-06,111,-64.23,128.87,1.0833e+07,1e+06,-6.76745e-08,2.38263e-07,-7.82517e-08,-0.000681305,0.0466034,-0.000150795,0.0474532,2,1422
12,6.71769e-22,1,2106,123.67,-5.83592e-06,4.01632e-06,-3.78353e-08,7.0845e-06,111,-64.23,128.87,1.0833e+07,1e+06,-6.42076e-08,2.29968e-07,-7.56763e-08,-0.000529258,0.0453455,-0.000161974,0.0463661,2,1423
12,6.71769e-22,1,2107,123.67,-5.89857e-06,4.07625e-06,-3.6617e-08,7.1701e-06,111,-64.23,128.87,1.0833e+07,1e+06,-6.15072e-08,2.2243e-07,-7.32145e-08,-0.000452846,0.0440858,-0.000156385,0.0452312,2,1424
12,6.71769e-22,1,2108,123.67,-5.95893e-06,4.13017e-06,-3.55564e-08,7.25041e-06,111,-64.23,128.87,1.0833e+07,1e+06,-5.97497e-08,2.15844e-07,-7.11016e-08,-0.000519187,0.0428462,-0.000196489,0.0441095,2,1425
12,6.72371e-22,1,2109,123.67,-6.01807e-06,4.18344e-06,-3.39364e-08,7.32935e-06,111.5,-64.23,128.87,1.0833e+07,1e+06,-5.93868e-08,2.09728e-07,-6.78777e-08,-0.000687238,0.0417035,-0.000139491,0.0429807,2,1426
12,6.73575e-22,1,2110,123.67,-6.07771e-06,4.24081e-06,-3.14341e-08,7.41107e-06,112.5,-64.23,128.87,1.0833e+07,1e+06,-5.95292e-08,2.04523e-07,-6.2982e-08,-0.000577895,0.0409407,0.000290368,0.0417778,2,1427
12,6.76434e-22,1,2111,123.67,-6.13713e-06,4.31252e-06,-2.94026e-08,7.50087e-06,114.125,-64.23,128.87,1.0833e+07,1e+06,-5.59611e-08,1.97146e-07,-5.80217e-08,-0.000518858,0.0425547,-0.000812024,0.0439308,2,1428
12,6.81097e-22,1,2112,121.75,-6.18963e-06,4.37734e-06,-2.0863e-08,7.5811e-06,116.25,-23.35,126.79,1.0833e+07,1e+06,-4.8091e-08,1.76599e-07,-4.19684e-08,-0.00055883,0.0441595,-0.000703053,0.0453982,2,1429
12,6.83654e-22,1,2113,121.75,-6.23331e-06,4.41682e-06,-1.21065e-08,7.63954e-06,117.125,-23.35,126.79,1.0833e+07,1e+06,-4.12792e-08,1.53096e-07,-2.52033e-08,-0.000331116,0.0422524,0.00101286,0.0421225,2,1430
12,6.83804e-22,1,2114,121.75,-6.27219e-06,4.4505e-06,-1.17804e-08,7.69073e-06,117,-23.35,126.79,1.0833e+07,1e+06,-3.80553e-08,1.42916e-07,-2.34228e-08,-0.00031808,0.0399038,0.000782765,0.0397331,2,1431
12,6.83804e-22,1,2115,121.75,-6.30942e-06,4.48452e-06,-1.27927e-08,7.74079e-06,117,-23.35,126.79,1.0833e+07,1e+06,-3.69982e-08,1.40767e-07,-2.53686e-08,-0.000488642,0.0391108,0.000240391,0.0392869,2,1432
12,6.83804e-22,1,2116,121.75,-6.34618e-06,4.52035e-06,-1.30709e-08,7.79152e-06,117,-23.35,126.79,1.0833e+07,1e+06,-3.56346e-08,1.37542e-07,-2.59254e-08,-0.000512224,0.0381247,5.15676e-05,0.0383797,2,1433
12,6.83804e-22,1,2117,121.75,-6.38069e-06,4.55916e-06,-1.27216e-08,7.84215e-06,117,-23.35,126.79,1.0833e+07,1e+06,-3.30576e-08,1.31487e-07,-2.54423e-08,-0.000307434,0.0364641,2.25182e-05,0.0366195,2,1434
12,6.83804e-22,1,2118,121.75,-6.4123e-06,4.59459e-06,-1.27103e-08,7.88847e-06,117,-23.35,126.79,1.0833e+07,1e+06,-3.09396e-08,1.27103e-07,-2.51628e-08,-0.000104613,0.0353255,-2.59882e-05,0.0354033,2,1435
12,7.14362e-22,1,2119,121.75,-6.44257e-06,4.62349e-06,-1.43256e-08,7.92991e-06,118.312,-23.35,126.79,1.0833e+07,1e+06,-2.81498e-08,1.30028e-07,-2.92536e-08,4.79351e-05,0.0356851,0.00026662,0.0356713,2,1436
12,7.85665e-22,1,2120,57.67,-6.4686e-06,4.63353e-06,-2.29449e-08,7.95694e-06,121.375,-172.69,-138.33,1.0833e+07,1e+06,-2.23869e-08,1.45983e-07,-4.57823e-08,0.000184113,0.0379605,0.000427235,0.0378885,2,1437
12,8.36596e-22,1,2121,57.67,-6.48734e-06,4.61832e-06,-3.31365e-08,7.96339e-06,123.562,-172.69,-138.33,1.0833e+07,1e+06,-1.7208e-08,1.60848e-07,-6.60787e-08,-0.000131484,0.0393612,-0.000782966,0.0399282,2,1438
12,6.23337e-22,1,2122,73.27,-4.2595e-08,3.69983e-06,-2.69715e-08,3.70017e-06,8.375,-129.16,-171.71,1.01872e+07,968750,-8.29531e-08,1.85805e-07,-5.36044e-08,-0.00388543,0.0271955,0.000816222,0.0291806,2,1439
12,5.35652e-22,1,2123,73.27,-1.23311e-07,3.74171e-06,-3.56097e-08,3.74391e-06,9.875,-129.16,-171.71,7.60394e+06,843750,-7.11329e-08,1.90817e-07,-7.25414e-08,-0.00360016,0.0263174,-0.000893659,0.0291705,2,1440
12,4.04125e-22,2,2124,79.76,-1.84861e-07,3.80438e-06,-5.18589e-08,3.80922e-06,12.125,-174.76,-145.86,3.72906e+06,656250,-4.98733e-08,2.09364e-07,-1.04088e-07,-0.00264153,0.0270359,-0.000321446,0.0292045,3,682
12,3.1644e-22,2,2125,79.76,-2.23058e-07,3.89311e-06,-6.85937e-08,3.90009e-06,13.625,-174.76,-145.86,1.14581e+06,531250,-3.43237e-08,2.28745e-07,-1.3629e-07,-0.00281688,0.0274395,-0.000156932,0.029254,3,683
12,2.94519e-22,2,2126,79.76,-2.53508e-07,3.99442e-06,-7.7767e-08,4.00322e-06,14,-174.76,-145.86,500000,500000,-3.20143e-08,2.46564e-07,-1.54554e-07,-0.00330869,0.0286668,-0.000279859,0.0306173,3,684
12,2.94519e-22,2,2127,79.76,-2.87087e-07,4.10924e-06,-8.10876e-08,4.12005e-06,14,-174.76,-145.86,500000,500000,-3.41431e-08,2.59029e-07,-1.62562e-07,-0.00342453,0.0299025,-0.00042672,0.0319817,3,685
12,3.00211e-22,2,2128,79.76,-3.21794e-07,4.23334e-06,-7.9274e-08,4.2463e-06,13.9375,-174.76,-145.86,500000,500000,-3.35459e-08,2.57272e-07,-1.58386e-07,-0.00302673,0.0307633,-0.00042452,0.0327018,3,686
12,3.22979e-22,2,2129,79.76,-3.54178e-07,4.33658e-06,-6.84518e-08,4.35156e-06,13.6875,-174.76,-145.86,500000,500000,-3.31909e-08,2.35043e-07,-1.35445e-07,-0.00280318,0.0314466,-0.000884982,0.0336796,3,687
12,3.62903e-22,2,2130,31.13,-3.88176e-07,4.38519e-06,-4.96124e-08,4.40262e-06,14.25,-15.01,-23.73,1.14581e+06,531250,-4.11461e-08,2.08136e-07,-1.00314e-07,-0.00319758,0.0318476,-0.000448535,0.0342292,3,688
12,3.97214e-22,2,2131,31.13,-4.36471e-07,4.39499e-06,-3.79013e-08,4.41678e-06,15.875,-15.01,-23.73,2.43744e+06,593750,-5.70311e-08,2.06293e-07,-7.71456e-08,-0.00349122,0.0338729,0.00102871,0.0357935,3,689
12,3.40006e-22,2,2132,31.13,-5.02238e-07,4.37096e-06,-4.24982e-08,4.39992e-06,19.8125,-15.01,-23.73,2.43744e+06,593750,-7.17925e-08,2.27123e-07,-8.52121e-08,-0.00376033,0.03474,-0.000265969,0.0382018,3,690
12,2.02663e-22,2,2133,95.09,-5.80056e-07,4.33854e-06,-5.84697e-08,4.37753e-06,25.9375,-9.02,-160.64,1.14581e+06,531250,-7.76066e-08,2.57978e-07,-1.17144e-07,-0.00332463,0.0312035,-0.000980644,0.0350536,3,691
12,1.16832e-22,2,2134,95.09,-6.57452e-07,4.34813e-06,-7.45978e-08,4.39819e-06,29.25,-9.02,-160.64,500000,500000,-7.45818e-08,2.87011e-07,-1.48786e-07,-0.00171511,0.0284596,-0.000141532,0.0303542,3,692
12,8.25131e-23,2,2135,95.09,-7.29219e-07,4.39406e-06,-8.51759e-08,4.45498e-06,29.75,-9.02,-160.64,500000,500000,-7.19548e-08,3.05246e-07,-1.69251e-07,-0.000379245,0.0276117,-0.000463414,0.0285463,3,693
12,6.53535e-23,2,2136,95.09,-8.01361e-07,4.45052e-06,-9.00434e-08,4.52299e-06,30,-9.02,-160.64,500000,500000,-7.27386e-08,3.15519e-07,-1.80039e-07,-8.17193e-05,0.026976,-0.00066813,0.0277009,3,694
12,6.53535e-23,2,2137,95.09,-8.74696e-07,4.50524e-06,-9.19645e-08,4.59029e-06,30,-9.02,-160.64,500000,500000,-7.47632e-08,3.24965e-07,-1.84087e-07,0.000155188,0.0279297,-0.000449004,0.0284157,3,695
12,6.53535e-23,2,2138,95.09,-9.50888e-07,4.57253e-06,-9.28594e-08,4.67128e-06,30,-9.02,-160.64,500000,500000,-7.60944e-08,3.29723e-07,-1.85825e-07,0.000347209,0.0283449,-0.000350126,0.0286098,3,696
12,6.53535e-23,2,2139,95.09,-1.02689e-06,4.65194e-06,-9.12316e-08,4.76481e-06,30,-9.02,-160.64,500000,500000,-7.64395e-08,3.24647e-07,-1.83337e-07,0.000191246,0.0275575,-0.000632427,0.0279669,3,697
12,6.53535e-23,2,2140,95.09,-1.10377e-06,4.73512e-06,-8.92881e-08,4.86289e-06,30,-9.02,-160.64,500000,500000,-7.83057e-08,3.20206e-07,-1.79373e-07,-3.97078e-05,0.0269648,-0.000788481,0.0275367,3,698
12,6.53535e-23,2,2141,95.09,-1.1835e-06,4.81377e-06,-8.71291e-08,4.95788e-06,30,-9.02,-160.64,500000,500000,-7.97439e-08,3.13473e-07,-1.7341e-07,-0.000320886,0.0263442,-0.000809964,0.0270629,3,699
12,8.68911e-23,2,2142,95.09,-1.26325e-06,4.88519e-06,-7.98865e-08,5.04651e-06,30.3125,-9.02,-160.64,500000,500000,-8.28878e-08,3.00666e-07,-1.58143e-07,-0.00058605,0.0265678,-0.00105432,0.0278863,3,700
12,1.29966e-22,2,2143,95.09,-1.34927e-06,4.93637e-06,-6.41773e-08,5.11785e-06,30.9375,-9.02,-160.64,500000,500000,-9.28205e-08,2.84369e-07,-1.27648e-07,-0.000765641,0.0276326,-0.00015629,0.0291593,3,701
12,1.94579e-22,2,2144,95.09,-1.4489e-06,4.96812e-06,-4.65287e-08,5.17529e-06,31.875,-9.02,-160.64,500000,500000,-1.09066e-07,2.645e-07,-9.21329e-08,-0.00177619,0.0281719,6.44285e-05,0.0305816,3,702
12,2.8073e-22,2,2145,117.14,-1.5674e-06,4.97938e-06,-2.50486e-08,5.22031e-06,33.125,133.75,99.63,500000,500000,-1.2593e-07,2.4288e-07,-5.16403e-08,-0.002068,0.0285046,0.000863031,0.0306446,3,703
12,3.45343e-22,2,2146,117.14,-1.70076e-06,4.96812e-06,-1.00127e-08,5.25118e-06,34.0625,133.75,99.63,500000,500000,-1.32032e-07,2.17428e-07,-2.23993e-08,-0.00198585,0.0269059,0.00141257,0.0284823,3,704
12,4.92723e-22,2,2147,117.14,-1.83147e-06,4.94036e-06,-1.21834e-08,5.26892e-06,39.6875,133.75,99.63,3.08325e+06,625000,-1.13721e-07,2.01302e-07,-2.45005e-08,-0.00207418,0.0292795,0.0010416,0.0310064,3,705
12,7.2287e-22,1,2148,130.6,-1.9282e-06,4.92728e-06,-2.29552e-08,5.29117e-06,50,117.2,-48.36,8.24975e+06,875000,-8.06264e-08,1.94788e-07,-4.49592e-08,-0.00141831,0.0343511,0.000491774,0.0353909,2,1441
12,8.27175e-22,1,2149,130.6,-1.99272e-06,4.94686e-06,-2.98221e-08,5.33322e-06,55,117.2,-48.36,1.0833e+07,1e+06,-6.3058e-08,1.92591e-07,-5.90222e-08,-0.000593962,0.0361043,-0.000558498,0.0367313,2,1442
12,8.27175e-22,1,2150,130.6,-2.05431e-06,4.97203e-06,-2.96134e-08,5.37979e-06,55,117.2,-48.36,1.0833e+07,1e+06,-6.25502e-08,1.97145e-07,-5.93711e-08,4.34459e-06,0.0374504,-0.000166593,0.0375977,2,1443
12,8.27175e-22,1,2151,130.6,-2.11782e-06,4.99826e-06,-3.00896e-08,5.42851e-06,55,117.2,-48.36,1.0833e+07,1e+06,-6.45377e-08,2.02177e-07,-6.01651e-08,-0.000110141,0.0385339,-2.01527e-05,0.0386857,2,1444
12,8.27175e-22,1,2152,130.6,-2.18339e-06,5.02565e-06,-3.03504e-08,5.47953e-06,55,117.2,-48.36,1.0833e+07,1e+06,-6.5984e-08,2.0485e-07,-6.07093e-08,-0.000268311,0.0389781,3.2359e-05,0.0391753,2,1445
12,8.27175e-22,1,2153,130.6,-2.24979e-06,5.0536e-06,-3.02575e-08,5.53185e-06,55,117.2,-48.36,1.0833e+07,1e+06,-6.57171e-08,2.04212e-07,-6.05358e-08,-0.000225452,0.038789,8.03644e-05,0.0389186,2,1446
12,8.27175e-22,1,2154,130.6,-2.31482e-06,5.07923e-06,-2.97823e-08,5.58193e-06,55,117.2,-48.36,1.0833e+07,1e+06,-6.32352e-08,1.99893e-07,-5.95492e-08,0.000106165,0.0380248,9.17674e-05,0.0379867,2,1447
12,8.27175e-22,1,2155,130.6,-2.37626e-06,5.09638e-06,-2.89414e-08,5.62321e-06,55,117.2,-48.36,1.0833e+07,1e+06,-5.84918e-08,1.93776e-07,-5.81739e-08,0.000876722,0.0372725,7.41234e-05,0.0369483,2,1448
12,8.27175e-22,1,2156,130.6,-2.43181e-06,5.0967e-06,-3.04424e-08,5.64721e-06,55,117.2,-48.36,1.0833e+07,1e+06,-5.49195e-08,1.90323e-07,-5.9835e-08,0.00129579,0.0369386,-0.000775254,0.0371115,2,1449
12,7.6172e-22,1,2157,130.6,-2.4861e-06,5.07574e-06,-2.9439e-08,5.65197e-06,57.5,117.2,-48.36,1.0833e+07,1e+06,-6.16782e-08,2.08246e-07,-5.9571e-08,0.00162051,0.0401452,0.00135846,0.0401164,2,1450
12,6.30809e-22,1,2158,80.41,-2.55516e-06,5.04361e-06,-3.60466e-08,5.65404e-06,62.5,-123.18,-170.23,1.0833e+07,1e+06,-7.36939e-08,2.31605e-07,-7.29822e-08,0.00170256,0.0390287,0.00136781,0.039061,2,1451
12,5.65354e-22,1,2159,80.41,-2.63349e-06,5.01262e-06,-4.30706e-08,5.66246e-06,65,-123.18,-170.23,1.0833e+07,1e+06,-7.54645e-08,2.31876e-07,-8.5167e-08,0.0018588,0.0343647,-0.000907764,0.0347565,2,1452
12,5.65354e-22,1,2160,80.41,-2.70609e-06,4.98486e-06,-4.00837e-08,5.67216e-06,65,-123.18,-170.23,1.0833e+07,1e+06,-7.02866e-08,2.24101e-07,-8.03598e-08,0.00273054,0.033828,-0.000147158,0.0334124,2,1453
12,5.65354e-22,1,2161,80.41,-2.77406e-06,4.96075e-06,-3.94394e-08,5.68384e-06,65,-123.18,-170.23,1.0833e+07,1e+06,-6.62774e-08,2.18836e-07,-7.88494e-08,0.00330992,0.0332889,-6.13317e-05,0.032538,2,1454
12,5.65354e-22,1,2162,80.41,-2.83865e-06,4.94033e-06,-3.90166e-08,5.69792e-06,65,-123.18,-170.23,1.0833e+07,1e+06,-6.36132e-08,2.15324e-07,-7.80235e-08,0.00366042,0.0329006,-3.42323e-05,0.0319633,2,1455
12,5.65354e-22,1,2163,80.41,-2.90129e-06,4.92305e-06,-3.88429e-08,5.71449e-06,65,-123.18,-170.23,1.0833e+07,1e+06,-6.23632e-08,2.13758e-07,-7.76868e-08,0.00383311,0.032718,-1.44666e-05,0.0316634,2,1456
12,5.65354e-22,1,2164,80.41,-2.96337e-06,4.90938e-06,-3.89246e-08,5.73455e-06,65,-123.18,-170.23,1.0833e+07,1e+06,-6.23097e-08,2.14002e-07,-7.7855e-08,0.00387416,0.0327241,2.94202e-06,0.0315779,2,1457
12,5.65354e-22,1,2165,80.41,-3.02591e-06,4.90028e-06,-3.91876e-08,5.75937e-06,65,-123.18,-170.23,1.0833e+07,1e+06,-6.29202e-08,2.15318e-07,-7.83764e-08,0.00384713,0.0328287,1.62514e-05,0.0315884,2,1458
12,5.65354e-22,1,2166,80.41,-3.08921e-06,4.89658e-06,-3.94989e-08,5.78976e-06,65,-123.18,-170.23,1.0833e+07,1e+06,-6.3473e-08,2.16629e-07,-7.89905e-08,0.00383471,0.0329013,2.7854e-05,0.031533,2,1459
12,5.65354e-22,1,2167,80.41,-3.15285e-06,4.8987e-06,-3.97184e-08,5.82574e-06,65,-123.18,-170.23,1.0833e+07,1e+06,-6.32429e-08,2.16866e-07,-7.94365e-08,0.00392052,0.032817,3.63131e-05,0.0312714,2,1460
12,5.65354e-22,1,2168,80.41,-3.2157e-06,4.90632e-06,-3.97859e-08,5.86637e-06,65,-123.18,-170.23,1.0833e+07,1e+06,-6.17047e-08,2.15445e-07,-7.95876e-08,0.00418112,0.0325379,3.81485e-05,0.0307707,2,1461
12,5.65354e-22,1,2169,80.41,-3.27626e-06,4.91845e-06,-3.97633e-08,5.90987e-06,65,-123.18,-170.23,1.0833e+07,1e+06,-5.87801e-08,2.12672e-07,-7.9544e-08,0.00465944,0.0321581,3.6294e-05,0.0301379,2,1462
12,5.65354e-22,1,2170,80.41,-3.33326e-06,4.93395e-06,-3.98877e-08,5.9545e-06,65,-123.18,-170.23,1.0833e+07,1e+06,-5.47303e-08,2.09817e-07,-7.97585e-08,0.00540741,0.0319057,2.6853e-05,0.0295907,2,1463
12,5.65354e-22,1,2171,80.41,-3.38572e-06,4.95141e-06,-4.01068e-08,5.99843e-06,65,-123.18,-170.23,1.0833e+07,1e+06,-5.1312e-08,2.08447e-07,-8.02187e-08,0.00618755,0.0318511,8.83034e-05,0.0291783,2,1464
12,5.37301e-22,1,2172,80.41,-3.43588e-06,4.97242e-06,-4.39364e-08,6.04419e-06,67.4375,-123.18,-170.23,8.89556e+06,906250,-5.69618e-08,2.20795e-07,-8.84604e-08,0.00609946,0.0306679,-0.000300767,0.0289909,2,1465
12,4.71843e-22,2,2173,31.67,-3.49965e-06,4.97172e-06,-5.69558e-08,6.08019e-06,73.125,13.09,-96.26,4.37488e+06,687500,-7.63023e-08,2.6213e-07,-1.1408e-07,0.00531835,0.0272713,-0.000364674,0.026721,3,706
12,4.25087e-22,2,2174,31.67,-3.58849e-06,4.91155e-06,-7.24227e-08,6.08324e-06,77.1875,13.09,-96.26,1.14581e+06,531250,-9.3708e-08,3.0617e-07,-1.43881e-07,0.00460362,0.0246885,-0.000331998,0.0245812,3,707
12,4.15736e-22,2,2175,31.67,-3.68706e-06,4.80286e-06,-7.57649e-08,6.05538e-06,78,13.09,-96.26,500000,500000,-9.51205e-08,3.09844e-07,-1.50941e-07,0.00394551,0.0233702,-0.000654458,0.0237912,3,708
12,4.15736e-22,2,2176,31.67,-3.77873e-06,4.67466e-06,-7.16436e-08,6.01135e-06,78,13.09,-96.26,500000,500000,-8.94758e-08,2.9571e-07,-1.43614e-07,0.00404651,0.0224928,-0.000363777,0.0224972,3,709
12,4.15736e-22,2,2177,31.67,-3.86601e-06,4.54665e-06,-7.00573e-08,5.9685e-06,78,13.09,-96.26,500000,500000,-8.73712e-08,2.92545e-07,-1.40629e-07,0.00452954,0.0225113,-6.07114e-05,0.0218162,3,710
12,4.15736e-22,2,2178,31.67,-3.95347e-06,4.43089e-06,-6.96139e-08,5.93865e-06,78,13.09,-96.26,500000,500000,-8.7581e-08,2.9121e-07,-1.3932e-07,0.00460441,0.0223131,-3.63654e-05,0.0211833,3,711
12,4.15736e-22,2,2179,31.67,-4.04117e-06,4.32945e-06,-7.02757e-08,5.92285e-06,78,13.09,-96.26,500000,500000,-9.05568e-08,2.95322e-07,-1.40448e-07,0.00459038,0.0223774,-8.30987e-05,0.0209143,3,712
12,4.15736e-22,2,2180,31.67,-4.13459e-06,4.24713e-06,-7.35916e-08,5.92776e-06,78,13.09,-96.26,500000,500000,-1.00154e-07,3.14163e-07,-1.47167e-07,0.00457846,0.0234524,-9.06159e-05,0.0217327,3,713
12,4.15736e-22,2,2181,31.67,-4.24148e-06,4.19086e-06,-7.9359e-08,5.9632e-06,78,13.09,-96.26,500000,500000,-1.14963e-07,3.45342e-07,-1.59417e-07,0.00453884,0.0253252,-0.000201597,0.0236107,3,714
12,4.15736e-22,2,2182,31.67,-4.36451e-06,4.1627e-06,-8.61117e-08,6.03195e-06,78,13.09,-96.26,500000,500000,-1.29963e-07,3.76717e-07,-1.72981e-07,0.004303,0.0270532,-0.000519374,0.0256773,3,715
12,4.15736e-22,2,2183,31.67,-4.50141e-06,4.15233e-06,-9.12297e-08,6.12477e-06,78,13.09,-96.26,500000,500000,-1.34441e-07,3.94156e-07,-1.81216e-07,0.00481665,0.0283995,-0.000403393,0.0269769,3,716
12,5.06194e-22,2,2184,31.67,-4.63339e-06,4.14969e-06,-8.71433e-08,6.2206e-06,80.125,13.09,-96.26,3.08325e+06,625000,-9.02437e-08,3.55346e-07,-1.73734e-07,0.00548348,0.0368316,-0.000755841,0.035871,3,717
12,6.87111e-22,1,2185,179.529,-4.6819e-06,4.1676e-06,-8.05256e-08,6.26862e-06,84.375,-34.91,-168.19,8.24975e+06,875000,-9.36379e-09,2.78266e-07,-1.61206e-07,0.00741112,0.0479546,-0.00251085,0.0478747,2,1466
12,6.75683e-22,1,2186,179.529,-4.65212e-06,4.21826e-06,-8.0148e-08,6.28032e-06,87.0625,-34.91,-168.19,8.89556e+06,906250,2.99064e-08,2.53204e-07,-1.6033e-07,0.00955432,0.0511639,-0.00183884,0.0501783,2,1467
12,4.39973e-22,2,2187,99.87,-4.62208e-06,4.26112e-06,-8.98682e-08,6.2872e-06,88.25,165.01,-32.53,4.37488e+06,687500,2.24629e-08,2.78756e-07,-1.80163e-07,0.00702645,0.0469673,0.000202703,0.0453382,3,718
12,2.74212e-22,2,2188,99.87,-4.60719e-06,4.27069e-06,-1.03369e-07,6.28297e-06,88.9375,165.01,-32.53,1.14581e+06,531250,1.00599e-08,3.02473e-07,-2.0601e-07,0.00340754,0.0418373,-0.000209303,0.0412606,3,719
12,2.42275e-22,2,2189,99.87,-4.60196e-06,4.263e-06,-1.05214e-07,6.27394e-06,89,165.01,-32.53,500000,500000,4.87829e-09,3.04258e-07,-2.09679e-07,0.00259045,0.0398541,-0.000871292,0.0398263,3,720
12,2.42275e-22,2,2190,99.87,-4.59744e-06,4.24916e-06,-1.00357e-07,6.26114e-06,89,165.01,-32.53,500000,500000,2.91023e-09,2.94658e-07,-2.01169e-07,0.00250345,0.038476,-0.000684234,0.0383033,3,721
12,2.42275e-22,2,2191,99.87,-4.59614e-06,4.23368e-06,-9.73143e-08,6.24964e-06,89,165.01,-32.53,500000,500000,-1.00877e-09,2.92003e-07,-1.95311e-07,0.00211446,0.0382461,-0.00036479,0.0380586,3,722
12,2.42275e-22,2,2192,99.87,-4.59945e-06,4.21954e-06,-9.6065e-08,6.24249e-06,89,165.01,-32.53,500000,500000,-4.60604e-09,2.92427e-07,-1.92116e-07,0.00163845,0.0385701,-0.000203781,0.0386074,3,723
12,2.42275e-22,2,2193,99.87,-4.60536e-06,4.21755e-06,-9.49054e-08,6.24548e-06,89,165.01,-32.53,500000,500000,-5.58377e-09,2.91693e-07,-1.89814e-07,0.0012981,0.0390235,-7.02597e-05,0.0393793,3,724
12,2.42275e-22,2,2194,99.87,-4.61062e-06,4.23706e-06,-9.31125e-08,6.26252e-06,89,165.01,-32.53,500000,500000,-3.54456e-09,2.8628e-07,-1.86675e-07,0.00108301,0.039056,1.43425e-05,0.0398273,3,725
12,2.42275e-22,2,2195,99.87,-4.61244e-06,4.28478e-06,-9.08354e-08,6.29621e-06,89,165.01,-32.53,500000,500000,-4.45802e-09,2.75253e-07,-1.818e-07,0.000166756,0.0374884,-0.000455166,0.0391269,3,726
12,2.47392e-22,2,2196,99.87,-4.61954e-06,4.32438e-06,-8.43243e-08,6.32831e-06,91.25,165.01,-32.53,500000,500000,-3.84364e-08,2.86154e-07,-1.68129e-07,-0.000204745,0.0341601,-0.000687282,0.0362967,3,727
12,2.57626e-22,2,2197,9.76005,-4.68932e-06,4.32631e-06,-7.51042e-08,6.38062e-06,95.75,161.5,100.91,500000,500000,-1.02814e-07,3.1819e-07,-1.49761e-07,-7.11177e-05,0.0276369,-0.000138473,0.02893,3,728
12,2.62742e-22,2,2198,9.76004,-4.82517e-06,4.28934e-06,-6.80898e-08,6.45641e-06,98,161.5,100.91,500000,500000,-1.41289e-07,3.2904e-07,-1.36303e-07,-0.000958018,0.022402,6.18064e-05,0.0231392,3,729
12,2.62742e-22,2,2199,9.76004,-4.97189e-06,4.22666e-06,-6.32116e-08,6.52598e-06,98,161.5,100.91,500000,500000,-1.47068e-07,3.20507e-07,-1.26731e-07,-0.00168219,0.0212491,-4.30314e-05,0.0222067,3,730
12,2.62742e-22,2,2200,9.76004,-5.1193e-06,4.1637e-06,-5.97694e-08,6.59903e-06,98,161.5,100.91,500000,500000,-1.47609e-07,3.11647e-07,-1.19469e-07,-0.00188501,0.0204738,4.12279e-05,0.0214763,3,731
12,2.62742e-22,2,2201,9.76004,-5.26711e-06,4.10317e-06,-5.69398e-08,6.67696e-06,98,161.5,100.91,500000,500000,-1.45839e-07,3.02189e-07,-1.1389e-07,-0.0019758,0.0196772,4.70055e-05,0.0207348,3,732
12,2.62742e-22,2,2202,9.76004,-5.41098e-06,4.04507e-06,-5.72123e-08,6.75607e-06,98,161.5,100.91,500000,500000,-1.42408e-07,2.91679e-07,-1.14515e-07,-0.00267264,0.0181434,-0.000942478,0.0199126,3,733
12,3.64999e-22,2,2203,9.76003,-5.55193e-06,3.98945e-06,-4.81919e-08,6.83681e-06,101.25,161.5,100.91,3.08325e+06,625000,-1.26184e-07,2.79704e-07,-9.64414e-08,-0.00227853,0.0276115,0.00078481,0.0293754,3,734
12,5.69512e-22,1,2204,123.67,-5.66335e-06,4.01273e-06,-4.12556e-08,6.94098e-06,107.75,-64.23,128.87,8.24975e+06,875000,-9.47397e-08,2.67266e-07,-8.24746e-08,-0.00150614,0.0440575,0.00100056,0.0455111,2,1468
12,6.71769e-22,1,2205,123.67,-5.74141e-06,4.10758e-06,-4.26286e-08,7.05959e-06,111,-64.23,128.87,1.0833e+07,1e+06,-7.52324e-08,2.55422e-07,-8.52152e-08,-0.0014417,0.0492738,-0.000753718,0.0506477,2,1469
12,6.71769e-22,1,2206,123.67,-5.81381e-06,4.18629e-06,-3.97907e-08,7.16429e-06,111,-64.23,128.87,1.0833e+07,1e+06,-6.98962e-08,2.43993e-07,-7.95753e-08,-0.000880136,0.0477751,-4.08572e-05,0.0487307,2,1470
12,6.71769e-22,1,2207,123.67,-5.8812e-06,4.24825e-06,-3.81565e-08,7.25518e-06,111,-64.23,128.87,1.0833e+07,1e+06,-6.5344e-08,2.33255e-07,-7.6317e-08,-0.00059291,0.0460426,-4.66168e-05,0.047085,2,1471
12,6.71769e-22,1,2208,123.67,-5.9445e-06,4.2997e-06,-3.66249e-08,7.33661e-06,111,-64.23,128.87,1.0833e+07,1e+06,-6.19693e-08,2.23671e-07,-7.32368e-08,-0.000464411,0.0443572,-4.1214e-05,0.0454634,2,1472
12,6.71769e-22,1,2209,123.67,-6.00514e-06,4.34637e-06,-3.52397e-08,7.41309e-06,111,-64.23,128.87,1.0833e+07,1e+06,-6.00511e-08,2.15631e-07,-7.0548e-08,-0.000564583,0.042771,-5.65496e-05,0.0439501,2,1473
12,6.71769e-22,1,2210,123.67,-6.0646e-06,4.39329e-06,-3.39429e-08,7.48876e-06,111,-64.23,128.87,1.0833e+07,1e+06,-5.94178e-08,2.08991e-07,-6.79385e-08,-0.000850811,0.041343,-2.63073e-05,0.0425653,2,1474
12,6.71769e-22,1,2211,123.67,-6.12397e-06,4.44504e-06,-3.19566e-08,7.5672e-06,111,-64.23,128.87,1.0833e+07,1e+06,-5.86424e-08,2.02408e-07,-6.36457e-08,-0.000915936,0.0401686,0.000462625,0.0410609,2,1475
12,6.74778e-22,1,2212,123.67,-6.18189e-06,4.50458e-06,-2.85541e-08,7.64904e-06,112.5,-64.23,128.87,1.0833e+07,1e+06,-5.31812e-08,1.8862e-07,-5.69121e-08,-0.00112296,0.0410755,-0.00102705,0.0428537,2,1476
12,6.80795e-22,1,2213,121.75,-6.23034e-06,4.54562e-06,-1.83022e-08,7.71233e-06,115.5,-23.35,126.79,1.0833e+07,1e+06,-4.38602e-08,1.65853e-07,-3.72289e-08,-0.000542153,0.0429264,-0.000367212,0.0438136,2,1477
12,6.83804e-22,1,2214,121.75,-6.26961e-06,4.56656e-06,-1.19488e-08,7.75639e-06,117,-23.35,126.79,1.0833e+07,1e+06,-3.80144e-08,1.49174e-07,-2.39438e-08,0.000108034,0.041895,0.00122959,0.0412973,2,1478
12,6.83804e-22,1,2215,121.75,-6.30636e-06,4.59335e-06,-1.35939e-08,7.80188e-06,117,-23.35,126.79,1.0833e+07,1e+06,-3.59242e-08,1.42678e-07,-2.67142e-08,-0.00016227,0.039721,0.000116554,0.0398036,2,1479
12,6.83804e-22,1,2216,121.75,-6.34146e-06,4.62413e-06,-1.33484e-08,7.84836e-06,117,-23.35,126.79,1.0833e+07,1e+06,-3.46592e-08,1.3923e-07,-2.68168e-08,-0.000169316,0.0387042,7.56837e-06,0.0388237,2,1480
12,6.83804e-22,1,2217,121.75,-6.37568e-06,4.65681e-06,-1.31686e-08,7.89528e-06,117,-23.35,126.79,1.0833e+07,1e+06,-3.35941e-08,1.35978e-07,-2.63799e-08,-0.00014099,0.0377907,2.52916e-05,0.0378742,2,1481
12,6.83804e-22,1,2218,121.75,-6.40864e-06,4.69053e-06,-1.28453e-08,7.94179e-06,117,-23.35,126.79,1.0833e+07,1e+06,-3.21642e-08,1.31541e-07,-2.57041e-08,-6.94848e-05,0.0365713,1.73944e-05,0.0366221,2,1482
12,6.83804e-22,1,2219,121.75,-6.44001e-06,4.72261e-06,-1.27953e-08,7.98605e-06,117,-23.35,126.79,1.0833e+07,1e+06,-3.05922e-08,1.28438e-07,-2.55482e-08,0.000102591,0.035765,-3.01487e-05,0.0357628,2,1483
12,6.9399e-22,1,2220,121.75,-6.46983e-06,4.75228e-06,-1.37047e-08,8.02764e-06,117.438,-23.35,126.79,1.0833e+07,1e+06,-2.87656e-08,1.28189e-07,-2.72072e-08,0.000254427,0.0356132,-7.04257e-05,0.0356114,2,1484
12,7.44921e-22,1,2221,121.75,-6.49754e-06,4.77602e-06,-1.7722e-08,8.06404e-06,119.625,-23.35,126.79,1.0833e+07,1e+06,-2.46876e-08,1.38527e-07,-3.57251e-08,0.000643322,0.0374398,0.000637821,0.0370027,2,1485
12,8.16224e-22,1,2222,57.67,-6.5192e-06,4.77662e-06,-2.9194e-08,8.08189e-06,122.688,-172.69,-138.33,1.0833e+07,1e+06,-1.92808e-08,1.5558e-07,-5.83332e-08,9.73474e-05,0.0390688,-0.000518857,0.0394713,2,1486
12,5.79495e-22,1,2223,73.27,-4.25123e-08,3.887e-06,-2.98041e-08,3.88734e-06,9.125,-129.16,-171.71,8.89556e+06,906250,-7.6063e-08,1.88719e-07,-6.03238e-08,-0.00318403,0.0273883,0.00074299,0.0291243,2,1487
12,4.26046e-22,2,2224,79.76,-1.09614e-07,3.93736e-06,-4.82174e-08,3.93918e-06,11.75,-174.76,-145.86,4.37488e+06,687500,-5.33092e-08,1.99543e-07,-9.61441e-08,-0.00320295,0.025982,-0.000909633,0.0286085,3,735
12,3.1644e-22,2,2225,79.76,-1.49131e-07,4.022e-06,-6.57703e-08,4.02531e-06,13.625,-174.76,-145.86,1.14581e+06,531250,-3.44703e-08,2.20455e-07,-1.30718e-07,-0.00307626,0.0265825,-0.000243181,0.0285672,3,736
12,2.94519e-22,2,2226,79.76,-1.78554e-07,4.12759e-06,-7.44619e-08,4.13212e-06,14,-174.76,-145.86,500000,500000,-2.9076e-08,2.34753e-07,-1.49198e-07,-0.00324546,0.0272995,-0.000445656,0.0292459,3,737
12,2.94519e-22,2,2227,79.76,-2.07283e-07,4.24321e-06,-7.83521e-08,4.24899e-06,14,-174.76,-145.86,500000,500000,-2.89049e-08,2.47152e-07,-1.57509e-07,-0.00304503,0.0287661,-0.00033254,0.030545,3,738
12,3.00211e-22,2,2228,79.76,-2.36364e-07,4.36814e-06,-7.75325e-08,4.37522e-06,13.9375,-174.76,-145.86,500000,500000,-2.95699e-08,2.49748e-07,-1.53915e-07,-0.00256251,0.0303126,-5.20763e-05,0.0317902,3,739
12,3.22979e-22,2,2229,79.76,-2.66422e-07,4.48245e-06,-6.60593e-08,4.49085e-06,13.6875,-174.76,-145.86,500000,500000,-3.0392e-08,2.29138e-07,-1.31028e-07,-0.00228645,0.0310533,-0.000460648,0.0327976,3,740
12,3.57132e-22,2,2230,31.13,-2.97148e-07,4.5515e-06,-4.8813e-08,4.56145e-06,13.3125,-15.01,-23.73,500000,500000,-3.27591e-08,1.96696e-07,-9.83182e-08,-0.00254418,0.0308973,-0.000924192,0.0330456,3,741
12,4.1429e-22,2,2231,31.13,-3.3194e-07,4.57366e-06,-3.41411e-08,4.58582e-06,15.6875,-15.01,-23.73,2.43744e+06,593750,-4.42514e-08,1.84449e-07,-6.8982e-08,-0.00216116,0.0322323,0.000645535,0.0335051,3,742
12,4.88763e-22,1,2232,71.87,-3.85651e-07,4.58922e-06,-2.77691e-08,4.60547e-06,20.875,-131.18,-164.33,6.31231e+06,781250,-6.12488e-08,1.98422e-07,-5.75438e-08,-0.000676387,0.0353359,0.00198793,0.0352534,2,1488
12,4.08704e-22,1,2233,71.87,-4.54438e-07,4.60069e-06,-4.2861e-08,4.62328e-06,25.125,-131.18,-164.33,6.31231e+06,781250,-6.98014e-08,2.35517e-07,-8.67268e-08,0.000547449,0.0366702,-0.000582137,0.0382133,2,1489
12,1.79804e-22,2,2234,95.09,-5.25254e-07,4.61864e-06,-7.19351e-08,4.64897e-06,28.375,-9.02,-160.64,2.43744e+06,593750,-7.13141e-08,2.82689e-07,-1.40905e-07,0.000195659,0.0319184,-0.00145317,0.0343791,3,743
12,6.53535e-23,2,2235,95.09,-5.97066e-07,4.65971e-06,-8.84956e-08,4.69864e-06,30,-9.02,-160.64,500000,500000,-7.02645e-08,3.08408e-07,-1.7528e-07,-0.00055255,0.0273157,-0.000485893,0.0287529,3,744
12,6.53535e-23,2,2236,95.09,-6.65783e-07,4.71064e-06,-9.1209e-08,4.75834e-06,30,-9.02,-160.64,500000,500000,-6.74262e-08,3.13407e-07,-1.83697e-07,-0.000194471,0.0271741,-0.000944738,0.0283666,3,745
12,6.53535e-23,2,2237,95.09,-7.31918e-07,4.76999e-06,-9.18414e-08,4.82669e-06,30,-9.02,-160.64,500000,500000,-6.82535e-08,3.16178e-07,-1.8491e-07,0.000145531,0.0271544,-0.000959318,0.0279789,3,746
12,6.53535e-23,2,2238,95.09,-8.0229e-07,4.83479e-06,-9.27321e-08,4.90178e-06,30,-9.02,-160.64,500000,500000,-7.37582e-08,3.24379e-07,-1.86289e-07,0.000103163,0.0276855,-0.000897804,0.0283942,3,747
12,6.53535e-23,2,2239,95.09,-8.79435e-07,4.90575e-06,-9.27746e-08,4.98482e-06,30,-9.02,-160.64,500000,500000,-7.7053e-08,3.25782e-07,-1.84921e-07,-3.97434e-05,0.0276217,-0.000909891,0.0283995,3,748
12,6.53535e-23,2,2240,95.09,-9.56396e-07,4.97727e-06,-9.0131e-08,5.06912e-06,30,-9.02,-160.64,500000,500000,-7.54281e-08,3.14891e-07,-1.79096e-07,-0.000115759,0.0264126,-0.00106337,0.0272321,3,749
12,8.68911e-23,2,2241,95.09,-1.03029e-06,5.0542e-06,-8.2753e-08,5.15881e-06,30.3125,-9.02,-160.64,500000,500000,-7.58321e-08,3.02427e-07,-1.64891e-07,0.000266718,0.0266877,-0.00116239,0.0275542,3,750
12,1.29966e-22,2,2242,95.09,-1.10806e-06,5.12264e-06,-6.77478e-08,5.24155e-06,30.9375,-9.02,-160.64,500000,500000,-8.19409e-08,2.84105e-07,-1.34633e-07,0.000686015,0.027695,-0.000153077,0.0283138,3,751
12,1.94579e-22,2,2243,95.09,-1.19417e-06,5.17198e-06,-4.97915e-08,5.30829e-06,31.875,-9.02,-160.64,500000,500000,-9.355e-08,2.59299e-07,-9.86368e-08,3.75104e-05,0.0280136,2.11301e-06,0.0293348,3,752
12,2.8073e-22,2,2244,117.14,-1.29516e-06,5.19777e-06,-2.85922e-08,5.35677e-06,33.125,133.75,99.63,500000,500000,-1.10025e-07,2.38367e-07,-5.87582e-08,-0.000260293,0.0287626,0.000583664,0.0299842,3,753
12,3.45343e-22,2,2245,117.14,-1.41422e-06,5.20458e-06,-1.37538e-08,5.39331e-06,34.0625,133.75,99.63,500000,500000,-1.24958e-07,2.22104e-07,-2.9907e-08,-0.000931428,0.0281185,0.000918579,0.0292289,3,754
12,3.88418e-22,2,2246,117.14,-1.54508e-06,5.19734e-06,-8.57193e-09,5.42215e-06,34.6875,133.75,99.63,500000,500000,-1.32577e-07,2.12508e-07,-1.69685e-08,-0.00129837,0.0271317,0.000485125,0.0281193,3,755
12,4.09956e-22,2,2247,117.14,-1.67938e-06,5.17238e-06,-5.71495e-09,5.43819e-06,35,133.75,99.63,500000,500000,-1.29202e-07,2.05016e-07,-1.1436e-08,-0.000437893,0.0265396,0.000808647,0.0264915,3,756
12,5.14261e-22,2,2248,117.14,-1.80348e-06,5.13766e-06,-1.26451e-08,5.44502e-06,40,133.75,99.63,3.08325e+06,625000,-1.06951e-07,1.97038e-07,-2.47714e-08,-0.000701976,0.0292734,0.000535415,0.0299869,3,757
12,7.2287e-22,1,2249,130.6,-1.89328e-06,5.12214e-06,-2.45376e-08,5.4609e-06,50,117.2,-48.36,8.24975e+06,875000,-7.68129e-08,1.92263e-07,-4.80691e-08,-0.00114628,0.0340198,-0.000322957,0.0353311,2,1490
12,8.27175e-22,1,2250,130.6,-1.95711e-06,5.14138e-06,-2.98268e-08,5.50136e-06,55,117.2,-48.36,1.0833e+07,1e+06,-6.3959e-08,1.93957e-07,-5.99136e-08,-0.000796063,0.0363458,-0.000809274,0.0372139,2,1491
12,8.27175e-22,1,2251,130.6,-2.0212e-06,5.17096e-06,-2.9849e-08,5.55202e-06,55,117.2,-48.36,1.0833e+07,1e+06,-6.43448e-08,1.99662e-07,-5.9907e-08,-0.000286532,0.0378484,-0.000181388,0.0381514,2,1492
12,8.27175e-22,1,2252,130.6,-2.0858e-06,5.20097e-06,-3.01671e-08,5.60371e-06,55,117.2,-48.36,1.0833e+07,1e+06,-6.44564e-08,2.02485e-07,-6.02904e-08,-4.72434e-05,0.0385814,5.33762e-07,0.0386839,2,1493
12,8.27175e-22,1,2253,130.6,-2.15011e-06,5.22962e-06,-3.03028e-08,5.65445e-06,55,117.2,-48.36,1.0833e+07,1e+06,-6.38342e-08,2.03121e-07,-6.06094e-08,0.000191325,0.0387815,2.73183e-05,0.0387519,2,1494
12,8.27175e-22,1,2254,130.6,-2.21346e-06,5.25613e-06,-3.01711e-08,5.70327e-06,55,117.2,-48.36,1.0833e+07,1e+06,-6.23583e-08,2.01627e-07,-6.03456e-08,0.000486397,0.0385818,5.3892e-05,0.0383947,2,1495
12,8.27175e-22,1,2255,130.6,-2.27483e-06,5.27789e-06,-2.98352e-08,5.74734e-06,55,117.2,-48.36,1.0833e+07,1e+06,-5.9906e-08,1.98515e-07,-5.96939e-08,0.000896596,0.0381807,4.08979e-05,0.0378371,2,1496
12,8.27175e-22,1,2256,130.6,-2.33328e-06,5.29039e-06,-2.94965e-08,5.78215e-06,55,117.2,-48.36,1.0833e+07,1e+06,-5.72739e-08,1.9575e-07,-5.90487e-08,0.00135226,0.0380246,-4.90182e-06,0.0375897,2,1497
12,8.27175e-22,1,2257,130.6,-2.38938e-06,5.2913e-06,-3.0766e-08,5.80586e-06,55,117.2,-48.36,1.0833e+07,1e+06,-5.66502e-08,1.97786e-07,-6.15379e-08,0.00148001,0.0386199,-0.000643419,0.038662,2,1498
12,7.78084e-22,1,2258,130.6,-2.44658e-06,5.28578e-06,-3.14428e-08,5.82462e-06,56.875,117.2,-48.36,1.0833e+07,1e+06,-6.13687e-08,2.09722e-07,-6.32088e-08,0.00136515,0.0405672,0.000273508,0.0411042,2,1499
12,6.63537e-22,1,2259,80.41,-2.51211e-06,5.27309e-06,-3.64775e-08,5.84102e-06,61.25,-123.18,-170.23,1.0833e+07,1e+06,-6.96484e-08,2.23872e-07,-7.23551e-08,0.00124477,0.0390073,0.000329926,0.040036,2,1500
12,5.81718e-22,1,2260,80.41,-2.58587e-06,5.24377e-06,-4.10037e-08,5.84684e-06,64.375,-123.18,-170.23,1.0833e+07,1e+06,-7.39939e-08,2.26578e-07,-8.17679e-08,0.00134429,0.0347015,-0.000942193,0.0358873,2,1501
12,5.65354e-22,1,2261,80.41,-2.6601e-06,5.20852e-06,-3.93506e-08,5.84862e-06,65,-123.18,-170.23,1.0833e+07,1e+06,-7.27501e-08,2.22503e-07,-7.92841e-08,0.0019049,0.0333827,-0.000356319,0.0337522,2,1502
12,5.65354e-22,1,2262,80.41,-2.73137e-06,5.18003e-06,-3.87785e-08,5.85616e-06,65,-123.18,-170.23,1.0833e+07,1e+06,-6.96197e-08,2.18835e-07,-7.74158e-08,0.00248709,0.0331271,-2.32407e-05,0.0328943,2,1503
12,5.65354e-22,1,2263,80.41,-2.79934e-06,5.15611e-06,-3.85025e-08,5.86714e-06,65,-123.18,-170.23,1.0833e+07,1e+06,-6.67923e-08,2.15412e-07,-7.69877e-08,0.00287732,0.0326896,-5.92279e-05,0.0322002,2,1504
12,5.65354e-22,1,2264,80.41,-2.86496e-06,5.13698e-06,-3.83878e-08,5.88201e-06,65,-123.18,-170.23,1.0833e+07,1e+06,-6.51858e-08,2.13793e-07,-7.6778e-08,0.00314077,0.0324916,-2.67359e-05,0.0317699,2,1505
12,5.65354e-22,1,2265,80.41,-2.92971e-06,5.12327e-06,-3.84772e-08,5.90191e-06,65,-123.18,-170.23,1.0833e+07,1e+06,-6.47288e-08,2.1379e-07,-7.69629e-08,0.00326264,0.0324739,2.29454e-06,0.0315875,2,1506
12,5.65354e-22,1,2266,80.41,-2.99442e-06,5.11502e-06,-3.86549e-08,5.92718e-06,65,-123.18,-170.23,1.0833e+07,1e+06,-6.46521e-08,2.14247e-07,-7.73091e-08,0.00332691,0.0324887,1.6057e-05,0.0314679,2,1507
12,5.65354e-22,1,2267,80.41,-3.05902e-06,5.1119e-06,-3.87949e-08,5.9574e-06,65,-123.18,-170.23,1.0833e+07,1e+06,-6.42603e-08,2.14175e-07,-7.75863e-08,0.00341991,0.0324135,1.93258e-05,0.031241,2,1508
12,5.65354e-22,1,2268,80.41,-3.12294e-06,5.11348e-06,-3.88405e-08,5.99182e-06,65,-123.18,-170.23,1.0833e+07,1e+06,-6.31978e-08,2.13151e-07,-7.76802e-08,0.0035949,0.0322093,2.12189e-05,0.030848,2,1509
12,5.65354e-22,1,2269,80.41,-3.18541e-06,5.11929e-06,-3.88162e-08,6.02955e-06,65,-123.18,-170.23,1.0833e+07,1e+06,-6.13968e-08,2.11309e-07,-7.76402e-08,0.00388024,0.0319219,2.28521e-05,0.0303452,2,1510
12,5.65354e-22,1,2270,80.41,-3.24573e-06,5.12887e-06,-3.8828e-08,6.06973e-06,65,-123.18,-170.23,1.0833e+07,1e+06,-5.89638e-08,2.09236e-07,-7.76458e-08,0.00430058,0.031671,2.90437e-05,0.0298589,2,1511
12,5.65354e-22,1,2271,80.41,-3.30334e-06,5.142e-06,-3.89574e-08,6.11177e-06,65,-123.18,-170.23,1.0833e+07,1e+06,-5.63899e-08,2.07765e-07,-7.80264e-08,0.00479789,0.0315571,3.51802e-06,0.0295377,2,1512
12,5.65354e-22,1,2272,80.41,-3.35851e-06,5.15962e-06,-3.96224e-08,6.15653e-06,65,-123.18,-170.23,1.0833e+07,1e+06,-5.41239e-08,2.08355e-07,-7.87186e-08,0.00546617,0.0318105,0.000154923,0.0294149,2,1513
12,5.56003e-22,1,2273,80.41,-3.41159e-06,5.18693e-06,-3.99336e-08,6.20844e-06,65.8125,-123.18,-170.23,1.01872e+07,968750,-5.264e-08,2.10249e-07,-7.98061e-08,0.00616537,0.03148,0.000423951,0.0288515,2,1514
12,5.18598e-22,1,2274,80.41,-3.46379e-06,5.21548e-06,-4.40864e-08,6.26107e-06,69.0625,-123.18,-170.23,7.60394e+06,843750,-5.63523e-08,2.24613e-07,-8.95916e-08,0.00668086,0.0296086,0.000530454,0.0276039,2,1515
12,4.63042e-22,2,2275,31.67,-3.52429e-06,5.20571e-06,-5.94395e-08,6.28678e-06,73.75,13.09,-96.26,3.72906e+06,656250,-6.44224e-08,2.64237e-07,-1.1824e-07,0.00714343,0.0279106,0.000637518,0.0267186,3,758
12,4.26188e-22,2,2276,31.67,-3.59263e-06,5.10576e-06,-6.77831e-08,6.24343e-06,76.8125,13.09,-96.26,1.14581e+06,531250,-7.21847e-08,2.76788e-07,-1.35212e-07,0.00498536,0.0242221,8.39057e-07,0.0243644,3,759
12,4.16286e-22,2,2277,31.67,-3.66866e-06,4.96204e-06,-6.69719e-08,6.17133e-06,77.8125,13.09,-96.26,500000,500000,-8.23337e-08,2.73166e-07,-1.34613e-07,0.00302244,0.0211092,-0.000631682,0.0217847,3,760
12,4.15736e-22,2,2278,31.67,-3.7573e-06,4.83629e-06,-6.89189e-08,6.12468e-06,78,13.09,-96.26,500000,500000,-9.07453e-08,2.85548e-07,-1.3725e-07,0.00332116,0.0213213,-0.000585407,0.0213573,3,761
12,4.15736e-22,2,2279,31.67,-3.85015e-06,4.718e-06,-6.75027e-08,6.08997e-06,78,13.09,-96.26,500000,500000,-9.25141e-08,2.83465e-07,-1.34548e-07,0.0030828,0.0209828,-0.000489437,0.0207296,3,762
12,4.15736e-22,2,2280,31.67,-3.94233e-06,4.61818e-06,-6.60304e-08,6.07239e-06,78,13.09,-96.26,500000,500000,-9.56631e-08,2.84346e-07,-1.3258e-07,0.00296972,0.0208383,-0.000357104,0.0201809,3,763
12,4.15736e-22,2,2281,31.67,-4.04148e-06,4.55625e-06,-6.89655e-08,6.09079e-06,78,13.09,-96.26,500000,500000,-1.07235e-07,3.04191e-07,-1.38688e-07,0.00281061,0.0219051,-0.000359906,0.0210179,3,764
12,4.15736e-22,2,2282,31.67,-4.1568e-06,4.53088e-06,-7.45164e-08,6.14926e-06,78,13.09,-96.26,500000,500000,-1.21892e-07,3.31945e-07,-1.48625e-07,0.00256799,0.0234731,-0.00036393,0.0226828,3,765
12,4.42907e-22,2,2283,31.67,-4.28526e-06,4.5327e-06,-7.68309e-08,6.23817e-06,78.25,13.09,-96.26,1.14581e+06,531250,-1.28022e-07,3.46223e-07,-1.53292e-07,0.00220736,0.025941,-0.00091337,0.0258705,3,766
12,4.97248e-22,2,2284,31.67,-4.41284e-06,4.54206e-06,-7.44493e-08,6.33317e-06,78.75,13.09,-96.26,2.43744e+06,593750,-1.20389e-07,3.42291e-07,-1.48164e-07,0.00277515,0.0289866,-0.000867897,0.0288266,3,767
12,5.99857e-22,2,2285,31.67,-4.52604e-06,4.50547e-06,-6.72223e-08,6.38661e-06,80.125,13.09,-96.26,5.02069e+06,718750,-9.4709e-08,3.1791e-07,-1.33473e-07,0.0039358,0.0373628,-0.00100339,0.0371098,3,768
12,7.50732e-22,1,2286,133.1,-4.60226e-06,4.45355e-06,-5.67716e-08,6.40454e-06,82.375,119.51,-49.37,8.89556e+06,906250,-6.0664e-08,2.82284e-07,-1.15011e-07,0.00517023,0.0484471,-0.00178894,0.0487582,2,1516
12,7.18208e-22,1,2287,133.1,-4.64737e-06,4.48049e-06,-5.61158e-08,6.4557e-06,84.4375,119.51,-49.37,8.89556e+06,906250,-3.57524e-08,2.64574e-07,-1.14813e-07,0.00617238,0.0504441,-0.0019935,0.0515524,2,1517
12,4.64273e-22,2,2288,99.87,-4.67377e-06,4.55017e-06,-7.66525e-08,6.52335e-06,86.75,165.01,-32.53,4.37488e+06,687500,-1.34334e-08,2.78787e-07,-1.51387e-07,0.00559626,0.0463,-0.00138785,0.0475554,3,769
12,2.80287e-22,2,2289,99.87,-4.67423e-06,4.58089e-06,-9.84965e-08,6.54543e-06,88.5625,165.01,-32.53,1.14581e+06,531250,3.27053e-09,3.03481e-07,-1.94855e-07,0.00403698,0.043234,-0.000149199,0.0431627,3,770
12,2.42275e-22,2,2290,99.87,-4.66723e-06,4.56979e-06,-1.02941e-07,6.53273e-06,89,165.01,-32.53,500000,500000,5.05951e-09,3.06415e-07,-2.06977e-07,0.00272961,0.0409565,-6.25389e-06,0.040524,3,771
12,2.42275e-22,2,2291,99.87,-4.66412e-06,4.54519e-06,-9.93291e-08,6.51326e-06,89,165.01,-32.53,500000,500000,2.18404e-09,2.95003e-07,-1.99142e-07,0.00227051,0.0389884,-0.000275678,0.0388152,3,772
12,2.42275e-22,2,2292,99.87,-4.66286e-06,4.52353e-06,-9.5788e-08,6.49721e-06,89,165.01,-32.53,500000,500000,-7.40184e-11,2.88005e-07,-1.91611e-07,0.00207585,0.0382577,-7.15169e-05,0.0380853,3,773
12,2.42275e-22,2,2293,99.87,-4.66426e-06,4.50818e-06,-9.37483e-08,6.48751e-06,89,165.01,-32.53,500000,500000,-2.19231e-09,2.85594e-07,-1.87541e-07,0.00176017,0.0382303,7.98226e-05,0.0382223,3,774
12,2.42275e-22,2,2294,99.87,-4.66724e-06,4.5041e-06,-9.25757e-08,6.48681e-06,89,165.01,-32.53,500000,500000,-2.34825e-09,2.83301e-07,-1.85273e-07,0.00152238,0.0383321,0.000139902,0.0385882,3,775
12,2.42275e-22,2,2295,99.87,-4.66896e-06,4.51827e-06,-9.18118e-08,6.49787e-06,89,165.01,-32.53,500000,500000,8.64286e-10,2.78563e-07,-1.83741e-07,0.00157885,0.0382512,0.000166961,0.0387258,3,776
12,2.42275e-22,2,2296,99.87,-4.66551e-06,4.55651e-06,-9.11635e-08,6.52205e-06,89,165.01,-32.53,500000,500000,2.26942e-09,2.70457e-07,-1.82321e-07,0.000896994,0.0372124,-0.000319718,0.0385235,3,777
12,2.46113e-22,2,2297,99.87,-4.66442e-06,4.61326e-06,-8.69689e-08,6.56099e-06,90.6875,165.01,-32.53,500000,500000,-2.41907e-08,2.82429e-07,-1.73405e-07,0.000345541,0.0355192,-0.000404197,0.0375499,3,778
12,2.55067e-22,2,2298,9.76005,-4.71389e-06,4.64938e-06,-7.72396e-08,6.62144e-06,94.625,161.5,100.91,500000,500000,-8.32051e-08,3.10906e-07,-1.54383e-07,0.000228851,0.0302553,0.0001631,0.0317999,3,779
12,2.61463e-22,2,2299,9.76005,-4.83083e-06,4.62014e-06,-6.89202e-08,6.68486e-06,97.4375,161.5,100.91,500000,500000,-1.31527e-07,3.26526e-07,-1.38257e-07,-0.000626722,0.0240781,0.000266857,0.0249005,3,780
12,2.62742e-22,2,2300,9.76004,-4.97695e-06,4.55088e-06,-6.45352e-08,6.74424e-06,98,161.5,100.91,500000,500000,-1.50053e-07,3.28281e-07,-1.29047e-07,-0.00156683,0.021978,0.000146734,0.0228048,3,781
12,2.62742e-22,2,2301,9.76004,-5.13094e-06,4.4803e-06,-6.06945e-08,6.81199e-06,98,161.5,100.91,500000,500000,-1.54311e-07,3.21403e-07,-1.21379e-07,-0.00214152,0.0211421,0.000107244,0.0222789,3,782
12,2.62742e-22,2,2302,9.76004,-5.28557e-06,4.40901e-06,-5.77505e-08,6.88331e-06,98,161.5,100.91,500000,500000,-1.51839e-07,3.10513e-07,-1.15524e-07,-0.00223191,0.0202,6.85989e-05,0.0213865,3,783
12,2.62742e-22,2,2303,9.76004,-5.43461e-06,4.33877e-06,-5.79659e-08,6.95438e-06,98,161.5,100.91,500000,500000,-1.47148e-07,2.97834e-07,-1.15938e-07,-0.00291544,0.0184426,-0.00100252,0.0203639,3,784
12,3.64999e-22,2,2304,9.76003,-5.57987e-06,4.27082e-06,-4.87048e-08,7.02689e-06,101.25,161.5,100.91,3.08325e+06,625000,-1.30035e-07,2.84936e-07,-9.74072e-08,-0.00252318,0.02806,0.000798515,0.0299911,3,785
12,5.69512e-22,1,2305,123.67,-5.69469e-06,4.28271e-06,-4.18579e-08,7.1255e-06,107.75,-64.23,128.87,8.24975e+06,875000,-9.77339e-08,2.73405e-07,-8.37225e-08,-0.00175535,0.045159,0.00108249,0.0467946,2,1518
12,6.71769e-22,1,2306,123.67,-5.77533e-06,4.36632e-06,-4.34657e-08,7.24024e-06,111,-64.23,128.87,1.0833e+07,1e+06,-7.76549e-08,2.61852e-07,-8.69313e-08,-0.00170055,0.0506442,-0.00072942,0.052237,2,1519
12,6.71769e-22,1,2307,123.67,-5.84999e-06,4.43284e-06,-4.04109e-08,7.3399e-06,111,-64.23,128.87,1.0833e+07,1e+06,-7.16634e-08,2.48582e-07,-8.08083e-08,-0.00109412,0.0487678,-3.19116e-05,0.0499347,2,1520
12,6.71769e-22,1,2308,123.67,-5.91866e-06,4.48283e-06,-3.84521e-08,7.42481e-06,111,-64.23,128.87,1.0833e+07,1e+06,-6.60506e-08,2.35276e-07,-7.68982e-08,-0.000688277,0.0465098,-5.50117e-05,0.0476917,2,1521
12,6.71769e-22,1,2309,123.67,-5.9821e-06,4.52359e-06,-3.66027e-08,7.49998e-06,111,-64.23,128.87,1.0833e+07,1e+06,-6.16677e-08,2.23357e-07,-7.32106e-08,-0.000424524,0.0443388,-5.55081e-05,0.0454659,2,1522
12,6.71769e-22,1,2310,123.67,-6.042e-06,4.56143e-06,-3.49926e-08,7.57057e-06,111,-64.23,128.87,1.0833e+07,1e+06,-5.90182e-08,2.13638e-07,-7.00163e-08,-0.000401748,0.0423864,-4.68082e-05,0.0434394,2,1523
12,6.71769e-22,1,2311,123.67,-6.10013e-06,4.60142e-06,-3.35703e-08,7.64106e-06,111,-64.23,128.87,1.0833e+07,1e+06,-5.79876e-08,2.06151e-07,-6.70106e-08,-0.000598644,0.0407808,4.49156e-05,0.0417508,2,1524
12,6.71769e-22,1,2312,123.67,-6.15797e-06,4.64563e-06,-3.12302e-08,7.71385e-06,111,-64.23,128.87,1.0833e+07,1e+06,-5.65795e-08,1.9894e-07,-6.27786e-08,-0.000571877,0.0395271,0.000493468,0.0401734,2,1525
12,6.74778e-22,1,2313,123.67,-6.21329e-06,4.68976e-06,-2.77262e-08,7.78458e-06,112.5,-64.23,128.87,1.0833e+07,1e+06,-5.03582e-08,1.82366e-07,-5.53801e-08,-0.000805371,0.0397655,-0.000975878,0.0413615,2,1526
12,6.80795e-22,1,2314,121.75,-6.25869e-06,4.70905e-06,-1.86001e-08,7.83241e-06,115.5,-23.35,126.79,1.0833e+07,1e+06,-4.15479e-08,1.60425e-07,-3.67765e-08,-0.000375175,0.0416284,-0.000556246,0.0425935,2,1527
12,6.83804e-22,1,2315,121.75,-6.29639e-06,4.71517e-06,-1.2492e-08,7.86623e-06,117,-23.35,126.79,1.0833e+07,1e+06,-3.70102e-08,1.47783e-07,-2.51853e-08,0.00012069,0.041451,0.0008537,0.0410868,2,1528
12,6.83804e-22,1,2316,121.75,-6.33271e-06,4.73586e-06,-1.35813e-08,7.9077e-06,117,-23.35,126.79,1.0833e+07,1e+06,-3.57512e-08,1.42388e-07,-2.72208e-08,-0.000239761,0.0395897,1.61888e-05,0.0397502,2,1529
12,6.83804e-22,1,2317,121.75,-6.36789e-06,4.76298e-06,-1.334e-08,7.95212e-06,117,-23.35,126.79,1.0833e+07,1e+06,-3.48894e-08,1.38828e-07,-2.66686e-08,-0.000278329,0.0385591,2.17679e-05,0.0387198,2,1530
12,6.83804e-22,1,2318,121.75,-6.40249e-06,4.79231e-06,-1.30043e-08,7.99739e-06,117,-23.35,126.79,1.0833e+07,1e+06,-3.41532e-08,1.35634e-07,-2.60392e-08,-0.000290522,0.0376655,2.11237e-05,0.03783,2,1531
12,6.83804e-22,1,2319,121.75,-6.4362e-06,4.82224e-06,-1.26682e-08,8.04231e-06,117,-23.35,126.79,1.0833e+07,1e+06,-3.30583e-08,1.32169e-07,-2.53208e-08,-0.00020431,0.0367402,4.16367e-05,0.0368572,2,1532
12,6.83804e-22,1,2320,121.75,-6.4686e-06,4.85147e-06,-1.24329e-08,8.08577e-06,117,-23.35,126.79,1.0833e+07,1e+06,-3.1538e-08,1.29269e-07,-2.4884e-08,2.83922e-05,0.0360187,6.31193e-05,0.0360207,2,1533
12,6.83804e-22,1,2321,121.75,-6.49927e-06,4.87987e-06,-1.28297e-08,8.12735e-06,117,-23.35,126.79,1.0833e+07,1e+06,-2.9792e-08,1.28342e-07,-2.52166e-08,0.000358465,0.0358818,0.000110742,0.0357012,2,1534
12,7.24549e-22,1,2322,121.75,-6.52819e-06,4.91059e-06,-1.40557e-08,8.16892e-06,118.75,-23.35,126.79,1.0833e+07,1e+06,-2.48599e-08,1.32182e-07,-2.7653e-08,0.00127668,0.0366279,0.00158721,0.0353324,2,1535
12,8.06038e-22,1,2323,57.67,-6.54899e-06,4.92948e-06,-2.63698e-08,8.19693e-06,122.25,-172.69,-138.33,1.0833e+07,1e+06,-1.71352e-08,1.54803e-07,-5.36261e-08,0.00142406,0.0397044,0.000530629,0.0389153,2,1536
12,5.57573e-22,1,2324,73.27,-3.92966e-08,4.07727e-06,-3.23548e-08,4.07758e-06,9.5,-129.16,-171.71,8.24975e+06,875000,-6.68928e-08,1.909e-07,-6.52053e-08,-0.00136653,0.0279944,0.00106656,0.0284555,2,1537
12,3.82204e-22,2,2325,79.76,-9.44889e-08,4.1408e-06,-5.48183e-08,4.14224e-06,12.5,-174.76,-145.86,3.08325e+06,625000,-4.25658e-08,2.03571e-07,-1.08846e-07,-0.00266576,0.0257851,-0.000733863,0.0278079,3,786
12,2.94519e-22,2,2326,79.76,-1.24428e-07,4.24529e-06,-7.02754e-08,4.2477e-06,14,-174.76,-145.86,500000,500000,-2.9079e-08,2.22648e-07,-1.4099e-07,-0.00350605,0.026002,-0.000517977,0.0281606,3,787
12,2.94519e-22,2,2327,79.76,-1.52647e-07,4.36261e-06,-7.41024e-08,4.36591e-06,14,-174.76,-145.86,500000,500000,-2.81123e-08,2.34087e-07,-1.49101e-07,-0.00314825,0.0273083,-0.000386528,0.0291746,3,788
12,3.00211e-22,2,2328,79.76,-1.80653e-07,4.48873e-06,-7.36969e-08,4.49297e-06,13.9375,-174.76,-145.86,500000,500000,-2.84838e-08,2.37469e-07,-1.45838e-07,-0.00261203,0.0290315,-2.36415e-05,0.0305266,3,789
12,3.22979e-22,2,2329,79.76,-2.09614e-07,4.60873e-06,-6.32848e-08,4.61393e-06,13.6875,-174.76,-145.86,500000,500000,-3.04181e-08,2.21311e-07,-1.25225e-07,-0.00235322,0.0302299,-0.000427165,0.0319761,3,790
12,3.57132e-22,2,2330,31.13,-2.41489e-07,4.69162e-06,-4.59013e-08,4.69806e-06,13.3125,-15.01,-23.73,500000,500000,-3.31453e-08,1.92361e-07,-9.32602e-08,-0.00223916,0.0304564,-0.000647935,0.0322784,3,791
12,3.91363e-22,2,2331,31.13,-2.75905e-07,4.72997e-06,-3.47083e-08,4.73814e-06,13.9375,-15.01,-23.73,1.14581e+06,531250,-3.55645e-08,1.74884e-07,-7.07353e-08,-0.0016425,0.0307802,-9.56359e-05,0.0320069,3,792
12,4.54373e-22,2,2332,31.13,-3.12618e-07,4.75409e-06,-3.11442e-08,4.76446e-06,18.25,-15.01,-23.73,4.37488e+06,687500,-4.29436e-08,1.82839e-07,-6.189e-08,0.000487446,0.0333995,0.000954833,0.0333229,3,793
12,5.34617e-22,1,2333,71.87,-3.61792e-07,4.79184e-06,-3.14529e-08,4.80558e-06,24.375,-131.18,-164.33,8.89556e+06,906250,-5.62361e-08,2.03637e-07,-6.29808e-08,0.00291535,0.0364535,0.00102868,0.0350704,2,1538
12,4.74573e-22,1,2334,71.87,-4.2509e-07,4.84199e-06,-4.2336e-08,4.8608e-06,27.5625,-131.18,-164.33,8.89556e+06,906250,-6.49847e-08,2.34715e-07,-8.38592e-08,0.00395694,0.0378559,-0.000571147,0.037474,2,1539
12,2.54224e-22,2,2335,95.09,-4.91761e-07,4.90392e-06,-6.17703e-08,4.9289e-06,28.875,-9.02,-160.64,4.37488e+06,687500,-6.55109e-08,2.67496e-07,-1.23782e-07,0.00257834,0.0334516,-0.00105228,0.034663,3,794
12,9.68319e-23,2,2336,95.09,-5.56112e-07,4.96495e-06,-7.97387e-08,4.99663e-06,29.8125,-9.02,-160.64,1.14581e+06,531250,-6.28007e-08,2.88717e-07,-1.61045e-07,0.000498184,0.0274503,-0.000642961,0.0287257,3,795
12,6.53535e-23,2,2337,95.09,-6.17363e-07,5.02088e-06,-8.92541e-08,5.05948e-06,30,-9.02,-160.64,500000,500000,-6.0618e-08,2.99752e-07,-1.77847e-07,0.000173167,0.0263233,-0.000878546,0.0274161,3,796
12,6.53535e-23,2,2338,95.09,-6.77348e-07,5.08288e-06,-9.00839e-08,5.12861e-06,30,-9.02,-160.64,500000,500000,-6.03573e-08,3.00143e-07,-1.78994e-07,0.000441191,0.0259863,-0.00101651,0.0268358,3,797
12,8.68911e-23,2,2339,95.09,-7.38077e-07,5.154e-06,-8.45628e-08,5.20726e-06,30.3125,-9.02,-160.64,500000,500000,-6.50162e-08,2.98523e-07,-1.68574e-07,0.00103316,0.0270753,-0.00096626,0.0276721,3,798
12,1.29966e-22,2,2340,95.09,-8.0738e-07,5.2241e-06,-7.17743e-08,5.28661e-06,30.9375,-9.02,-160.64,500000,500000,-7.47165e-08,2.88754e-07,-1.43514e-07,0.00143226,0.0284495,-0.000402841,0.0288729,3,799
12,1.51504e-22,2,2341,95.09,-8.8751e-07,5.28173e-06,-6.11629e-08,5.35612e-06,31.25,-9.02,-160.64,500000,500000,-8.22963e-08,2.73714e-07,-1.21921e-07,0.000874128,0.0278429,0.000332786,0.0282757,3,800
12,1.94579e-22,2,2342,95.09,-9.71973e-07,5.33998e-06,-5.0729e-08,5.42795e-06,31.875,-9.02,-160.64,500000,500000,-8.92496e-08,2.56393e-07,-1.00167e-07,0.000327312,0.0277685,-9.94036e-05,0.0289529,3,801
12,2.8073e-22,2,2343,117.14,-1.06601e-06,5.38197e-06,-3.0174e-08,5.48661e-06,33.125,133.75,99.63,500000,500000,-1.0102e-07,2.34907e-07,-6.18313e-08,0.000810411,0.0287125,0.000596449,0.0292968,3,802
12,3.45343e-22,2,2344,117.14,-1.17401e-06,5.40378e-06,-1.56996e-08,5.52987e-06,34.0625,133.75,99.63,500000,500000,-1.13062e-07,2.177e-07,-3.37142e-08,0.000483763,0.0282401,0.000922101,0.0285165,3,803
12,3.88418e-22,2,2345,117.14,-1.29213e-06,5.4131e-06,-1.07751e-08,5.5652e-06,34.6875,133.75,99.63,500000,500000,-1.20631e-07,2.10284e-07,-2.13742e-08,0.000306843,0.0277538,0.000480016,0.0278509,3,804
12,4.09956e-22,2,2346,117.14,-1.41528e-06,5.41232e-06,-7.92074e-09,5.59431e-06,35,133.75,99.63,500000,500000,-1.22549e-07,2.06899e-07,-1.56919e-08,0.000687815,0.0274051,0.000606345,0.0268087,3,805
12,4.09956e-22,2,2347,117.14,-1.53723e-06,5.4044e-06,-9.0161e-09,5.61878e-06,35,133.75,99.63,500000,500000,-1.21552e-07,2.04925e-07,-1.75314e-08,0.000460674,0.0269264,0.000134978,0.0267182,3,806
12,4.09956e-22,2,2348,117.14,-1.65838e-06,5.37815e-06,-9.72035e-09,5.62804e-06,35,133.75,99.63,500000,500000,-1.18596e-07,2.04066e-07,-1.87095e-08,0.000686118,0.0270746,0.000144993,0.0268146,3,807
12,4.88185e-22,2,2349,117.14,-1.77442e-06,5.33443e-06,-1.27431e-08,5.62183e-06,38.75,133.75,99.63,2.43744e+06,593750,-1.03178e-07,1.99782e-07,-2.57322e-08,0.000589738,0.0296934,0.00065278,0.0297179,3,808
12,6.70718e-22,1,2350,130.6,-1.86473e-06,5.3118e-06,-2.12395e-08,5.62965e-06,47.5,117.2,-48.36,6.95813e+06,812500,-7.84787e-08,1.93968e-07,-4.25593e-08,-0.000112062,0.0337766,0.000505752,0.0343333,2,1540
12,8.01099e-22,1,2351,130.6,-1.93138e-06,5.33477e-06,-2.84827e-08,5.6737e-06,53.75,117.2,-48.36,1.01872e+07,968750,-6.49674e-08,1.94613e-07,-5.68923e-08,-0.00037012,0.0363857,-0.000338382,0.0369967,2,1541
12,8.27175e-22,1,2352,130.6,-1.99467e-06,5.37136e-06,-3.01878e-08,5.72984e-06,55,117.2,-48.36,1.0833e+07,1e+06,-6.29462e-08,1.99812e-07,-6.04359e-08,0.000100684,0.0380463,-0.000260935,0.0382292,2,1542
12,8.27175e-22,1,2353,130.6,-2.05727e-06,5.40323e-06,-3.01279e-08,5.78171e-06,55,117.2,-48.36,1.0833e+07,1e+06,-6.20867e-08,2.01317e-07,-6.02408e-08,0.000520677,0.0386125,2.19571e-05,0.0384498,2,1543
12,8.27175e-22,1,2354,130.6,-2.11884e-06,5.43189e-06,-3.02691e-08,5.83059e-06,55,117.2,-48.36,1.0833e+07,1e+06,-6.0961e-08,2.01308e-07,-6.05236e-08,0.000836877,0.038708,2.33629e-05,0.0383905,2,1544
12,8.27175e-22,1,2355,130.6,-2.1792e-06,5.45686e-06,-3.01988e-08,5.87598e-06,55,117.2,-48.36,1.0833e+07,1e+06,-5.96055e-08,2.00196e-07,-6.04033e-08,0.00112139,0.0386047,2.22507e-05,0.038163,2,1545
12,8.27175e-22,1,2356,130.6,-2.23805e-06,5.47626e-06,-3.00754e-08,5.91602e-06,55,117.2,-48.36,1.0833e+07,1e+06,-5.82578e-08,1.98832e-07,-6.01724e-08,0.00136176,0.038512,-1.88912e-05,0.0380257,2,1546
12,8.27175e-22,1,2357,130.6,-2.29571e-06,5.48788e-06,-3.01236e-08,5.94878e-06,55,117.2,-48.36,1.0833e+07,1e+06,-5.78013e-08,1.99175e-07,-6.015e-08,0.00148666,0.0388243,-4.87292e-05,0.0383877,2,1547
12,8.27175e-22,1,2358,130.6,-2.35366e-06,5.49227e-06,-3.0601e-08,5.97542e-06,55,117.2,-48.36,1.0833e+07,1e+06,-5.87573e-08,2.02892e-07,-6.14671e-08,0.00148037,0.0396841,-0.000186267,0.0394263,2,1548
12,8.10811e-22,1,2359,130.6,-2.41323e-06,5.49519e-06,-3.235e-08,6.00181e-06,55.625,117.2,-48.36,1.0833e+07,1e+06,-6.04385e-08,2.08475e-07,-6.43603e-08,0.00128651,0.0406417,-0.000450282,0.0410334,2,1549
12,7.28992e-22,1,2360,130.6,-2.47453e-06,5.49135e-06,-3.26186e-08,6.02323e-06,58.75,117.2,-48.36,1.0833e+07,1e+06,-6.48808e-08,2.13869e-07,-6.51775e-08,0.00104006,0.0399302,0.000574235,0.0408561,2,1550
12,6.14445e-22,1,2361,80.41,-2.54299e-06,5.46577e-06,-3.62536e-08,6.0285e-06,63.125,-123.18,-170.23,1.0833e+07,1e+06,-7.14895e-08,2.19037e-07,-7.29398e-08,0.000989367,0.0357796,0.000214014,0.0370947,2,1551
12,5.65354e-22,1,2362,80.41,-2.61751e-06,5.42987e-06,-3.94569e-08,6.02797e-06,65,-123.18,-170.23,1.0833e+07,1e+06,-7.36855e-08,2.20131e-07,-7.87028e-08,0.00131832,0.0328904,-0.000628827,0.0339595,2,1552
12,5.65354e-22,1,2363,80.41,-2.69036e-06,5.39842e-06,-3.78164e-08,6.03178e-06,65,-123.18,-170.23,1.0833e+07,1e+06,-7.14672e-08,2.16558e-07,-7.56183e-08,0.00178788,0.0326828,-3.33743e-05,0.0329905,2,1553
12,5.65354e-22,1,2364,80.41,-2.76045e-06,5.37116e-06,-3.76764e-08,6.03911e-06,65,-123.18,-170.23,1.0833e+07,1e+06,-6.92195e-08,2.13828e-07,-7.53374e-08,0.00213615,0.0322637,-6.2279e-05,0.0322216,2,1554
12,5.65354e-22,1,2365,80.41,-2.8288e-06,5.35063e-06,-3.77487e-08,6.05251e-06,65,-123.18,-170.23,1.0833e+07,1e+06,-6.8096e-08,2.13427e-07,-7.55173e-08,0.00240128,0.0322096,-4.56877e-06,0.0318473,2,1555
12,5.65354e-22,1,2366,80.41,-2.89664e-06,5.33696e-06,-3.79547e-08,6.07249e-06,65,-123.18,-170.23,1.0833e+07,1e+06,-6.75303e-08,2.13695e-07,-7.59119e-08,0.00256993,0.0322398,1.4543e-05,0.0316807,2,1556
12,5.65354e-22,1,2367,80.41,-2.96386e-06,5.32877e-06,-3.80882e-08,6.09768e-06,65,-123.18,-170.23,1.0833e+07,1e+06,-6.66198e-08,2.13263e-07,-7.61694e-08,0.00275244,0.0321729,8.25896e-06,0.0314469,2,1557
12,5.65354e-22,1,2368,80.41,-3.02988e-06,5.32493e-06,-3.81032e-08,6.1267e-06,65,-123.18,-170.23,1.0833e+07,1e+06,-6.5217e-08,2.11932e-07,-7.62015e-08,0.00297838,0.0319745,6.75602e-07,0.031055,2,1558
12,5.65354e-22,1,2369,80.41,-3.09429e-06,5.325e-06,-3.80493e-08,6.15887e-06,65,-123.18,-170.23,1.0833e+07,1e+06,-6.35679e-08,2.10101e-07,-7.60972e-08,0.00322445,0.0316926,-1.92589e-06,0.0305608,2,1559
12,5.65354e-22,1,2370,80.41,-3.15701e-06,5.32894e-06,-3.80141e-08,6.19401e-06,65,-123.18,-170.23,1.0833e+07,1e+06,-6.19761e-08,2.08405e-07,-7.60247e-08,0.00347083,0.0314275,7.05279e-07,0.0300934,2,1560
12,5.65354e-22,1,2371,80.41,-3.21825e-06,5.33692e-06,-3.80788e-08,6.23228e-06,65,-123.18,-170.23,1.0833e+07,1e+06,-6.07356e-08,2.07483e-07,-7.61636e-08,0.00369904,0.0312842,4.87455e-06,0.0297834,2,1561
12,5.65354e-22,1,2372,80.41,-3.27848e-06,5.34948e-06,-3.83125e-08,6.2743e-06,65,-123.18,-170.23,1.0833e+07,1e+06,-5.9984e-08,2.07777e-07,-7.65825e-08,0.00391632,0.0313471,3.54582e-05,0.0296948,2,1562
12,5.65354e-22,1,2373,80.41,-3.33821e-06,5.36812e-06,-3.86302e-08,6.32154e-06,65,-123.18,-170.23,1.0833e+07,1e+06,-5.90155e-08,2.08734e-07,-7.73018e-08,0.00425167,0.0315773,6.79685e-05,0.0297474,2,1563
12,5.65354e-22,1,2374,80.41,-3.39652e-06,5.39292e-06,-3.884e-08,6.37349e-06,65,-123.18,-170.23,1.0833e+07,1e+06,-5.64823e-08,2.07254e-07,-7.68458e-08,0.00479212,0.0315935,0.000259308,0.0293929,2,1564
12,5.56003e-22,1,2375,80.41,-3.45118e-06,5.42094e-06,-3.80316e-08,6.42641e-06,65.8125,-123.18,-170.23,1.01872e+07,968750,-5.16505e-08,2.05793e-07,-7.64354e-08,0.00593771,0.0313247,0.000746733,0.0288309,2,1565
12,5.10898e-22,1,2376,80.41,-3.49982e-06,5.44002e-06,-4.58258e-08,6.46875e-06,69.3125,-123.18,-170.23,6.95812e+06,812500,-4.095e-08,2.14044e-07,-9.28102e-08,0.00706982,0.0292669,0.000454661,0.0274686,2,1566
12,4.47642e-22,2,2377,82.04,-3.53308e-06,5.35643e-06,-5.68394e-08,6.41695e-06,74.25,62.56,148.29,2.43744e+06,593750,-3.73442e-08,2.24803e-07,-1.13443e-07,0.00580173,0.0252219,0.000522144,0.024228,3,809
12,4.19038e-22,2,2378,31.67,-3.57451e-06,5.22099e-06,-5.984e-08,6.32767e-06,76.875,13.09,-96.26,500000,500000,-5.7108e-08,2.40367e-07,-1.19343e-07,0.00343535,0.0223333,0.000948607,0.0215697,3,810
12,4.17937e-22,2,2379,31.67,-3.64729e-06,5.11775e-06,-6.04702e-08,6.28472e-06,77.25,13.09,-96.26,500000,500000,-8.24191e-08,2.5829e-07,-1.20755e-07,0.00119206,0.0214737,0.00037276,0.0217784,3,811
12,4.17387e-22,2,2380,31.67,-3.73934e-06,4.99782e-06,-5.7934e-08,6.24213e-06,77.4375,13.09,-96.26,500000,500000,-1.01631e-07,2.62646e-07,-1.16575e-07,-0.00148294,0.0202214,-0.000162148,0.0223095,3,812
12,4.16286e-22,2,2381,31.67,-3.85055e-06,4.89814e-06,-5.78358e-08,6.23072e-06,77.8125,13.09,-96.26,500000,500000,-1.17256e-07,2.71885e-07,-1.15826e-07,-0.00214404,0.0188425,-0.000478368,0.0211114,3,813
12,4.42907e-22,2,2382,31.67,-3.97386e-06,4.85552e-06,-5.97433e-08,6.27464e-06,78.25,13.09,-96.26,1.14581e+06,531250,-1.22698e-07,2.81212e-07,-1.18834e-07,-0.00200122,0.0196398,-0.00110838,0.0216554,3,814
12,4.97248e-22,2,2383,31.67,-4.09595e-06,4.85475e-06,-5.83716e-08,6.35207e-06,78.75,13.09,-96.26,2.43744e+06,593750,-1.20439e-07,2.84323e-07,-1.15552e-07,-0.00180382,0.0224961,-0.000748155,0.0242275,3,815
12,5.78761e-22,2,2384,31.67,-4.21473e-06,4.85515e-06,-5.28009e-08,6.42956e-06,79.5,13.09,-96.26,4.37488e+06,687500,-1.09906e-07,2.74908e-07,-1.04584e-07,-0.000974737,0.0272621,-0.00028431,0.028593,3,816
12,6.87444e-22,1,2385,133.1,-4.31576e-06,4.83691e-06,-4.24344e-08,6.48254e-06,80.5,119.51,-49.37,6.95812e+06,812500,-9.17275e-08,2.48886e-07,-8.63086e-08,-4.73681e-05,0.031888,5.5887e-05,0.0326545,2,1567
12,7.68957e-22,1,2386,133.1,-4.39819e-06,4.78551e-06,-3.74613e-08,6.49973e-06,81.25,119.51,-49.37,8.89556e+06,906250,-8.39989e-08,2.47201e-07,-7.58532e-08,0.00115669,0.038841,0.000899933,0.0383365,2,1568
12,8.23298e-22,1,2387,133.1,-4.48376e-06,4.73217e-06,-3.63436e-08,6.51912e-06,81.75,119.51,-49.37,1.01872e+07,968750,-8.83746e-08,2.65185e-07,-7.23707e-08,0.0018441,0.0472244,0.00198093,0.045645,2,1569
12,8.12457e-22,1,2388,133.1,-4.57494e-06,4.74741e-06,-3.68303e-08,6.59313e-06,82.4375,119.51,-49.37,1.01872e+07,968750,-8.4743e-08,2.63476e-07,-7.4043e-08,0.00187687,0.0477954,0.0015854,0.0472246,2,1570
12,6.60409e-22,1,2389,133.1,-4.65325e-06,4.81869e-06,-4.89516e-08,6.69887e-06,84.1875,119.51,-49.37,7.60394e+06,843750,-6.07878e-08,2.59165e-07,-9.98156e-08,0.00224754,0.0448346,-0.00125448,0.0473648,2,1571
12,4.32336e-22,2,2390,99.87,-4.69651e-06,4.87765e-06,-7.52508e-08,6.77159e-06,86.8125,165.01,-32.53,3.72906e+06,656250,-2.73382e-08,2.83116e-07,-1.49111e-07,0.00316551,0.0447939,-0.00155607,0.0472089,3,817
12,2.80287e-22,2,2391,99.87,-4.70792e-06,4.87583e-06,-9.55139e-08,6.77845e-06,88.5625,165.01,-32.53,1.14581e+06,531250,-5.66076e-09,3.00803e-07,-1.88957e-07,0.0025645,0.0424394,-0.000271207,0.0429943,3,818
12,2.42275e-22,2,2392,99.87,-4.70783e-06,4.83917e-06,-9.76072e-08,6.75209e-06,89,165.01,-32.53,500000,500000,-7.01635e-11,2.93669e-07,-1.9624e-07,0.00173552,0.0391138,-0.000153256,0.0392656,3,819
12,2.42275e-22,2,2393,99.87,-4.70806e-06,4.80969e-06,-9.41599e-08,6.73111e-06,89,165.01,-32.53,500000,500000,-1.70529e-09,2.853e-07,-1.88391e-07,0.00167171,0.0381978,-7.43003e-05,0.0383572,3,820
12,2.42275e-22,2,2394,99.87,-4.71124e-06,4.79073e-06,-9.16439e-08,6.71977e-06,89,165.01,-32.53,500000,500000,-3.81493e-09,2.80948e-07,-1.83379e-07,0.00132471,0.0378276,3.71412e-05,0.0381725,3,821
12,2.42275e-22,2,2395,99.87,-4.71569e-06,4.78415e-06,-9.04205e-08,6.71819e-06,89,165.01,-32.53,500000,500000,-4.15422e-09,2.78217e-07,-1.80873e-07,0.00111915,0.0377552,7.92719e-05,0.0383135,3,822
12,2.42275e-22,2,2396,99.87,-4.71955e-06,4.79419e-06,-8.96779e-08,6.72804e-06,89,165.01,-32.53,500000,500000,-2.84146e-09,2.74355e-07,-1.79304e-07,0.000979073,0.0375615,3.22975e-06,0.0384178,3,823
12,2.42275e-22,2,2397,99.87,-4.72138e-06,4.8257e-06,-8.87112e-08,6.75179e-06,89,165.01,-32.53,500000,500000,-1.27966e-09,2.68419e-07,-1.77204e-07,0.000628615,0.0371013,-0.000136964,0.0384762,3,824
12,2.43554e-22,2,2398,99.87,-4.72211e-06,4.88923e-06,-8.49372e-08,6.79781e-06,89.5625,165.01,-32.53,500000,500000,-1.01803e-08,2.66601e-07,-1.70111e-07,0.000148998,0.0360517,-0.000123187,0.037982,3,825
12,2.4995e-22,2,2399,99.87,-4.74174e-06,4.94812e-06,-7.70657e-08,6.85375e-06,92.375,165.01,-32.53,500000,500000,-5.2983e-08,2.84666e-07,-1.54364e-07,-0.000157919,0.032483,-5.78535e-06,0.0345657,3,826
12,2.58905e-22,2,2400,9.76005,-4.82808e-06,4.94239e-06,-7.05779e-08,6.9096e-06,96.3125,161.5,100.91,500000,500000,-1.15879e-07,3.18526e-07,-1.40876e-07,-0.000652583,0.0263566,0.000116541,0.0277807,3,827
12,2.62742e-22,2,2401,9.76004,-4.97349e-06,4.88322e-06,-6.64902e-08,6.97036e-06,98,161.5,100.91,500000,500000,-1.52083e-07,3.3553e-07,-1.32925e-07,-0.00161495,0.0226133,0.000119737,0.0236582,3,828
12,2.62742e-22,2,2402,9.76004,-5.13225e-06,4.8065e-06,-6.2246e-08,7.0318e-06,98,161.5,100.91,500000,500000,-1.59513e-07,3.30776e-07,-1.24569e-07,-0.00232877,0.0217642,8.29101e-05,0.0230462,3,829
12,2.62742e-22,2,2403,9.76004,-5.29252e-06,4.7242e-06,-5.92596e-08,7.09453e-06,98,161.5,100.91,500000,500000,-1.57775e-07,3.20512e-07,-1.18533e-07,-0.00243052,0.0208413,6.6807e-05,0.0221451,3,830
12,2.62742e-22,2,2404,9.76004,-5.4478e-06,4.64074e-06,-5.93069e-08,7.15671e-06,98,161.5,100.91,500000,500000,-1.53493e-07,3.07565e-07,-1.18636e-07,-0.00315105,0.0189997,-0.00103593,0.021063,3,831
12,3.64999e-22,2,2405,9.76003,-5.59951e-06,4.55933e-06,-4.96415e-08,7.22111e-06,101.25,161.5,100.91,3.08325e+06,625000,-1.35638e-07,2.93567e-07,-9.92859e-08,-0.00279153,0.0288385,0.000840338,0.030949,3,832
12,5.69512e-22,1,2406,123.67,-5.71907e-06,4.55954e-06,-4.27397e-08,7.3143e-06,107.75,-64.23,128.87,8.24975e+06,875000,-1.0145e-07,2.8115e-07,-8.54776e-08,-0.00201918,0.0464816,0.00114472,0.0483333,2,1572
12,6.71769e-22,1,2407,123.67,-5.80241e-06,4.63129e-06,-4.43842e-08,7.4242e-06,111,-64.23,128.87,1.0833e+07,1e+06,-7.98878e-08,2.68148e-07,-8.87824e-08,-0.00193782,0.0519966,-0.000747901,0.0538422,2,1573
12,6.71769e-22,1,2408,123.67,-5.87885e-06,4.68346e-06,-4.09151e-08,7.51647e-06,111,-64.23,128.87,1.0833e+07,1e+06,-7.29406e-08,2.52173e-07,-8.18179e-08,-0.00127176,0.049602,-4.2058e-05,0.0510097,2,1574
12,6.71769e-22,1,2409,123.67,-5.94829e-06,4.7188e-06,-3.85418e-08,7.59281e-06,111,-64.23,128.87,1.0833e+07,1e+06,-6.63362e-08,2.36092e-07,-7.70741e-08,-0.000777434,0.0467786,-5.91442e-05,0.048137,2,1575
12,6.71769e-22,1,2410,123.67,-6.01152e-06,4.74641e-06,-3.63333e-08,7.65951e-06,111,-64.23,128.87,1.0833e+07,1e+06,-6.09041e-08,2.21801e-07,-7.26967e-08,-0.000366056,0.0441325,-4.59274e-05,0.0453033,2,1576
12,6.71769e-22,1,2411,123.67,-6.0701e-06,4.77364e-06,-3.44154e-08,7.72236e-06,111,-64.23,128.87,1.0833e+07,1e+06,-5.7332e-08,2.09815e-07,-6.8792e-08,-0.000219282,0.0417185,-1.3627e-05,0.0426714,2,1577
12,6.71769e-22,1,2412,123.67,-6.12618e-06,4.8056e-06,-3.25354e-08,7.7862e-06,111,-64.23,128.87,1.0833e+07,1e+06,-5.53038e-08,2.0157e-07,-6.54586e-08,-0.000146008,0.0400446,0.000157339,0.0406737,2,1578
12,6.72521e-22,1,2413,123.67,-6.1807e-06,4.84292e-06,-3.05502e-08,7.85213e-06,111.375,-64.23,128.87,1.0833e+07,1e+06,-5.23199e-08,1.92045e-07,-6.09471e-08,-0.000146649,0.0392008,-4.23574e-06,0.039938,2,1579
12,6.76282e-22,1,2414,123.67,-6.23082e-06,4.86931e-06,-2.51086e-08,7.90784e-06,113.25,-64.23,128.87,1.0833e+07,1e+06,-4.67271e-08,1.70816e-07,-4.9483e-08,-0.000823319,0.0389171,-0.00111165,0.0407005,2,1580
12,6.81547e-22,1,2415,121.75,-6.27416e-06,4.86647e-06,-1.58512e-08,7.94026e-06,115.875,-23.35,126.79,1.0833e+07,1e+06,-4.15709e-08,1.52455e-07,-3.1952e-08,-0.000834237,0.040343,-0.000382439,0.0414843,2,1581
12,6.83804e-22,1,2416,121.75,-6.31396e-06,4.86213e-06,-1.21208e-08,7.9691e-06,117,-23.35,126.79,1.0833e+07,1e+06,-3.92319e-08,1.46368e-07,-2.4553e-08,-0.000527602,0.0408469,0.000616892,0.0409453,2,1582
12,6.83804e-22,1,2417,121.75,-6.35262e-06,4.87813e-06,-1.31764e-08,8.0095e-06,117,-23.35,126.79,1.0833e+07,1e+06,-3.79674e-08,1.42221e-07,-2.62849e-08,-0.000794313,0.0394035,3.95643e-05,0.0398281,2,1583
12,6.83804e-22,1,2418,121.75,-6.3899e-06,4.90179e-06,-1.29953e-08,8.05348e-06,117,-23.35,126.79,1.0833e+07,1e+06,-3.69965e-08,1.39009e-07,-2.59963e-08,-0.000796883,0.0384755,2.12946e-06,0.0389063,2,1584
12,6.83804e-22,1,2419,121.75,-6.42661e-06,4.92808e-06,-1.26507e-08,8.09861e-06,117,-23.35,126.79,1.0833e+07,1e+06,-3.64512e-08,1.36252e-07,-2.52869e-08,-0.000805389,0.0377179,2.39119e-05,0.0381447,2,1585
12,6.83804e-22,1,2420,121.75,-6.4628e-06,4.95487e-06,-1.2204e-08,8.14363e-06,117,-23.35,126.79,1.0833e+07,1e+06,-3.59419e-08,1.33214e-07,-2.4453e-08,-0.000826274,0.0368922,3.0042e-05,0.0373371,2,1586
12,6.83804e-22,1,2421,121.75,-6.4985e-06,4.98115e-06,-1.18104e-08,8.18794e-06,117,-23.35,126.79,1.0833e+07,1e+06,-3.54695e-08,1.30567e-07,-2.33247e-08,-0.000812977,0.036215,0.000175708,0.0365938,2,1587
12,6.83804e-22,1,2422,121.75,-6.53374e-06,5.00897e-06,-1.15767e-08,8.23284e-06,117,-23.35,126.79,1.0833e+07,1e+06,-3.52874e-08,1.28553e-07,-2.20814e-08,-0.000911211,0.0357188,0.000478182,0.036017,2,1588
12,6.93666e-22,1,2423,121.75,-6.56907e-06,5.04039e-06,-1.3436e-08,8.28e-06,118.688,-23.35,126.79,1.01872e+07,968750,-3.60786e-08,1.35949e-07,-2.72549e-08,-0.000880546,0.0354879,0.000942738,0.0358355,2,1589
12,7.13389e-22,1,2424,57.67,-6.6059e-06,5.08622e-06,-3.36842e-08,8.33719e-06,122.063,-172.69,-138.33,8.89556e+06,906250,-3.73829e-08,1.93887e-07,-6.83232e-08,-0.000230476,0.0414896,2.13953e-05,0.0425194,2,1590
12,5.57573e-22,1,2425,73.27,-3.6675e-08,4.2688e-06,-3.29911e-08,4.26908e-06,9.5,-129.16,-171.71,8.24975e+06,875000,-6.22584e-08,1.89449e-07,-6.57497e-08,-0.000187414,0.0280524,0.00107904,0.0278385,2,1591
12,3.82204e-22,2,2426,79.76,-8.78418e-08,4.3445e-06,-5.55395e-08,4.34574e-06,12.5,-174.76,-145.86,3.08325e+06,625000,-3.84686e-08,2.02598e-07,-1.11674e-07,-0.00187149,0.0254494,-0.00101916,0.0271896,3,833
12,2.94519e-22,2,2427,79.76,-1.13612e-07,4.4673e-06,-7.12575e-08,4.46931e-06,14,-174.76,-145.86,500000,500000,-2.54715e-08,2.21201e-07,-1.42795e-07,-0.00292096,0.0256403,-0.000592652,0.0275104,3,834
12,3.11674e-22,2,2428,79.76,-1.38785e-07,4.59576e-06,-6.90601e-08,4.59838e-06,14.8125,-174.76,-145.86,1.14581e+06,531250,-3.03153e-08,2.27236e-07,-1.36563e-07,-0.00224618,0.0277068,-5.16685e-05,0.0291199,3,835
12,3.5737e-22,2,2429,79.76,-1.74243e-07,4.71815e-06,-5.60299e-08,4.7217e-06,16.3125,-174.76,-145.86,2.43744e+06,593750,-3.94682e-08,2.14322e-07,-1.11288e-07,-0.00201889,0.0293463,-0.000104422,0.0309329,3,836
12,4.02985e-22,2,2430,31.13,-2.17721e-07,4.81076e-06,-4.01426e-08,4.81585e-06,16.8125,-15.01,-23.73,3.08325e+06,625000,-4.27107e-08,1.88572e-07,-8.19738e-08,-0.00176714,0.029955,-0.000317125,0.0315408,3,837
12,4.25754e-22,2,2431,31.13,-2.59664e-07,4.86717e-06,-3.17251e-08,4.8742e-06,16.5625,-15.01,-23.73,3.08325e+06,625000,-3.93405e-08,1.72455e-07,-6.41628e-08,-0.000402234,0.0305913,9.00449e-05,0.0312421,3,838
12,4.54373e-22,2,2432,31.13,-2.96402e-07,4.90127e-06,-2.98007e-08,4.91031e-06,18.25,-15.01,-23.73,4.37488e+06,687500,-3.7714e-08,1.74445e-07,-5.92253e-08,0.00170194,0.0324214,0.000714438,0.0319896,3,839
12,5.1169e-22,1,2433,71.87,-3.35092e-07,4.93934e-06,-3.001e-08,4.95078e-06,22.625,-131.18,-164.33,7.60394e+06,843750,-4.29614e-08,1.87573e-07,-6.01483e-08,0.00403103,0.0350939,0.000765219,0.0337626,2,1592
12,5.57544e-22,1,2434,71.87,-3.82325e-07,4.99649e-06,-3.28522e-08,5.0112e-06,26.125,-131.18,-164.33,1.01872e+07,968750,-4.99864e-08,2.02314e-07,-6.44082e-08,0.00563352,0.037061,0.000430503,0.0348452,2,1593
12,5.37529e-22,1,2435,71.87,-4.35065e-07,5.07012e-06,-3.47795e-08,5.08887e-06,27.1875,-131.18,-164.33,1.01872e+07,968750,-5.38713e-08,2.17303e-07,-6.9851e-08,0.00651057,0.0383787,0.000854294,0.0355096,2,1594
12,3.80137e-22,1,2436,71.87,-4.90067e-07,5.15364e-06,-4.6329e-08,5.17709e-06,28.125,-131.18,-164.33,6.95813e+06,812500,-5.18382e-08,2.32708e-07,-9.50417e-08,0.00549173,0.0348158,-0.000444505,0.0340621,2,1595
12,1.81326e-22,2,2437,95.09,-5.38741e-07,5.23714e-06,-6.55312e-08,5.26519e-06,29.75,-9.02,-160.64,2.43744e+06,593750,-4.79693e-08,2.51689e-07,-1.30325e-07,0.00367556,0.0287838,-0.000954739,0.0292279,3,840
12,1.29966e-22,2,2438,95.09,-5.86006e-07,5.31015e-06,-6.91305e-08,5.34283e-06,30.9375,-9.02,-160.64,500000,500000,-5.19942e-08,2.61287e-07,-1.36591e-07,0.00302647,0.0272325,0.000130657,0.0269055,3,841
12,1.51504e-22,2,2439,95.09,-6.4273e-07,5.37028e-06,-6.27259e-08,5.40897e-06,31.25,-9.02,-160.64,500000,500000,-6.02724e-08,2.56386e-07,-1.24723e-07,0.0023724,0.0271641,0.00030481,0.0271504,3,842
12,1.94579e-22,2,2440,95.09,-7.06551e-07,5.43184e-06,-5.27511e-08,5.47785e-06,31.875,-9.02,-160.64,500000,500000,-7.04658e-08,2.46491e-07,-1.04347e-07,0.00205899,0.0277827,0.000119662,0.0281711,3,843
12,2.8073e-22,2,2441,117.14,-7.83661e-07,5.48326e-06,-3.35063e-08,5.53907e-06,33.125,133.75,99.63,500000,500000,-8.44874e-08,2.31236e-07,-6.8182e-08,0.00283069,0.029288,0.000722181,0.0287781,3,844
12,3.23805e-22,2,2442,117.14,-8.75526e-07,5.52469e-06,-2.15805e-08,5.59368e-06,33.75,133.75,99.63,500000,500000,-9.5292e-08,2.20524e-07,-4.48247e-08,0.00273461,0.0292181,0.00165763,0.0279916,3,845
12,3.45343e-22,2,2443,117.14,-9.74245e-07,5.56699e-06,-1.79827e-08,5.65162e-06,34.0625,133.75,99.63,500000,500000,-1.02766e-07,2.10949e-07,-3.65906e-08,0.00134738,0.0278908,0.000687728,0.0279019,3,846
12,3.88418e-22,2,2444,117.14,-1.08106e-06,5.59246e-06,-1.21e-08,5.696e-06,34.6875,133.75,99.63,500000,500000,-1.09531e-07,2.0458e-07,-2.43239e-08,0.0014171,0.0276671,0.000478721,0.0272472,3,847
12,4.09956e-22,2,2445,117.14,-1.19331e-06,5.60738e-06,-9.46366e-09,5.73296e-06,35,133.75,99.63,500000,500000,-1.12214e-07,2.02805e-07,-1.87615e-08,0.00182008,0.027587,0.000617747,0.0264446,3,848
12,4.09956e-22,2,2446,117.14,-1.30548e-06,5.61833e-06,-1.06499e-08,5.76802e-06,35,133.75,99.63,500000,500000,-1.12391e-07,2.03143e-07,-2.07692e-08,0.00166854,0.0274304,0.000153749,0.0266159,3,849
12,4.09956e-22,2,2447,117.14,-1.41809e-06,5.61838e-06,-1.10237e-08,5.79459e-06,35,133.75,99.63,500000,500000,-1.12166e-07,2.03476e-07,-2.13961e-08,0.00166538,0.0274892,6.95927e-05,0.0267346,3,850
12,4.09956e-22,2,2448,117.14,-1.52982e-06,5.60719e-06,-1.08373e-08,5.81215e-06,35,133.75,99.63,500000,500000,-1.10265e-07,2.01206e-07,-2.19177e-08,0.00165352,0.0272204,-2.22316e-05,0.0265579,3,851
12,4.09956e-22,2,2449,117.14,-1.63862e-06,5.58051e-06,-1.15504e-08,5.81613e-06,35,133.75,99.63,500000,500000,-1.07844e-07,2.01306e-07,-2.28882e-08,0.00195676,0.0274955,4.78452e-05,0.0267056,3,852
12,4.36032e-22,2,2450,117.14,-1.7455e-06,5.53722e-06,-1.29628e-08,5.80584e-06,36.25,133.75,99.63,1.14581e+06,531250,-1.02598e-07,2.05405e-07,-2.57997e-08,0.0023873,0.0296414,0.000581462,0.0286573,3,853
12,5.66413e-22,2,2451,117.14,-1.84382e-06,5.51008e-06,-1.83922e-08,5.81042e-06,42.5,133.75,99.63,4.37488e+06,687500,-8.63979e-08,2.03742e-07,-3.7329e-08,0.00177292,0.033411,0.000779705,0.032923,3,854
12,7.48946e-22,1,2452,130.6,-1.9183e-06,5.53061e-06,-2.7276e-08,5.85391e-06,51.25,117.2,-48.36,8.89556e+06,906250,-6.61712e-08,1.98159e-07,-5.45102e-08,0.0010855,0.0365243,-0.000129654,0.0365458,2,1596
12,8.27175e-22,1,2453,130.6,-1.97616e-06,5.57058e-06,-3.09355e-08,5.9108e-06,55,117.2,-48.36,1.0833e+07,1e+06,-5.75461e-08,1.98394e-07,-6.1618e-08,0.00148565,0.0381821,-0.000393536,0.0378064,2,1597
12,8.27175e-22,1,2454,130.6,-2.03339e-06,5.60361e-06,-3.0286e-08,5.96121e-06,55,117.2,-48.36,1.0833e+07,1e+06,-5.72584e-08,1.99336e-07,-6.06343e-08,0.00170746,0.0386575,6.10757e-06,0.0379597,2,1598
12,8.27175e-22,1,2455,130.6,-2.09067e-06,5.63224e-06,-3.03408e-08,6.00782e-06,55,117.2,-48.36,1.0833e+07,1e+06,-5.7066e-08,1.99427e-07,-6.06779e-08,0.00176367,0.0387095,1.6853e-05,0.037981,2,1599
12,8.27175e-22,1,2456,130.6,-2.14752e-06,5.65652e-06,-3.03568e-08,6.05054e-06,55,117.2,-48.36,1.0833e+07,1e+06,-5.66536e-08,1.9924e-07,-6.07179e-08,0.00185828,0.0387253,-1.70587e-06,0.0379767,2,1600
12,8.27175e-22,1,2457,130.6,-2.20398e-06,5.67556e-06,-3.04255e-08,6.08855e-06,55,117.2,-48.36,1.0833e+07,1e+06,-5.66195e-08,1.99662e-07,-6.08512e-08,0.00188794,0.0388927,-3.85933e-05,0.0381896,2,1601
12,8.27175e-22,1,2458,130.6,-2.26076e-06,5.68874e-06,-3.06679e-08,6.12158e-06,55,117.2,-48.36,1.0833e+07,1e+06,-5.7542e-08,2.01892e-07,-6.12921e-08,0.00179954,0.0394345,-6.26318e-05,0.0388502,2,1602
12,8.27175e-22,1,2459,130.6,-2.31907e-06,5.69709e-06,-3.09387e-08,6.15109e-06,55,117.2,-48.36,1.0833e+07,1e+06,-5.89561e-08,2.05807e-07,-6.18616e-08,0.00174732,0.0403441,3.74816e-05,0.0398017,2,1603
12,8.27175e-22,1,2460,130.6,-2.37867e-06,5.70273e-06,-3.22249e-08,6.17901e-06,55,117.2,-48.36,1.0833e+07,1e+06,-5.97846e-08,2.08563e-07,-6.36959e-08,0.0016135,0.0409037,-0.00034229,0.0407265,2,1604
12,7.6172e-22,1,2461,130.6,-2.43864e-06,5.70082e-06,-2.89102e-08,6.20058e-06,57.5,117.2,-48.36,1.0833e+07,1e+06,-6.38547e-08,2.12164e-07,-5.88942e-08,0.00144323,0.0410628,0.00181685,0.040869,2,1605
12,6.30809e-22,1,2462,80.41,-2.50638e-06,5.68185e-06,-3.33144e-08,6.21019e-06,62.5,-123.18,-170.23,1.0833e+07,1e+06,-7.07922e-08,2.18554e-07,-6.71674e-08,0.00133413,0.0370543,0.00156207,0.0375249,2,1606
12,5.65354e-22,1,2463,80.41,-2.58022e-06,5.64878e-06,-3.95738e-08,6.2103e-06,65,-123.18,-170.23,1.0833e+07,1e+06,-7.26304e-08,2.17371e-07,-7.81117e-08,0.00129782,0.032507,-0.000777123,0.0337564,2,1607
12,5.65354e-22,1,2464,80.41,-2.65164e-06,5.61315e-06,-3.67523e-08,6.20806e-06,65,-123.18,-170.23,1.0833e+07,1e+06,-7.10793e-08,2.11664e-07,-7.37378e-08,0.00140592,0.0318669,-0.000136785,0.0325673,2,1608
12,5.65354e-22,1,2465,80.41,-2.72238e-06,5.58377e-06,-3.67518e-08,6.21218e-06,65,-123.18,-170.23,1.0833e+07,1e+06,-7.10545e-08,2.1174e-07,-7.35015e-08,0.00151277,0.031791,-8.55487e-07,0.0320618,2,1609
12,5.65354e-22,1,2466,80.41,-2.79375e-06,5.56384e-06,-3.71381e-08,6.22597e-06,65,-123.18,-170.23,1.0833e+07,1e+06,-7.13554e-08,2.13627e-07,-7.43074e-08,0.00163007,0.0320154,4.41025e-05,0.0320337,2,1610
12,5.65354e-22,1,2467,80.41,-2.86509e-06,5.55066e-06,-3.74284e-08,6.24659e-06,65,-123.18,-170.23,1.0833e+07,1e+06,-7.04854e-08,2.13731e-07,-7.48366e-08,0.00184291,0.03205,1.71665e-05,0.0319061,2,1611
12,5.65354e-22,1,2468,80.41,-2.93472e-06,5.54155e-06,-3.74654e-08,6.27079e-06,65,-123.18,-170.23,1.0833e+07,1e+06,-6.84214e-08,2.12e-07,-7.49182e-08,0.002187,0.0318602,-1.22557e-05,0.0315002,2,1612
12,5.65354e-22,1,2469,80.41,-3.00193e-06,5.53576e-06,-3.73592e-08,6.29743e-06,65,-123.18,-170.23,1.0833e+07,1e+06,-6.60583e-08,2.0946e-07,-7.47128e-08,0.00254186,0.0315298,-2.28257e-05,0.0309067,2,1613
12,5.65354e-22,1,2470,80.41,-3.06684e-06,5.53368e-06,-3.72486e-08,6.32681e-06,65,-123.18,-170.23,1.0833e+07,1e+06,-6.41012e-08,2.07144e-07,-7.44956e-08,0.0028225,0.0311794,-2.33821e-05,0.0303019,2,1614
12,5.65354e-22,1,2471,80.41,-3.13013e-06,5.5361e-06,-3.72566e-08,6.35984e-06,65,-123.18,-170.23,1.0833e+07,1e+06,-6.30022e-08,2.05935e-07,-7.45122e-08,0.00299322,0.0309418,-1.91875e-05,0.0298654,2,1615
12,5.65354e-22,1,2472,80.41,-3.19285e-06,5.54384e-06,-3.7457e-08,6.39764e-06,65,-123.18,-170.23,1.0833e+07,1e+06,-6.29715e-08,2.06401e-07,-7.49093e-08,0.00305109,0.0309218,-7.73022e-06,0.0297218,2,1616
12,5.65354e-22,1,2473,80.41,-3.25608e-06,5.55755e-06,-3.78298e-08,6.44126e-06,65,-123.18,-170.23,1.0833e+07,1e+06,-6.36594e-08,2.08389e-07,-7.56277e-08,0.00306997,0.0311543,2.94853e-05,0.0298717,2,1617
12,5.65354e-22,1,2474,80.41,-3.32016e-06,5.57709e-06,-3.8175e-08,6.49068e-06,65,-123.18,-170.23,1.0833e+07,1e+06,-6.37146e-08,2.10524e-07,-7.64448e-08,0.00325531,0.0315378,8.66006e-05,0.0301275,2,1618
12,5.65354e-22,1,2475,80.41,-3.38351e-06,5.60144e-06,-3.83269e-08,6.54413e-06,65,-123.18,-170.23,1.0833e+07,1e+06,-6.17172e-08,2.1115e-07,-7.64356e-08,0.00382253,0.0320361,0.000326077,0.030333,2,1619
12,5.56553e-22,1,2476,80.41,-3.4436e-06,5.62707e-06,-3.92744e-08,6.59726e-06,65.625,-123.18,-170.23,1.01872e+07,968750,-5.58505e-08,2.12602e-07,-7.83099e-08,0.00479094,0.0329023,0.000732414,0.0310801,2,1620
12,5.12549e-22,1,2477,80.41,-3.49521e-06,5.6338e-06,-4.32499e-08,6.63008e-06,68.75,-123.18,-170.23,6.95812e+06,812500,-4.40397e-08,1.95141e-07,-8.72524e-08,0.00306573,0.0277957,-0.000918135,0.0281227,2,1621
12,4.50394e-22,2,2478,82.04,-3.53168e-06,5.55537e-06,-5.14043e-08,6.58312e-06,73.3125,62.56,148.29,2.43744e+06,593750,-3.61018e-08,1.93556e-07,-1.02475e-07,0.00105305,0.0232074,-0.000755303,0.0241207,3,855
12,4.22891e-22,2,2479,82.04,-3.56741e-06,5.44277e-06,-5.4576e-08,6.50793e-06,75.5625,62.56,148.29,500000,500000,-4.37424e-08,2.11323e-07,-1.08695e-07,0.000410222,0.0231279,0.00107612,0.0229967,3,856
12,4.2234e-22,2,2480,82.04,-3.61916e-06,5.35287e-06,-5.29474e-08,6.46176e-06,75.75,62.56,148.29,500000,500000,-5.97341e-08,2.15638e-07,-1.0613e-07,-0.0017519,0.0219259,0.000631845,0.0230142,3,857
12,4.21239e-22,2,2481,82.04,-3.68688e-06,5.24329e-06,-4.98331e-08,6.40997e-06,76.125,62.56,148.29,500000,500000,-8.38187e-08,2.26968e-07,-9.99031e-08,-0.00426541,0.0215969,0.000745668,0.0245222,3,858
12,4.19038e-22,2,2482,31.67,-3.7868e-06,5.16195e-06,-4.59961e-08,6.40217e-06,76.875,13.09,-96.26,500000,500000,-1.133e-07,2.40157e-07,-9.18575e-08,-0.00596544,0.0196194,0.000975902,0.023723,3,859
12,4.989e-22,2,2483,31.67,-3.91348e-06,5.11867e-06,-4.05283e-08,6.44343e-06,78.1875,13.09,-96.26,2.43744e+06,593750,-1.20466e-07,2.27266e-07,-8.0255e-08,-0.00755199,0.019077,-0.000140364,0.0245956,3,860
12,6.60824e-22,1,2484,133.1,-4.02773e-06,5.09952e-06,-3.11043e-08,6.49836e-06,80.0625,119.51,-49.37,6.31231e+06,781250,-1.05048e-07,2.04064e-07,-6.26665e-08,-0.00722406,0.0231133,0.000214063,0.028103,2,1622
12,7.68957e-22,1,2485,133.1,-4.12357e-06,5.08251e-06,-2.60527e-08,6.54496e-06,81.25,119.51,-49.37,8.89556e+06,906250,-9.13689e-08,1.97648e-07,-5.27559e-08,-0.00505518,0.0286724,0.00120971,0.031542,2,1623
12,8.23298e-22,1,2486,133.1,-4.21047e-06,5.03983e-06,-2.42484e-08,6.56723e-06,81.75,119.51,-49.37,1.01872e+07,968750,-8.5554e-08,1.96009e-07,-4.89731e-08,-0.0041156,0.0331569,0.00102236,0.0353037,2,1624
12,8.50469e-22,1,2487,133.1,-4.29468e-06,4.99987e-06,-2.65578e-08,6.59118e-06,82,119.51,-49.37,1.0833e+07,1e+06,-8.89943e-08,2.14414e-07,-5.3623e-08,-0.0035681,0.038305,0.000852548,0.0399818,2,1625
12,8.50469e-22,1,2488,133.1,-4.38846e-06,4.98392e-06,-3.23571e-08,6.64071e-06,82,119.51,-49.37,1.0833e+07,1e+06,-9.72386e-08,2.4506e-07,-6.36231e-08,-0.00286131,0.0437165,0.000881817,0.0449931,2,1626
12,8.50469e-22,1,2489,133.1,-4.48916e-06,5.00745e-06,-3.41028e-08,6.72519e-06,82,119.51,-49.37,1.0833e+07,1e+06,-9.85502e-08,2.54808e-07,-6.67154e-08,-0.00190526,0.044838,0.00145316,0.0454559,2,1627
12,8.12457e-22,1,2490,133.1,-4.58556e-06,5.0685e-06,-3.48659e-08,6.83508e-06,82.4375,119.51,-49.37,1.01872e+07,968750,-8.8504e-08,2.48267e-07,-7.06804e-08,-0.000549252,0.0433922,0.000766397,0.044557,2,1628
12,6.22396e-22,1,2491,133.1,-4.66617e-06,5.14712e-06,-4.73784e-08,6.94753e-06,84.625,119.51,-49.37,6.95812e+06,812500,-6.26803e-08,2.59613e-07,-9.69163e-08,0.00159227,0.0444901,-0.000146641,0.0465545,2,1629
12,3.56312e-22,2,2492,99.87,-4.71092e-06,5.17139e-06,-7.63457e-08,6.99585e-06,87.6875,165.01,-32.53,2.43744e+06,593750,-3.04671e-08,2.88905e-07,-1.51849e-07,0.00155559,0.0437804,0.000437504,0.0451984,3,861
12,2.42275e-22,2,2493,99.87,-4.7271e-06,5.13253e-06,-9.3594e-08,6.97833e-06,89,165.01,-32.53,500000,500000,-1.34045e-08,2.95398e-07,-1.85806e-07,0.00017018,0.039798,0.000238411,0.0407581,3,862
12,2.42275e-22,2,2494,99.87,-4.73773e-06,5.09413e-06,-9.1484e-08,6.95734e-06,89,165.01,-32.53,500000,500000,-9.85604e-09,2.83925e-07,-1.83435e-07,0.000346411,0.0378684,-0.000330032,0.0388823,3,863
12,2.42275e-22,2,2495,99.87,-4.74681e-06,5.07008e-06,-8.91648e-08,6.94592e-06,89,165.01,-32.53,500000,500000,-9.15114e-09,2.78412e-07,-1.78404e-07,0.000504158,0.0375306,-5.6665e-05,0.0384058,3,864
12,2.42275e-22,2,2496,99.87,-4.75603e-06,5.06054e-06,-8.78367e-08,6.94525e-06,89,165.01,-32.53,500000,500000,-9.134e-09,2.7515e-07,-1.75615e-07,0.000389965,0.0373728,2.47209e-05,0.0383786,3,865
12,2.42275e-22,2,2497,99.87,-4.76508e-06,5.06698e-06,-8.68071e-08,6.95613e-06,89,165.01,-32.53,500000,500000,-8.41894e-09,2.71551e-07,-1.73554e-07,0.000262496,0.0371714,9.53675e-06,0.0384008,3,866
12,2.42275e-22,2,2498,99.87,-4.77287e-06,5.09334e-06,-8.56253e-08,6.98067e-06,89,165.01,-32.53,500000,500000,-5.55072e-09,2.66111e-07,-1.71512e-07,0.000312931,0.0368641,4.51005e-05,0.0382732,3,867
12,2.42275e-22,2,2499,99.87,-4.77618e-06,5.14646e-06,-8.41199e-08,7.02176e-06,89,165.01,-32.53,500000,500000,-3.40688e-09,2.55801e-07,-1.68942e-07,-0.000209754,0.0354891,-0.000396128,0.037608,3,868
12,2.54695e-22,2,2500,99.87,-4.77968e-06,5.21872e-06,-7.80605e-08,7.07718e-06,90.9375,165.01,-32.53,500000,500000,-2.98113e-08,2.63713e-07,-1.55495e-07,-0.000296399,0.0334391,-0.000368286,0.0358558,3,869
12,2.72232e-22,2,2501,9.76005,-4.8358e-06,5.25719e-06,-7.14939e-08,7.1434e-06,95.125,161.5,100.91,500000,500000,-9.27719e-08,3.0061e-07,-1.42043e-07,-0.000650447,0.0284624,-0.000309322,0.0306616,3,870
12,2.70046e-22,2,2502,9.76005,-4.96523e-06,5.22194e-06,-6.80319e-08,7.20603e-06,97.6875,161.5,100.91,500000,500000,-1.43893e-07,3.31413e-07,-1.36433e-07,-0.00179094,0.0235124,-0.000366811,0.0252996,3,871
12,2.62742e-22,2,2503,9.76004,-5.12359e-06,5.14185e-06,-6.41548e-08,7.25906e-06,98,161.5,100.91,500000,500000,-1.61224e-07,3.37986e-07,-1.285e-07,-0.00226535,0.0223592,7.99306e-05,0.0236493,3,872
12,2.62742e-22,2,2504,9.76004,-5.28767e-06,5.05004e-06,-6.12799e-08,7.31205e-06,98,161.5,100.91,500000,500000,-1.63117e-07,3.31264e-07,-1.22526e-07,-0.00255719,0.0215748,5.20082e-05,0.0229676,3,873
12,2.62742e-22,2,2505,9.76004,-5.44983e-06,4.9539e-06,-6.12045e-08,7.36515e-06,98,161.5,100.91,500000,500000,-1.61196e-07,3.20349e-07,-1.22569e-07,-0.00341303,0.019777,-0.00107201,0.0219954,3,874
12,3.64999e-22,2,2506,9.76003,-5.61007e-06,4.85796e-06,-5.10057e-08,7.42127e-06,101.25,161.5,100.91,3.08325e+06,625000,-1.42968e-07,3.05968e-07,-1.02103e-07,-0.00303701,0.0300419,0.000946095,0.0323013,3,875
12,5.69512e-22,1,2507,123.67,-5.73576e-06,4.84501e-06,-4.38965e-08,7.50833e-06,107.75,-64.23,128.87,8.24975e+06,875000,-1.05681e-07,2.90812e-07,-8.78351e-08,-0.00220971,0.0481278,0.00119725,0.0502055,2,1630
12,6.71769e-22,1,2508,123.67,-5.82143e-06,4.90261e-06,-4.54396e-08,7.61096e-06,111,-64.23,128.87,1.0833e+07,1e+06,-8.14935e-08,2.73907e-07,-9.08321e-08,-0.00207974,0.0532836,-0.000850407,0.055415,2,1631
12,6.71769e-22,1,2509,123.67,-5.89875e-06,4.93719e-06,-4.13058e-08,7.69238e-06,111,-64.23,128.87,1.0833e+07,1e+06,-7.35399e-08,2.54274e-07,-8.25145e-08,-0.00139104,0.0501666,-8.83638e-05,0.0518204,2,1632
12,6.71769e-22,1,2510,123.67,-5.96851e-06,4.95501e-06,-3.83655e-08,7.75737e-06,111,-64.23,128.87,1.0833e+07,1e+06,-6.67044e-08,2.35811e-07,-7.67422e-08,-0.000975163,0.0468118,-5.15996e-05,0.0483998,2,1633
12,6.71769e-22,1,2511,123.67,-6.03216e-06,4.96719e-06,-3.57212e-08,7.81417e-06,111,-64.23,128.87,1.0833e+07,1e+06,-6.11349e-08,2.19864e-07,-7.14722e-08,-0.000619142,0.0438356,3.65538e-05,0.0451984,2,1634
12,6.71769e-22,1,2512,123.67,-6.09078e-06,4.98106e-06,-3.31782e-08,7.86827e-06,111,-64.23,128.87,1.0833e+07,1e+06,-5.65991e-08,2.05212e-07,-6.64416e-08,-0.000371402,0.0409592,0.000144256,0.0419709,2,1635
12,6.72521e-22,1,2513,123.67,-6.14535e-06,5.00456e-06,-3.08334e-08,7.9254e-06,111.375,-64.23,128.87,1.0833e+07,1e+06,-5.25016e-08,1.93075e-07,-6.18547e-08,-0.00025269,0.0394931,-0.000219918,0.0404938,2,1636
12,6.7553e-22,1,2514,123.67,-6.19578e-06,5.02972e-06,-2.60941e-08,7.98038e-06,112.875,-64.23,128.87,1.0833e+07,1e+06,-4.77851e-08,1.74952e-07,-5.12944e-08,-0.00065902,0.0390454,-0.000776776,0.0406092,2,1637
12,6.80043e-22,1,2515,121.75,-6.24092e-06,5.0314e-06,-1.68328e-08,8.01651e-06,115.125,-23.35,126.79,1.0833e+07,1e+06,-4.40249e-08,1.52076e-07,-3.39401e-08,-0.00130841,0.0385033,-0.000458187,0.0401335,2,1638
12,6.83052e-22,1,2516,121.75,-6.28383e-06,5.01396e-06,-1.14362e-08,8.03906e-06,116.625,-23.35,126.79,1.0833e+07,1e+06,-4.29496e-08,1.44263e-07,-2.3644e-08,-0.00138978,0.0395423,0.000347899,0.0404495,2,1639
12,6.83804e-22,1,2517,121.75,-6.32682e-06,5.00791e-06,-1.20786e-08,8.06895e-06,117,-23.35,126.79,1.0833e+07,1e+06,-4.22554e-08,1.44801e-07,-2.36866e-08,-0.00140203,0.0401332,0.000358694,0.040795,2,1640
12,6.83804e-22,1,2518,121.75,-6.36834e-06,5.0203e-06,-1.2605e-08,8.10921e-06,117,-23.35,126.79,1.0833e+07,1e+06,-4.08118e-08,1.41955e-07,-2.52529e-08,-0.00151257,0.0391448,-1.36623e-05,0.0399678,2,1641
12,6.83804e-22,1,2519,121.75,-6.40845e-06,5.041e-06,-1.25315e-08,8.15353e-06,117,-23.35,126.79,1.0833e+07,1e+06,-3.98391e-08,1.3947e-07,-2.50345e-08,-0.00146065,0.0384414,-3.59403e-06,0.0392178,2,1642
12,6.83804e-22,1,2520,121.75,-6.44802e-06,5.06481e-06,-1.21793e-08,8.19936e-06,117,-23.35,126.79,1.0833e+07,1e+06,-3.94629e-08,1.37264e-07,-2.442e-08,-0.00147356,0.037837,1.16205e-05,0.0386157,2,1643
12,6.83804e-22,1,2521,121.75,-6.48737e-06,5.08867e-06,-1.17391e-08,8.24504e-06,117,-23.35,126.79,1.0833e+07,1e+06,-3.90617e-08,1.34685e-07,-2.31632e-08,-0.00145128,0.0371837,0.00018578,0.037877,2,1644
12,6.83804e-22,1,2522,121.75,-6.52614e-06,5.1126e-06,-1.09447e-08,8.29032e-06,117,-23.35,126.79,1.0833e+07,1e+06,-3.82127e-08,1.30847e-07,-2.0805e-08,-0.00134589,0.0362595,0.000691944,0.0366707,2,1645
12,6.63107e-22,1,2523,121.75,-6.5638e-06,5.13697e-06,-1.22076e-08,8.33499e-06,117.375,-23.35,126.79,1.01872e+07,968750,-4.01155e-08,1.34642e-07,-2.48684e-08,-0.00168456,0.0352783,0.000420328,0.0362179,2,1646
12,5.90506e-22,1,2524,121.75,-6.60637e-06,5.18249e-06,-2.54027e-08,8.39661e-06,119.312,-23.35,126.79,7.60394e+06,843750,-5.3274e-08,1.79713e-07,-5.41502e-08,-0.00197966,0.0355622,-0.000251154,0.0375144,2,1647
12,5.07394e-22,2,2525,155.53,-6.67035e-06,5.31725e-06,-6.12238e-08,8.53056e-06,122.062,-173.56,119.95,4.37488e+06,687500,-7.19151e-08,2.81349e-07,-1.20001e-07,-0.00108287,0.0399778,-0.000391656,0.0419978,3,876
12,5.57573e-22,1,2526,73.27,-3.3538e-08,4.45617e-06,-2.91031e-08,4.45639e-06,9.5,-129.16,-171.71,8.24975e+06,875000,-5.70065e-08,1.84661e-07,-5.99585e-08,0.00128225,0.0280484,0.00267808,0.0261145,2,1648
12,3.82204e-22,2,2527,79.76,-8.04749e-08,4.54599e-06,-5.35962e-08,4.54702e-06,12.5,-174.76,-145.86,3.08325e+06,625000,-3.51309e-08,2.00778e-07,-1.07056e-07,-0.000474115,0.0257056,0.000161466,0.0261739,3,877
12,3.11674e-22,2,2528,79.76,-1.038e-07,4.6877e-06,-6.66741e-08,4.68932e-06,14.8125,-174.76,-145.86,1.14581e+06,531250,-2.59349e-08,2.14119e-07,-1.30352e-07,-0.00149946,0.0259668,-9.86538e-05,0.0270687,3,878
12,3.80296e-22,2,2529,79.76,-1.32345e-07,4.81708e-06,-5.33084e-08,4.8192e-06,18.0625,-174.76,-145.86,3.72906e+06,656250,-3.87033e-08,2.08004e-07,-1.05977e-07,-0.000583364,0.0283562,-0.000112566,0.0292866,3,879
12,4.71766e-22,1,2530,71.87,-1.81207e-07,4.91737e-06,-3.49647e-08,4.92083e-06,22.0625,-131.18,-164.33,6.95812e+06,812500,-5.2978e-08,1.8847e-07,-7.1978e-08,-0.000198529,0.0294892,-6.28067e-06,0.0301695,2,1649
12,5.17462e-22,1,2531,71.87,-2.38301e-07,4.98588e-06,-2.70844e-08,4.99164e-06,23.5625,-131.18,-164.33,8.24975e+06,875000,-5.32705e-08,1.74365e-07,-5.52045e-08,0.000816324,0.0301496,0.000391822,0.0300016,2,1650
12,5.23154e-22,1,2532,71.87,-2.87748e-07,5.03653e-06,-2.76065e-08,5.04482e-06,23.5,-131.18,-164.33,8.24975e+06,875000,-4.57676e-08,1.72949e-07,-5.46326e-08,0.00273802,0.0314477,0.000380442,0.0305786,2,1651
12,5.34617e-22,1,2533,71.87,-3.29836e-07,5.07886e-06,-2.92236e-08,5.08965e-06,24.375,-131.18,-164.33,8.89556e+06,906250,-4.25256e-08,1.81323e-07,-5.81217e-08,0.00462961,0.0337513,0.000394631,0.0323148,2,1652
12,5.57544e-22,1,2534,71.87,-3.72799e-07,5.12924e-06,-3.04878e-08,5.14286e-06,26.125,-131.18,-164.33,1.01872e+07,968750,-4.55316e-08,1.914e-07,-6.08297e-08,0.00577331,0.0356142,0.000309284,0.0337193,2,1653
12,5.69008e-22,1,2535,71.87,-4.20899e-07,5.19646e-06,-3.21193e-08,5.21358e-06,27,-131.18,-164.33,1.0833e+07,1e+06,-4.86764e-08,1.97612e-07,-6.38625e-08,0.00601932,0.0362053,-5.41137e-05,0.0341268,2,1654
12,5.69008e-22,1,2536,71.87,-4.70152e-07,5.2766e-06,-3.17158e-08,5.2976e-06,27,-131.18,-164.33,1.0833e+07,1e+06,-4.85236e-08,2.01599e-07,-6.40301e-08,0.0066954,0.0367851,0.000658746,0.0337351,2,1655
12,4.64632e-22,1,2537,71.87,-5.17946e-07,5.36933e-06,-3.96692e-08,5.3944e-06,28.0625,-131.18,-164.33,8.24975e+06,875000,-4.41593e-08,2.0989e-07,-7.89693e-08,0.00683837,0.0349452,-0.00047986,0.0332635,2,1656
12,2.98955e-22,2,2538,95.09,-5.5847e-07,5.46833e-06,-4.53246e-08,5.49696e-06,30.8125,-9.02,-160.64,3.08325e+06,625000,-4.31751e-08,2.15075e-07,-8.88239e-08,0.00620295,0.0304476,-0.000457568,0.0295835,3,880
12,2.8073e-22,2,2539,117.14,-6.04297e-07,5.54345e-06,-3.41221e-08,5.5764e-06,33.125,133.75,99.63,500000,500000,-5.43227e-08,2.09037e-07,-6.88686e-08,0.00596602,0.0285128,0.00140471,0.0261859,3,881
12,3.23805e-22,2,2540,117.14,-6.67116e-07,5.59565e-06,-2.49605e-08,5.63534e-06,33.75,133.75,99.63,500000,500000,-6.8321e-08,2.03475e-07,-5.15153e-08,0.00504936,0.028476,0.00143557,0.0265104,3,882
12,3.45343e-22,2,2541,117.14,-7.40938e-07,5.64698e-06,-2.08406e-08,5.69542e-06,34.0625,133.75,99.63,500000,500000,-8.01939e-08,1.98467e-07,-4.22599e-08,0.00347067,0.0276021,0.000700771,0.0267682,3,883
12,3.88418e-22,2,2542,117.14,-8.27503e-07,5.68657e-06,-1.46879e-08,5.74648e-06,34.6875,133.75,99.63,500000,500000,-9.09367e-08,1.96186e-07,-2.92972e-08,0.00336653,0.0278074,0.000573895,0.0265299,3,884
12,4.09956e-22,2,2543,117.14,-9.22812e-07,5.72277e-06,-1.1641e-08,5.79671e-06,35,133.75,99.63,500000,500000,-9.5622e-08,1.96035e-07,-2.30888e-08,0.00364307,0.0279209,0.000757824,0.0259379,3,885
12,4.09956e-22,2,2544,117.14,-1.01875e-06,5.76188e-06,-1.17627e-08,5.85126e-06,35,133.75,99.63,500000,500000,-9.6547e-08,1.93576e-07,-2.38853e-08,0.00316398,0.0271571,0.000253208,0.0256648,3,886
12,4.09956e-22,2,2545,117.14,-1.11591e-06,5.79113e-06,-1.24337e-08,5.89768e-06,35,133.75,99.63,500000,500000,-9.91338e-08,1.96123e-07,-2.43147e-08,0.00296364,0.0273039,0.00011062,0.025965,3,887
12,4.09956e-22,2,2546,117.14,-1.21701e-06,5.80939e-06,-1.25255e-08,5.93552e-06,35,133.75,99.63,500000,500000,-1.02164e-07,1.99179e-07,-2.44244e-08,0.00272583,0.0275854,3.1943e-05,0.0263827,3,888
12,4.09956e-22,2,2547,117.14,-1.32023e-06,5.81939e-06,-1.20391e-08,5.96728e-06,35,133.75,99.63,500000,500000,-1.03009e-07,1.99108e-07,-2.43019e-08,0.00254864,0.0274918,-2.91105e-05,0.0264048,3,889
12,4.09956e-22,2,2548,117.14,-1.42303e-06,5.81928e-06,-1.21027e-08,5.99076e-06,35,133.75,99.63,500000,500000,-1.02371e-07,1.99003e-07,-2.42923e-08,0.0026428,0.0275537,4.15166e-05,0.0264027,3,890
12,4.09956e-22,2,2549,117.14,-1.52497e-06,5.80681e-06,-1.23067e-08,6.00373e-06,35,133.75,99.63,500000,500000,-1.01508e-07,1.9859e-07,-2.4557e-08,0.00271309,0.0275476,5.45993e-05,0.0263983,3,891
12,4.09956e-22,2,2550,117.14,-1.62605e-06,5.78077e-06,-1.27559e-08,6.00512e-06,35,133.75,99.63,500000,500000,-1.01718e-07,2.00335e-07,-2.56034e-08,0.00274442,0.0278164,-4.09433e-05,0.026741,3,892
12,4.09956e-22,2,2551,117.14,-1.72841e-06,5.74525e-06,-1.39858e-08,5.99962e-06,35,133.75,99.63,500000,500000,-1.01796e-07,2.06995e-07,-2.78433e-08,0.00326383,0.0291169,-4.58248e-05,0.0278417,3,893
12,5.14261e-22,2,2552,117.14,-1.82964e-06,5.71929e-06,-1.87834e-08,6.00485e-06,40,133.75,99.63,3.08325e+06,625000,-8.88833e-08,2.07821e-07,-3.7523e-08,0.00304593,0.0328443,0.000157006,0.0318804,3,894
12,7.2287e-22,1,2553,130.6,-1.90618e-06,5.73109e-06,-2.7387e-08,6.03984e-06,50,117.2,-48.36,8.24975e+06,875000,-6.494e-08,2.00697e-07,-5.48848e-08,0.00241022,0.0368204,-0.00029889,0.0363365,2,1657
12,8.27175e-22,1,2554,130.6,-1.95952e-06,5.76814e-06,-3.14147e-08,6.09198e-06,55,117.2,-48.36,1.0833e+07,1e+06,-5.28984e-08,1.97587e-07,-6.27678e-08,0.00270985,0.03838,-0.000482084,0.0374957,2,1658
12,8.27175e-22,1,2555,130.6,-2.01197e-06,5.8019e-06,-3.06134e-08,6.14093e-06,55,117.2,-48.36,1.0833e+07,1e+06,-5.26898e-08,1.97676e-07,-6.12427e-08,0.00284819,0.0386916,-2.84632e-05,0.0374941,2,1659
12,8.27175e-22,1,2556,130.6,-2.0649e-06,5.83074e-06,-3.05212e-08,6.18565e-06,55,117.2,-48.36,1.0833e+07,1e+06,-5.30422e-08,1.9783e-07,-6.10611e-08,0.00275563,0.0387433,4.09753e-06,0.03758,2,1660
12,8.27175e-22,1,2557,130.6,-2.11806e-06,5.85534e-06,-3.05928e-08,6.22672e-06,55,117.2,-48.36,1.0833e+07,1e+06,-5.33838e-08,1.9839e-07,-6.11884e-08,0.00270298,0.0388566,-1.13615e-05,0.0377377,2,1661
12,8.27175e-22,1,2558,130.6,-2.17167e-06,5.87559e-06,-3.07888e-08,6.26415e-06,55,117.2,-48.36,1.0833e+07,1e+06,-5.42228e-08,2.00001e-07,-6.15774e-08,0.0025985,0.0391761,-3.64546e-05,0.0381404,2,1662
12,8.27175e-22,1,2559,130.6,-2.2265e-06,5.89166e-06,-3.11594e-08,6.29841e-06,55,117.2,-48.36,1.0833e+07,1e+06,-5.59486e-08,2.03188e-07,-6.22835e-08,0.00237976,0.0397889,-5.62799e-05,0.0388976,2,1663
12,8.27175e-22,1,2560,130.6,-2.28357e-06,5.90389e-06,-3.15069e-08,6.33021e-06,55,117.2,-48.36,1.0833e+07,1e+06,-5.82177e-08,2.07518e-07,-6.30925e-08,0.00210578,0.0406573,-3.00779e-05,0.039924,2,1664
12,8.27175e-22,1,2561,130.6,-2.34294e-06,5.91231e-06,-3.27398e-08,6.35971e-06,55,117.2,-48.36,1.0833e+07,1e+06,-6.03302e-08,2.11533e-07,-6.56015e-08,0.00168313,0.0413021,-0.000553008,0.0411431,2,1665
12,7.78084e-22,1,2562,130.6,-2.40423e-06,5.91568e-06,-3.22819e-08,6.38566e-06,56.875,117.2,-48.36,1.0833e+07,1e+06,-6.41733e-08,2.16278e-07,-6.4639e-08,0.00117579,0.0417681,0.000412704,0.0423353,2,1666
12,6.63537e-22,1,2563,80.41,-2.47129e-06,5.90288e-06,-3.53051e-08,6.39941e-06,61.25,-123.18,-170.23,1.0833e+07,1e+06,-6.8913e-08,2.19326e-07,-7.03896e-08,0.000965915,0.038413,0.000288761,0.0398976,2,1667
12,5.81718e-22,1,2564,80.41,-2.54205e-06,5.86461e-06,-3.81621e-08,6.39196e-06,64.375,-123.18,-170.23,1.0833e+07,1e+06,-7.03763e-08,2.10928e-07,-7.58909e-08,0.000787494,0.0323795,-0.00111455,0.0343472,2,1668
12,5.65354e-22,1,2565,80.41,-2.61204e-06,5.82175e-06,-3.59888e-08,6.38097e-06,65,-123.18,-170.23,1.0833e+07,1e+06,-7.16275e-08,2.06055e-07,-7.2195e-08,0.000674133,0.0306169,-0.000442377,0.0318441,2,1669
12,5.65354e-22,1,2566,80.41,-2.68531e-06,5.79464e-06,-3.60917e-08,6.38671e-06,65,-123.18,-170.23,1.0833e+07,1e+06,-7.47751e-08,2.12367e-07,-7.24815e-08,0.000652566,0.03158,4.25184e-05,0.0322336,2,1670
12,5.65354e-22,1,2567,80.41,-2.76159e-06,5.77789e-06,-3.67731e-08,6.40404e-06,65,-123.18,-170.23,1.0833e+07,1e+06,-7.55107e-08,2.15036e-07,-7.34649e-08,0.000723138,0.0319732,4.98706e-05,0.0325375,2,1671
12,5.65354e-22,1,2568,80.41,-2.83633e-06,5.76442e-06,-3.68784e-08,6.42454e-06,65,-123.18,-170.23,1.0833e+07,1e+06,-7.29687e-08,2.13323e-07,-7.37364e-08,0.00117483,0.0318656,-1.82832e-05,0.0322411,2,1672
12,5.65354e-22,1,2569,80.41,-2.90753e-06,5.75277e-06,-3.67103e-08,6.44589e-06,65,-123.18,-170.23,1.0833e+07,1e+06,-6.94451e-08,2.0973e-07,-7.34123e-08,0.0017178,0.0314739,-4.33815e-05,0.0315195,2,1673
12,5.65354e-22,1,2570,80.41,-2.97522e-06,5.74385e-06,-3.64746e-08,6.46878e-06,65,-123.18,-170.23,1.0833e+07,1e+06,-6.6447e-08,2.06118e-07,-7.29421e-08,0.00213886,0.0309838,-4.51427e-05,0.0306721,2,1674
12,5.65354e-22,1,2571,80.41,-3.04042e-06,5.73929e-06,-3.63438e-08,6.49499e-06,65,-123.18,-170.23,1.0833e+07,1e+06,-6.46586e-08,2.03755e-07,-7.26833e-08,0.00237937,0.0305764,-3.51217e-05,0.0299604,2,1675
12,5.65354e-22,1,2572,80.41,-3.10454e-06,5.74081e-06,-3.64443e-08,6.52659e-06,65,-123.18,-170.23,1.0833e+07,1e+06,-6.4306e-08,2.03423e-07,-7.28935e-08,0.00245055,0.0303971,-2.05885e-05,0.0295749,2,1676
12,5.65354e-22,1,2573,80.41,-3.16903e-06,5.74972e-06,-3.68383e-08,6.56532e-06,65,-123.18,-170.23,1.0833e+07,1e+06,-6.52836e-08,2.05362e-07,-7.36775e-08,0.00239609,0.0305239,-5.10758e-06,0.0296001,2,1677
12,5.65354e-22,1,2574,80.41,-3.2351e-06,5.76626e-06,-3.74457e-08,6.61189e-06,65,-123.18,-170.23,1.0833e+07,1e+06,-6.72549e-08,2.09113e-07,-7.49044e-08,0.00225456,0.0309301,4.33496e-06,0.03,2,1678
12,5.65354e-22,1,2575,80.41,-3.30354e-06,5.78917e-06,-3.81691e-08,6.66553e-06,65,-123.18,-170.23,1.0833e+07,1e+06,-6.99268e-08,2.14005e-07,-7.59475e-08,0.00203072,0.031614,0.000127505,0.0307229,2,1679
12,5.65354e-22,1,2576,80.41,-3.37496e-06,5.81522e-06,-3.78546e-08,6.72373e-06,65,-123.18,-170.23,1.0833e+07,1e+06,-7.15941e-08,2.19677e-07,-7.65655e-08,0.00215078,0.0327442,0.0005559,0.031679,2,1680
12,5.38952e-22,1,2577,80.41,-3.44673e-06,5.84615e-06,-4.18946e-08,6.78669e-06,66.875,-123.18,-170.23,8.89556e+06,906250,-6.50232e-08,2.20183e-07,-8.34577e-08,0.0018754,0.0323078,0.000221017,0.0321875,2,1681
12,4.77346e-22,2,2578,82.04,-3.505e-06,5.8303e-06,-4.52991e-08,6.80291e-06,71.25,62.56,148.29,4.37488e+06,687500,-5.36959e-08,1.96713e-07,-8.98868e-08,-0.0010527,0.0258001,-0.000864629,0.0279211,3,895
12,4.33342e-22,2,2579,82.04,-3.55412e-06,5.74354e-06,-4.78209e-08,6.75443e-06,74.375,62.56,148.29,1.14581e+06,531250,-5.10704e-08,1.893e-07,-9.64812e-08,-0.00359932,0.0217576,-0.000588008,0.024418,3,896
12,4.24542e-22,2,2580,82.04,-3.60714e-06,5.64364e-06,-5.1062e-08,6.69812e-06,75,62.56,148.29,500000,500000,-5.35905e-08,1.98531e-07,-1.02074e-07,-0.00418176,0.0221947,-9.48788e-05,0.024653,3,897
12,4.24542e-22,2,2581,82.04,-3.6613e-06,5.54902e-06,-5.07316e-08,6.64826e-06,75,62.56,148.29,500000,500000,-5.58944e-08,1.95246e-07,-1.01303e-07,-0.00491619,0.0213214,-0.000500928,0.0243758,3,898
12,4.23991e-22,2,2582,82.04,-3.71893e-06,5.45175e-06,-4.87169e-08,6.59958e-06,75.1875,62.56,148.29,500000,500000,-6.44181e-08,2.02137e-07,-9.64463e-08,-0.00528676,0.0222397,0.000299118,0.0254868,3,899
12,4.22891e-22,2,2583,82.04,-3.79014e-06,5.37845e-06,-4.09232e-08,6.57986e-06,75.5625,62.56,148.29,500000,500000,-7.83493e-08,1.97128e-07,-8.17288e-08,-0.00629281,0.0206231,0.0011568,0.0245455,3,900
12,5.29372e-22,2,2584,82.04,-3.87563e-06,5.31005e-06,-2.89394e-08,6.57404e-06,77.3125,62.56,148.29,3.08325e+06,625000,-8.60258e-08,1.70931e-07,-5.88095e-08,-0.00827392,0.0192288,0.000472637,0.0250073,3,901
12,7.43437e-22,1,2585,133.1,-3.96219e-06,5.26288e-06,-1.87346e-08,6.58765e-06,80.4375,119.51,-49.37,8.24975e+06,875000,-8.51573e-08,1.56826e-07,-3.81851e-08,-0.00826781,0.0235643,0.000899664,0.0289503,2,1682
12,8.50469e-22,1,2586,133.1,-4.04595e-06,5.25045e-06,-1.78108e-08,6.62851e-06,82,119.51,-49.37,1.0833e+07,1e+06,-8.51235e-08,1.67661e-07,-3.61145e-08,-0.00687985,0.0286781,0.00121336,0.0325096,2,1683
12,8.50469e-22,1,2587,133.1,-4.13244e-06,5.22893e-06,-2.29735e-08,6.66478e-06,82,119.51,-49.37,1.0833e+07,1e+06,-8.93587e-08,1.89326e-07,-4.52351e-08,-0.00621217,0.0329435,0.000399078,0.0365493,2,1684
12,8.50469e-22,1,2588,133.1,-4.22466e-06,5.21434e-06,-2.71598e-08,6.71102e-06,82,119.51,-49.37,1.0833e+07,1e+06,-9.51403e-08,2.13532e-07,-5.3702e-08,-0.00552827,0.0374402,0.000154565,0.0406128,2,1685
12,8.50469e-22,1,2589,133.1,-4.32272e-06,5.22229e-06,-3.04113e-08,6.77932e-06,82,119.51,-49.37,1.0833e+07,1e+06,-1.00007e-07,2.34019e-07,-6.11702e-08,-0.00487087,0.0408848,9.37422e-05,0.0436039,2,1686
12,8.50469e-22,1,2590,133.1,-4.42468e-06,5.25703e-06,-3.26798e-08,6.87133e-06,82,119.51,-49.37,1.0833e+07,1e+06,-1.01382e-07,2.44301e-07,-6.51701e-08,-0.00410855,0.0423579,0.000290831,0.0446057,2,1687
12,8.50469e-22,1,2591,133.1,-4.52548e-06,5.31522e-06,-3.32699e-08,6.98088e-06,82,119.51,-49.37,1.0833e+07,1e+06,-9.86206e-08,2.44981e-07,-6.53783e-08,-0.00297553,0.0422539,0.000864254,0.0437666,2,1688
12,7.36433e-22,1,2592,133.1,-4.62192e-06,5.39688e-06,-3.55914e-08,7.10561e-06,83.3125,119.51,-49.37,8.89556e+06,906250,-8.59009e-08,2.45642e-07,-7.33887e-08,-0.0016366,0.0423565,0.000312194,0.0447058,2,1689
12,4.70348e-22,2,2593,99.87,-4.69728e-06,5.45364e-06,-5.95822e-08,7.19793e-06,86.375,165.01,-32.53,4.37488e+06,687500,-5.84101e-08,2.74123e-07,-1.19373e-07,-0.000791489,0.0435873,-0.000477637,0.0468315,3,902
12,2.80287e-22,2,2594,99.87,-4.73874e-06,5.42996e-06,-8.50472e-08,7.20745e-06,88.5625,165.01,-32.53,1.14581e+06,531250,-3.10888e-08,2.93704e-07,-1.68146e-07,-0.000906855,0.0410855,-0.000368251,0.0433892,3,903
12,2.42275e-22,2,2595,99.87,-4.75946e-06,5.37754e-06,-8.8393e-08,7.1818e-06,89,165.01,-32.53,500000,500000,-1.78386e-08,2.82839e-07,-1.77538e-07,-0.000718082,0.0376012,-0.00032336,0.039157,3,904
12,2.42275e-22,2,2596,99.87,-4.77441e-06,5.34755e-06,-8.6649e-08,7.1693e-06,89,165.01,-32.53,500000,500000,-1.50878e-08,2.76826e-07,-1.73282e-07,-0.000278556,0.0373477,-9.43471e-05,0.0386891,3,905
12,2.42275e-22,2,2597,99.87,-4.78964e-06,5.33445e-06,-8.49955e-08,7.16967e-06,89,165.01,-32.53,500000,500000,-1.52294e-08,2.7322e-07,-1.69999e-07,-0.000386967,0.037137,3.05987e-05,0.0385761,3,906
12,2.42275e-22,2,2598,99.87,-4.80487e-06,5.33729e-06,-8.39231e-08,7.18196e-06,89,165.01,-32.53,500000,500000,-1.42963e-08,2.697e-07,-1.67928e-07,-0.000417297,0.0369141,6.77898e-05,0.0384647,3,907
12,2.42275e-22,2,2599,99.87,-4.81823e-06,5.35792e-06,-8.32495e-08,7.20622e-06,89,165.01,-32.53,500000,500000,-1.0954e-08,2.64224e-07,-1.66555e-07,-0.000257425,0.0364678,3.66687e-05,0.0380983,3,908
12,2.42275e-22,2,2600,99.87,-4.82678e-06,5.40084e-06,-8.2645e-08,7.24387e-06,89,165.01,-32.53,500000,500000,-8.89014e-09,2.55368e-07,-1.64827e-07,-0.000775365,0.0353126,-0.000407311,0.037678,3,909
12,2.69302e-22,2,2601,99.87,-4.83601e-06,5.47555e-06,-7.14132e-08,7.30573e-06,90.3125,165.01,-32.53,500000,500000,-2.32485e-08,2.50204e-07,-1.43274e-07,-6.46354e-05,0.0345692,0.000474385,0.0364901,3,910
12,3.08748e-22,2,2602,82.05,-4.87328e-06,5.54361e-06,-6.27944e-08,7.38135e-06,93.5625,-126.68,-31.71,500000,500000,-6.3898e-08,2.65351e-07,-1.26103e-07,5.94154e-06,0.0311736,0.000317003,0.0330803,3,911
12,2.99259e-22,2,2603,9.76004,-4.96381e-06,5.54605e-06,-6.55476e-08,7.44327e-06,96.4375,161.5,100.91,500000,500000,-1.1594e-07,3.01917e-07,-1.30374e-07,-0.00180922,0.0257806,-0.000728971,0.0283659,3,912
12,2.70046e-22,2,2604,9.76004,-5.10516e-06,5.48248e-06,-6.46755e-08,7.49162e-06,97.6875,161.5,100.91,500000,500000,-1.53703e-07,3.31762e-07,-1.29305e-07,-0.00250835,0.0230734,-0.000185808,0.0249093,3,913
12,2.62742e-22,2,2605,9.76004,-5.27121e-06,5.38673e-06,-6.30235e-08,7.53701e-06,98,161.5,100.91,500000,500000,-1.67357e-07,3.39556e-07,-1.25947e-07,-0.00275215,0.022112,-2.67564e-05,0.0236626,3,914
12,2.62742e-22,2,2606,9.76004,-5.43987e-06,5.28144e-06,-6.42046e-08,7.58221e-06,98,161.5,100.91,500000,500000,-1.69935e-07,3.36248e-07,-1.28497e-07,-0.00373963,0.0207406,-0.0011938,0.0231847,3,915
12,3.64999e-22,2,2607,9.76003,-5.61108e-06,5.17126e-06,-5.35692e-08,7.6308e-06,101.25,161.5,100.91,3.08325e+06,625000,-1.52498e-07,3.24414e-07,-1.0757e-07,-0.00329145,0.0318955,0.000985724,0.0343613,3,916
12,5.69512e-22,1,2608,123.67,-5.74487e-06,5.14117e-06,-4.56164e-08,7.70955e-06,107.75,-64.23,128.87,8.24975e+06,875000,-1.10143e-07,3.02485e-07,-9.11468e-08,-0.00225636,0.0501128,0.00116041,0.0524531,2,1690
12,6.73534e-22,1,2609,123.67,-5.83137e-06,5.1791e-06,-4.6086e-08,7.79936e-06,110.875,-64.23,128.87,1.0833e+07,1e+06,-8.09106e-08,2.76299e-07,-9.20521e-08,-0.00191269,0.0541953,-0.00105927,0.0565251,2,1691
12,6.77063e-22,1,2610,123.67,-5.90669e-06,5.19201e-06,-4.06923e-08,7.86432e-06,110.625,-64.23,128.87,1.0833e+07,1e+06,-7.21464e-08,2.52058e-07,-8.12836e-08,-0.00128182,0.0504058,-0.000234365,0.0521575,2,1692
12,6.78828e-22,1,2611,123.67,-5.97566e-06,5.19042e-06,-3.73664e-08,7.9152e-06,110.5,-64.23,128.87,1.0833e+07,1e+06,-6.712e-08,2.32654e-07,-7.47194e-08,-0.00143907,0.0467356,-0.000279925,0.0486895,2,1693
12,6.78828e-22,1,2612,123.67,-6.04093e-06,5.18614e-06,-3.43781e-08,7.96179e-06,110.5,-64.23,128.87,1.0833e+07,1e+06,-6.35754e-08,2.16356e-07,-6.87473e-08,-0.00168728,0.0435021,-0.000159556,0.0455354,2,1694
12,6.78828e-22,1,2613,123.67,-6.10281e-06,5.18407e-06,-3.10636e-08,8.00749e-06,110.5,-64.23,128.87,1.0833e+07,1e+06,-5.93401e-08,1.99801e-07,-6.21559e-08,-0.00166001,0.0403429,0.000132783,0.0421308,2,1695
12,6.7932e-22,1,2614,123.67,-6.15961e-06,5.19175e-06,-2.74261e-08,8.05579e-06,111.75,-64.23,128.87,1.0833e+07,1e+06,-5.27105e-08,1.7944e-07,-5.40391e-08,-0.00177069,0.0386665,-0.000863347,0.0410017,2,1696
12,6.81056e-22,1,2615,121.75,-6.20823e-06,5.19283e-06,-1.76024e-08,8.0937e-06,114.625,-23.35,126.79,1.0833e+07,1e+06,-4.61405e-08,1.54338e-07,-3.58035e-08,-0.0018313,0.0383708,-0.000654241,0.0404656,2,1697
12,6.83052e-22,1,2616,121.75,-6.25189e-06,5.17347e-06,-9.3413e-09,8.11486e-06,116.625,-23.35,126.79,1.0833e+07,1e+06,-4.35513e-08,1.39303e-07,-1.97946e-08,-0.00158568,0.0382914,0.000945961,0.0390667,2,1698
12,6.83804e-22,1,2617,121.75,-6.29534e-06,5.15499e-06,-1.04297e-08,8.13666e-06,117,-23.35,126.79,1.0833e+07,1e+06,-4.34253e-08,1.40122e-07,-2.02332e-08,-0.00166317,0.03892,0.000645598,0.0396639,2,1699
12,6.83804e-22,1,2618,121.75,-6.33874e-06,5.15173e-06,-1.18964e-08,8.16824e-06,117,-23.35,126.79,1.0833e+07,1e+06,-4.32985e-08,1.42563e-07,-2.35307e-08,-0.00188361,0.0393228,0.000101583,0.0403486,2,1700
12,6.83804e-22,1,2619,121.75,-6.38193e-06,5.16204e-06,-1.21097e-08,8.20828e-06,117,-23.35,126.79,1.0833e+07,1e+06,-4.29062e-08,1.41431e-07,-2.42159e-08,-0.00202942,0.0388756,-1.12257e-05,0.0399737,2,1701
12,6.83804e-22,1,2620,121.75,-6.42455e-06,5.18073e-06,-1.20173e-08,8.25318e-06,117,-23.35,126.79,1.0833e+07,1e+06,-4.25186e-08,1.39798e-07,-2.41287e-08,-0.00208617,0.0383766,-2.97281e-05,0.0394959,2,1702
12,6.83804e-22,1,2621,121.75,-6.46697e-06,5.20261e-06,-1.176e-08,8.29994e-06,117,-23.35,126.79,1.0833e+07,1e+06,-4.21483e-08,1.38689e-07,-2.31965e-08,-0.00198671,0.0381471,0.000196237,0.0391089,2,1703
12,6.83804e-22,1,2622,121.75,-6.50885e-06,5.22424e-06,-1.09382e-08,8.34613e-06,117,-23.35,126.79,1.0833e+07,1e+06,-4.09473e-08,1.35308e-07,-2.07718e-08,-0.00171402,0.0374172,0.000774717,0.0379807,2,1704
12,6.63107e-22,1,2623,121.75,-6.54887e-06,5.24284e-06,-1.18745e-08,8.38899e-06,117.375,-23.35,126.79,1.01872e+07,968750,-4.13447e-08,1.37307e-07,-2.44045e-08,-0.00167106,0.0360483,0.000577532,0.0369211,2,1705
12,5.8032e-22,1,2624,121.75,-6.59154e-06,5.27825e-06,-2.54406e-08,8.44446e-06,118.875,-23.35,126.79,7.60394e+06,843750,-5.07259e-08,1.79115e-07,-5.42728e-08,-0.00133973,0.0358609,-0.000320349,0.0375118,2,1706
12,4.56139e-22,2,2625,155.53,-6.65032e-06,5.39981e-06,-5.71525e-08,8.56668e-06,121.125,-173.56,119.95,3.72906e+06,656250,-6.98664e-08,2.67891e-07,-1.14027e-07,-7.33587e-05,0.0364,1.7118e-05,0.037405,3,917
12,3.73351e-22,2,2626,155.53,-6.73127e-06,5.64892e-06,-8.89697e-08,8.78796e-06,122.625,-173.56,119.95,1.14581e+06,531250,-8.594e-08,3.45769e-07,-1.75539e-07,0.000390438,0.0354975,-0.000443248,0.0361055,3,918
12,5.02081e-22,1,2627,73.27,-3.09177e-08,4.63812e-06,-3.81531e-08,4.63838e-06,8.625,-129.16,-171.71,6.31231e+06,781250,-5.40605e-08,1.92653e-07,-7.66898e-08,0.00192527,0.0271621,-0.000875552,0.0284405,2,1707
12,3.85141e-22,2,2628,79.76,-7.72034e-08,4.74606e-06,-5.05719e-08,4.74695e-06,12.1875,-174.76,-145.86,3.08325e+06,625000,-3.80992e-08,2.02924e-07,-9.95836e-08,0.00172027,0.0270487,-0.000553308,0.0283498,3,919
12,3.82864e-22,2,2629,79.76,-1.07116e-07,4.89554e-06,-4.80839e-08,4.89695e-06,17.5625,-174.76,-145.86,3.72906e+06,656250,-3.56116e-08,1.9616e-07,-9.65177e-08,0.000839614,0.027193,8.44725e-05,0.0277899,3,920
12,4.8323e-22,1,2630,71.87,-1.48427e-07,5.01177e-06,-3.45958e-08,5.01409e-06,22.9375,-131.18,-164.33,7.60394e+06,843750,-4.81929e-08,1.85018e-07,-7.06693e-08,0.00141248,0.0290851,0.000383536,0.0285919,2,1708
12,5.51852e-22,1,2631,71.87,-2.03502e-07,5.09509e-06,-2.70992e-08,5.09922e-06,26.1875,-131.18,-164.33,1.01872e+07,968750,-5.48002e-08,1.7618e-07,-5.44343e-08,0.00205135,0.0301468,0.000576061,0.0291105,2,1709
12,5.69008e-22,1,2632,71.87,-2.58027e-07,5.15949e-06,-2.69977e-08,5.16601e-06,27,-131.18,-164.33,1.0833e+07,1e+06,-5.31203e-08,1.75741e-07,-5.31927e-08,0.00294185,0.031049,0.000424459,0.0297624,2,1710
12,5.69008e-22,1,2633,71.87,-3.09742e-07,5.21307e-06,-2.79448e-08,5.22234e-06,27,-131.18,-164.33,1.0833e+07,1e+06,-5.18982e-08,1.80141e-07,-5.58278e-08,0.00355536,0.0323169,2.33647e-05,0.0312475,2,1711
12,5.69008e-22,1,2634,71.87,-3.61823e-07,5.26391e-06,-2.92326e-08,5.27641e-06,27,-131.18,-164.33,1.0833e+07,1e+06,-5.28061e-08,1.87979e-07,-5.84928e-08,0.00400407,0.0340717,-6.57564e-05,0.0330556,2,1712
12,5.69008e-22,1,2635,71.87,-4.15355e-07,5.32214e-06,-3.02851e-08,5.33841e-06,27,-131.18,-164.33,1.0833e+07,1e+06,-5.33574e-08,1.93828e-07,-6.03993e-08,0.00441838,0.0352679,4.99164e-06,0.0340466,2,1713
12,5.69008e-22,1,2636,71.87,-4.68538e-07,5.39171e-06,-3.06069e-08,5.41212e-06,27,-131.18,-164.33,1.0833e+07,1e+06,-5.2035e-08,1.94876e-07,-6.14888e-08,0.00487353,0.0354466,6.1333e-06,0.0338886,2,1714
12,5.69008e-22,1,2637,71.87,-5.19425e-07,5.47332e-06,-3.07822e-08,5.49799e-06,27,-131.18,-164.33,1.0833e+07,1e+06,-4.87315e-08,1.94574e-07,-6.10438e-08,0.00587286,0.0355723,0.000589426,0.0330596,2,1715
12,5.07707e-22,1,2638,71.87,-5.66001e-07,5.57342e-06,-3.3261e-08,5.60218e-06,28.6875,-131.18,-164.33,8.24975e+06,875000,-4.72979e-08,1.96832e-07,-6.51529e-08,0.0061937,0.0343715,-0.000305755,0.032671,2,1716
12,4.06644e-22,2,2639,117.14,-6.1402e-07,5.66729e-06,-2.64444e-08,5.70052e-06,32.375,133.75,99.63,3.08325e+06,625000,-5.37557e-08,1.91861e-07,-5.42412e-08,0.00611677,0.0306591,-0.0001251,0.0291244,3,921
12,3.88418e-22,2,2640,117.14,-6.73512e-07,5.72822e-06,-1.61173e-08,5.7677e-06,34.6875,133.75,99.63,500000,500000,-6.38137e-08,1.82417e-07,-3.35745e-08,0.00634692,0.0279297,0.00126543,0.0249439,3,922
12,4.09956e-22,2,2641,117.14,-7.41648e-07,5.77723e-06,-1.48813e-08,5.82466e-06,35,133.75,99.63,500000,500000,-6.9802e-08,1.79899e-07,-2.92954e-08,0.00589086,0.0272107,0.00067342,0.0245214,3,923
12,4.09956e-22,2,2642,117.14,-8.13116e-07,5.82877e-06,-1.45436e-08,5.88523e-06,35,133.75,99.63,500000,500000,-7.43774e-08,1.80479e-07,-2.94723e-08,0.00514951,0.0266881,0.000193665,0.0245612,3,924
12,4.09956e-22,2,2643,117.14,-8.90403e-07,5.87563e-06,-1.478e-08,5.94273e-06,35,133.75,99.63,500000,500000,-8.08191e-08,1.86286e-07,-2.90492e-08,0.00470365,0.0271294,0.000109654,0.0251608,3,925
12,4.09956e-22,2,2644,117.14,-9.74755e-07,5.91677e-06,-1.45379e-08,5.99654e-06,35,133.75,99.63,500000,500000,-8.61298e-08,1.90641e-07,-2.85568e-08,0.00427657,0.0274526,1.9773e-05,0.025649,3,926
12,4.09956e-22,2,2645,117.14,-1.06266e-06,5.95414e-06,-1.38503e-08,6.04824e-06,35,133.75,99.63,500000,500000,-8.84119e-08,1.90246e-07,-2.77445e-08,0.00389984,0.027148,-7.81643e-05,0.0255346,3,927
12,4.09956e-22,2,2646,117.14,-1.15158e-06,5.9847e-06,-1.36678e-08,6.09451e-06,35,133.75,99.63,500000,500000,-8.99375e-08,1.91469e-07,-2.74057e-08,0.00380515,0.0272387,-5.90704e-05,0.0256479,3,928
12,4.09956e-22,2,2647,117.14,-1.24254e-06,6.00574e-06,-1.35026e-08,6.13294e-06,35,133.75,99.63,500000,500000,-9.20875e-08,1.93981e-07,-2.70825e-08,0.0037235,0.0275398,7.7748e-06,0.0259404,3,929
12,4.09956e-22,2,2648,117.14,-1.33575e-06,6.01655e-06,-1.33708e-08,6.16306e-06,35,133.75,99.63,500000,500000,-9.37342e-08,1.9531e-07,-2.67003e-08,0.00360087,0.0276507,4.6385e-05,0.0260857,3,930
12,4.09956e-22,2,2649,117.14,-1.43001e-06,6.01638e-06,-1.33614e-08,6.18401e-06,35,133.75,99.63,500000,500000,-9.44085e-08,1.95855e-07,-2.67375e-08,0.00352054,0.0276789,2.88024e-05,0.0261806,3,931
12,4.09956e-22,2,2650,117.14,-1.52457e-06,6.00437e-06,-1.34981e-08,6.19491e-06,35,133.75,99.63,500000,500000,-9.52224e-08,1.96929e-07,-2.69866e-08,0.00345232,0.0277841,-3.26004e-06,0.0263689,3,932
12,4.09956e-22,2,2651,117.14,-1.62045e-06,5.98118e-06,-1.36769e-08,6.19682e-06,35,133.75,99.63,500000,500000,-9.73025e-08,1.99966e-07,-2.72734e-08,0.00338124,0.0281481,-1.62508e-05,0.0267964,3,933
12,4.09956e-22,2,2652,117.14,-1.71918e-06,5.95121e-06,-1.39856e-08,6.19457e-06,35,133.75,99.63,500000,500000,-9.76453e-08,2.04291e-07,-2.80151e-08,0.00377283,0.0289812,0.000113613,0.0273956,3,934
12,5.14261e-22,2,2653,117.14,-1.81574e-06,5.92572e-06,-1.84395e-08,6.19769e-06,40,133.75,99.63,3.08325e+06,625000,-8.48031e-08,2.04412e-07,-3.69863e-08,0.00352552,0.0326341,0.000387926,0.0313389,3,935
12,7.2287e-22,1,2654,130.6,-1.88878e-06,5.932e-06,-2.74021e-08,6.2255e-06,50,117.2,-48.36,8.24975e+06,875000,-6.24286e-08,2.00362e-07,-5.47703e-08,0.00294111,0.0371269,-9.78488e-05,0.036315,2,1717
12,8.27175e-22,1,2655,130.6,-1.9406e-06,5.96576e-06,-3.15504e-08,6.27353e-06,55,117.2,-48.36,1.0833e+07,1e+06,-5.09024e-08,1.97655e-07,-6.30658e-08,0.00328405,0.0386179,-0.00041852,0.037449,2,1718
12,8.27175e-22,1,2656,130.6,-1.99059e-06,5.99896e-06,-3.08425e-08,6.32067e-06,55,117.2,-48.36,1.0833e+07,1e+06,-4.98671e-08,1.96786e-07,-6.16771e-08,0.00356501,0.0387368,-4.77591e-05,0.0372357,2,1719
12,8.27175e-22,1,2657,130.6,-2.04033e-06,6.0279e-06,-3.0721e-08,6.36392e-06,55,117.2,-48.36,1.0833e+07,1e+06,-4.98369e-08,1.96721e-07,-6.14482e-08,0.0035636,0.0387892,-2.46753e-06,0.0372776,2,1720
12,8.27175e-22,1,2658,130.6,-2.09026e-06,6.0533e-06,-3.08163e-08,6.40411e-06,55,117.2,-48.36,1.0833e+07,1e+06,-5.02382e-08,1.97544e-07,-6.16378e-08,0.00351938,0.0389541,-8.09291e-06,0.0374736,2,1721
12,8.27175e-22,1,2659,130.6,-2.14081e-06,6.07556e-06,-3.10849e-08,6.44177e-06,55,117.2,-48.36,1.0833e+07,1e+06,-5.12056e-08,1.99612e-07,-6.21685e-08,0.00342729,0.0393372,-1.66665e-05,0.0379096,2,1722
12,8.27175e-22,1,2660,130.6,-2.19267e-06,6.09512e-06,-3.15304e-08,6.4776e-06,55,117.2,-48.36,1.0833e+07,1e+06,-5.29965e-08,2.03123e-07,-6.30898e-08,0.00322709,0.0399572,-4.03714e-05,0.0386389,2,1723
12,8.27175e-22,1,2661,130.6,-2.2468e-06,6.11213e-06,-3.21835e-08,6.51208e-06,55,117.2,-48.36,1.0833e+07,1e+06,-5.6009e-08,2.081e-07,-6.42233e-08,0.0028093,0.0408058,-5.9185e-05,0.0396971,2,1724
12,8.27175e-22,1,2662,130.6,-2.30469e-06,6.12579e-06,-3.29627e-08,6.54507e-06,55,117.2,-48.36,1.0833e+07,1e+06,-5.99316e-08,2.14568e-07,-6.62485e-08,0.00220544,0.041867,-0.00025885,0.0411848,2,1725
12,8.10811e-22,1,2663,130.6,-2.36666e-06,6.13338e-06,-3.39856e-08,6.57424e-06,55.625,117.2,-48.36,1.0833e+07,1e+06,-6.19423e-08,2.19091e-07,-6.76286e-08,0.00187028,0.0427774,-0.000273019,0.0427863,2,1726
12,7.14174e-22,1,2664,130.6,-2.42857e-06,6.1205e-06,-3.36499e-08,6.5848e-06,57.875,117.2,-48.36,1.01872e+07,968750,-6.39078e-08,2.16707e-07,-6.75657e-08,0.00156105,0.0403418,-2.72412e-05,0.0414674,2,1727
12,5.84809e-22,1,2665,80.41,-2.49448e-06,6.07064e-06,-3.28915e-08,6.56325e-06,61.375,-123.18,-170.23,9.54138e+06,937500,-7.11543e-08,2.04147e-07,-6.5612e-08,-0.00030251,0.0329048,7.42261e-05,0.0353039,2,1728
12,5.50536e-22,1,2666,80.41,-2.57088e-06,6.02526e-06,-3.46202e-08,6.5509e-06,64.125,-123.18,-170.23,1.01872e+07,968750,-7.9324e-08,2.04547e-07,-6.89362e-08,-0.00164443,0.02953,-0.000334113,0.0321302,2,1729
12,5.65354e-22,1,2667,80.41,-2.65313e-06,6.0085e-06,-3.63419e-08,6.5683e-06,65,-123.18,-170.23,1.0833e+07,1e+06,-8.18263e-08,2.16062e-07,-7.33034e-08,-0.000958438,0.0314857,-0.000323325,0.0332971,2,1730
12,5.65354e-22,1,2668,80.41,-2.73454e-06,5.99391e-06,-3.64486e-08,6.58832e-06,65,-123.18,-170.23,1.0833e+07,1e+06,-7.89672e-08,2.16053e-07,-7.25865e-08,-7.45998e-05,0.0320175,2.94075e-05,0.0332938,2,1731
12,5.65354e-22,1,2669,80.41,-2.81106e-06,5.9773e-06,-3.61495e-08,6.60542e-06,65,-123.18,-170.23,1.0833e+07,1e+06,-7.38417e-08,2.11272e-07,-7.2332e-08,0.000753311,0.031587,-7.11951e-05,0.0325124,2,1732
12,5.65354e-22,1,2670,80.41,-2.88222e-06,5.96101e-06,-3.57202e-08,6.62133e-06,65,-123.18,-170.23,1.0833e+07,1e+06,-6.91382e-08,2.05642e-07,-7.14311e-08,0.00141641,0.0309077,-6.75277e-05,0.0313373,2,1733
12,5.65354e-22,1,2671,80.41,-2.94934e-06,5.948e-06,-3.53654e-08,6.63917e-06,65,-123.18,-170.23,1.0833e+07,1e+06,-6.6162e-08,2.01298e-07,-7.07229e-08,0.00177144,0.0302226,-6.44149e-05,0.0302024,2,1734
12,5.65354e-22,1,2672,80.41,-3.01454e-06,5.94119e-06,-3.52819e-08,6.66232e-06,65,-123.18,-170.23,1.0833e+07,1e+06,-6.53407e-08,1.99653e-07,-7.05483e-08,0.00184654,0.0297998,-3.88194e-05,0.0294469,2,1735
12,5.65354e-22,1,2673,80.41,-3.08002e-06,5.94295e-06,-3.55771e-08,6.69376e-06,65,-123.18,-170.23,1.0833e+07,1e+06,-6.63526e-08,2.01149e-07,-7.11655e-08,0.0017544,0.0297915,-4.01215e-06,0.0292522,2,1736
12,5.65354e-22,1,2674,80.41,-3.14725e-06,5.95456e-06,-3.6228e-08,6.73523e-06,65,-123.18,-170.23,1.0833e+07,1e+06,-6.84236e-08,2.04951e-07,-7.25069e-08,0.00159637,0.0301361,2.54033e-06,0.0295436,2,1737
12,5.65354e-22,1,2675,80.41,-3.21687e-06,5.97578e-06,-3.71266e-08,6.78672e-06,65,-123.18,-170.23,1.0833e+07,1e+06,-7.10458e-08,2.10132e-07,-7.43434e-08,0.00140751,0.0307153,-2.97761e-05,0.0301647,2,1738
12,5.65354e-22,1,2676,80.41,-3.28934e-06,6.0051e-06,-3.81808e-08,6.84708e-06,65,-123.18,-170.23,1.0833e+07,1e+06,-7.46209e-08,2.17426e-07,-7.61214e-08,0.00117967,0.0317352,0.000140302,0.0311946,2,1739
12,5.56553e-22,1,2677,80.41,-3.36611e-06,6.04079e-06,-4.0478e-08,6.91545e-06,65.625,-123.18,-170.23,1.01872e+07,968750,-7.7504e-08,2.30083e-07,-8.09523e-08,0.000931239,0.0337344,0.000448324,0.0334775,2,1740
12,5.12549e-22,1,2678,80.41,-3.44435e-06,6.06744e-06,-4.38383e-08,6.97705e-06,68.75,-123.18,-170.23,6.95812e+06,812500,-7.23784e-08,2.19317e-07,-8.78758e-08,-0.00174752,0.0301938,-0.000747092,0.0323876,2,1741
12,4.50944e-22,2,2679,82.04,-3.51087e-06,6.02722e-06,-4.55516e-08,6.97536e-06,73.125,62.56,148.29,2.43744e+06,593750,-6.07482e-08,1.95137e-07,-9.08591e-08,-0.00435631,0.0237845,-0.000747268,0.0272029,3,936
12,4.24542e-22,2,2680,82.04,-3.56584e-06,5.93397e-06,-4.70115e-08,6.92311e-06,75,62.56,148.29,500000,500000,-5.51614e-08,1.92863e-07,-9.41012e-08,-0.00451736,0.022382,0.00036036,0.0250099,3,937
12,4.24542e-22,2,2681,82.04,-3.62119e-06,5.83983e-06,-4.8178e-08,6.87161e-06,75,62.56,148.29,500000,500000,-5.69263e-08,1.94644e-07,-9.63937e-08,-0.00500437,0.0221958,8.21221e-05,0.0251995,3,938
12,4.24542e-22,2,2682,82.04,-3.6797e-06,5.74336e-06,-4.73999e-08,6.82119e-06,75,62.56,148.29,500000,500000,-6.07226e-08,1.93013e-07,-9.49353e-08,-0.00585356,0.0216409,-0.00017302,0.0252737,3,939
12,4.24542e-22,2,2683,82.04,-3.74263e-06,5.64756e-06,-4.60205e-08,6.77528e-06,75,62.56,148.29,500000,500000,-6.28139e-08,1.92109e-07,-9.21153e-08,-0.00614472,0.0216967,-1.0716e-05,0.0255016,3,940
12,4.24542e-22,2,2684,82.04,-3.80532e-06,5.55621e-06,-4.17059e-08,6.73452e-06,75,62.56,148.29,500000,500000,-6.01652e-08,1.76349e-07,-8.32555e-08,-0.00608797,0.0198076,4.42718e-05,0.0235698,3,941
12,5.31023e-22,2,2685,82.04,-3.86296e-06,5.46054e-06,-3.15821e-08,6.68887e-06,76.75,62.56,148.29,3.08325e+06,625000,-6.10744e-08,1.53602e-07,-6.33716e-08,-0.00624351,0.0192392,-0.000377434,0.0235218,3,942
12,7.43987e-22,1,2686,133.1,-3.92747e-06,5.41317e-06,-2.15271e-08,6.6879e-06,80.25,119.51,-49.37,8.24975e+06,875000,-7.07706e-08,1.52914e-07,-4.29112e-08,-0.00588427,0.0243049,0.000231646,0.0281203,2,1742
12,8.50469e-22,1,2687,133.1,-4.00451e-06,5.41784e-06,-1.99354e-08,6.73717e-06,82,119.51,-49.37,1.0833e+07,1e+06,-8.05258e-08,1.68601e-07,-3.96394e-08,-0.00574573,0.029322,0.000433438,0.0326651,2,1743
12,8.50469e-22,1,2688,133.1,-4.08852e-06,5.41848e-06,-2.33269e-08,6.78797e-06,82,119.51,-49.37,1.0833e+07,1e+06,-8.78339e-08,1.89103e-07,-4.67541e-08,-0.005921,0.0329847,-4.06135e-05,0.0365708,2,1744
12,8.50469e-22,1,2689,133.1,-4.18017e-06,5.42693e-06,-2.63475e-08,6.85027e-06,82,119.51,-49.37,1.0833e+07,1e+06,-9.50745e-08,2.10288e-07,-5.27556e-08,-0.00583455,0.0367241,7.08297e-05,0.0401082,2,1745
12,8.50469e-22,1,2690,133.1,-4.27867e-06,5.45196e-06,-2.89491e-08,6.93049e-06,82,119.51,-49.37,1.0833e+07,1e+06,-1.00125e-07,2.26048e-07,-5.79021e-08,-0.00566333,0.0392665,0.000114804,0.0424206,2,1746
12,8.50469e-22,1,2691,133.1,-4.38042e-06,5.49605e-06,-3.08574e-08,7.0282e-06,82,119.51,-49.37,1.0833e+07,1e+06,-1.02064e-07,2.34976e-07,-6.17746e-08,-0.00529573,0.040492,6.66413e-05,0.0434383,2,1747
12,8.50469e-22,1,2692,133.1,-4.4828e-06,5.55847e-06,-3.19073e-08,7.14094e-06,82,119.51,-49.37,1.0833e+07,1e+06,-1.0124e-07,2.391e-07,-6.3882e-08,-0.00454887,0.0409829,0.000236679,0.0435284,2,1748
12,8.12457e-22,1,2693,133.1,-4.5829e-06,5.63841e-06,-3.39627e-08,7.26607e-06,82.4375,119.51,-49.37,1.01872e+07,968750,-9.53189e-08,2.37727e-07,-6.72776e-08,-0.00357218,0.0405957,-0.00027001,0.0434388,2,1749
12,6.22396e-22,1,2694,133.1,-4.67344e-06,5.71964e-06,-4.52545e-08,7.3863e-06,84.625,119.51,-49.37,6.95813e+06,812500,-7.67649e-08,2.56304e-07,-9.10442e-08,-0.00149088,0.0427555,-0.000681495,0.0459572,2,1750
12,3.56312e-22,2,2695,99.87,-4.73643e-06,5.71994e-06,-6.95417e-08,7.42673e-06,87.6875,165.01,-32.53,2.43744e+06,593750,-4.84061e-08,2.82363e-07,-1.39644e-07,-0.0011735,0.0418469,-6.01668e-05,0.0445039,3,943
12,2.42275e-22,2,2696,99.87,-4.77025e-06,5.65981e-06,-8.45334e-08,7.40242e-06,89,165.01,-32.53,500000,500000,-2.92135e-08,2.82989e-07,-1.68354e-07,-0.00198789,0.0377554,-6.11679e-05,0.039986,3,944
12,2.42275e-22,2,2697,99.87,-4.79486e-06,5.62373e-06,-8.35421e-08,7.3908e-06,89,165.01,-32.53,500000,500000,-2.43599e-08,2.76337e-07,-1.67124e-07,-0.0014656,0.0371477,-0.000213198,0.0391925,3,945
12,2.42275e-22,2,2698,99.87,-4.81897e-06,5.60698e-06,-8.18691e-08,7.39374e-06,89,165.01,-32.53,500000,500000,-2.37493e-08,2.72337e-07,-1.63857e-07,-0.00145845,0.0369029,-2.67402e-05,0.0389441,3,946
12,2.42275e-22,2,2699,99.87,-4.84236e-06,5.60638e-06,-8.09946e-08,7.40854e-06,89,165.01,-32.53,500000,500000,-2.26022e-08,2.68942e-07,-1.6201e-07,-0.00142777,0.0366627,1.51626e-05,0.0387563,3,947
12,2.42275e-22,2,2700,99.87,-4.86418e-06,5.62179e-06,-8.04122e-08,7.43446e-06,89,165.01,-32.53,500000,500000,-2.02794e-08,2.64137e-07,-1.60843e-07,-0.00138314,0.036173,-8.94081e-05,0.0383914,3,948
12,2.42275e-22,2,2701,99.87,-4.88292e-06,5.6572e-06,-7.98423e-08,7.4735e-06,89,165.01,-32.53,500000,500000,-1.95642e-08,2.566e-07,-1.59009e-07,-0.00192298,0.0351005,-0.000562367,0.0379953,3,949
12,2.76605e-22,2,2702,99.87,-4.9033e-06,5.71912e-06,-6.62742e-08,7.5336e-06,90,165.01,-32.53,500000,500000,-2.87869e-08,2.43659e-07,-1.32951e-07,-0.000971382,0.0345695,0.000645004,0.0366891,3,950
12,3.37961e-22,2,2703,82.05,-4.94049e-06,5.7879e-06,-5.48583e-08,7.60994e-06,92.3125,-126.68,-31.71,500000,500000,-4.80733e-08,2.39019e-07,-1.10692e-07,-4.52366e-05,0.0326989,0.000892437,0.0342582,3,951
12,3.43078e-22,2,2704,82.05,-4.99945e-06,5.82578e-06,-5.89677e-08,7.67709e-06,94.5625,-126.68,-31.71,500000,500000,-7.85122e-08,2.59843e-07,-1.17508e-07,-0.00139421,0.0286069,-0.000534638,0.031214,3,952
12,2.99259e-22,2,2705,9.76004,-5.09752e-06,5.80537e-06,-6.20116e-08,7.72599e-06,96.4375,161.5,100.91,500000,500000,-1.23579e-07,2.98763e-07,-1.23592e-07,-0.00269388,0.0248019,-0.000542687,0.0274788,3,953
12,2.70046e-22,2,2706,9.76004,-5.24661e-06,5.72915e-06,-6.28621e-08,7.76879e-06,97.6875,161.5,100.91,500000,500000,-1.61175e-07,3.31663e-07,-1.26911e-07,-0.0035087,0.0223248,-0.000600574,0.024799,3,954
12,2.62742e-22,2,2707,9.76005,-5.41987e-06,5.6264e-06,-6.73764e-08,7.81254e-06,98,161.5,100.91,500000,500000,-1.78369e-07,3.503e-07,-1.34437e-07,-0.00428616,0.0214401,-0.00148115,0.0243245,3,955
12,3.66764e-22,2,2708,9.76004,-5.60335e-06,5.50678e-06,-5.76784e-08,7.85656e-06,101.125,161.5,100.91,3.08325e+06,625000,-1.62709e-07,3.45907e-07,-1.13465e-07,-0.00337038,0.0344391,0.00110399,0.0370299,3,956
12,5.74806e-22,1,2709,123.67,-5.74529e-06,5.44998e-06,-4.68031e-08,7.91914e-06,107.375,-64.23,128.87,8.24975e+06,875000,-1.13879e-07,3.09847e-07,-9.38814e-08,-0.00264002,0.0517541,0.000422497,0.0549269,2,1751
12,6.82357e-22,1,2710,123.67,-5.83111e-06,5.45521e-06,-4.48081e-08,7.98518e-06,110.25,-64.23,128.87,1.0833e+07,1e+06,-8.0414e-08,2.70622e-07,-9.02278e-08,-0.00255969,0.0539265,-0.00180692,0.0571161,2,1752
12,6.89416e-22,1,2711,64.5,-5.90611e-06,5.4413e-06,-3.77232e-08,8.03065e-06,109.75,-144,-153.09,1.0833e+07,1e+06,-7.28943e-08,2.45554e-07,-7.55874e-08,-0.00198093,0.0501926,-9.28801e-05,0.0521989,2,1753
12,6.92945e-22,1,2712,64.5,-5.97689e-06,5.42032e-06,-3.43887e-08,8.06873e-06,109.5,-144,-153.09,1.0833e+07,1e+06,-6.9402e-08,2.27826e-07,-6.88537e-08,-0.00236328,0.0468033,-4.01597e-05,0.0489897,2,1754
12,6.92945e-22,1,2713,64.5,-6.04492e-06,5.39991e-06,-3.15412e-08,8.10562e-06,109.5,-144,-153.09,1.0833e+07,1e+06,-6.6461e-08,2.11743e-07,-6.30527e-08,-0.00278281,0.0434776,6.61004e-05,0.0458709,2,1755
12,6.92945e-22,1,2714,64.5,-6.10982e-06,5.38066e-06,-2.80116e-08,8.14139e-06,109.5,-144,-153.09,1.0833e+07,1e+06,-6.24311e-08,1.93456e-07,-5.58675e-08,-0.00300262,0.0398861,0.00037195,0.0422997,2,1756
12,6.91672e-22,1,2715,64.5,-6.16978e-06,5.36344e-06,-2.34081e-08,8.17516e-06,110.875,-144,-153.09,1.0833e+07,1e+06,-5.51208e-08,1.69677e-07,-4.68713e-08,-0.00319668,0.0372789,-0.0005309,0.040325,2,1757
12,6.88114e-22,1,2716,121.75,-6.22006e-06,5.33839e-06,-1.53315e-08,8.19681e-06,114.125,-23.35,126.79,1.0833e+07,1e+06,-4.64121e-08,1.47119e-07,-3.12847e-08,-0.00243353,0.0372098,-0.000363969,0.0395346,2,1758
12,6.84816e-22,1,2717,121.75,-6.2626e-06,5.31e-06,-1.0112e-08,8.21075e-06,116.5,-23.35,126.79,1.0833e+07,1e+06,-4.24254e-08,1.37042e-07,-2.00176e-08,-0.00160814,0.037785,0.0008018,0.0386394,2,1759
12,6.83804e-22,1,2718,121.75,-6.30491e-06,5.2942e-06,-1.08305e-08,8.23289e-06,117,-23.35,126.79,1.0833e+07,1e+06,-4.32777e-08,1.37786e-07,-2.12038e-08,-0.00201634,0.0380711,0.000281965,0.0391507,2,1760
12,6.83804e-22,1,2719,121.75,-6.34916e-06,5.29303e-06,-1.12761e-08,8.26608e-06,117,-23.35,126.79,1.0833e+07,1e+06,-4.47404e-08,1.41099e-07,-2.27793e-08,-0.00235563,0.0387688,5.97582e-05,0.0400428,2,1761
12,6.83804e-22,1,2720,121.75,-6.39439e-06,5.30316e-06,-1.14277e-08,8.30734e-06,117,-23.35,126.79,1.0833e+07,1e+06,-4.51512e-08,1.40796e-07,-2.29631e-08,-0.00257893,0.0385775,2.96045e-05,0.0399489,2,1762
12,6.83804e-22,1,2721,121.75,-6.43946e-06,5.32059e-06,-1.15958e-08,8.35317e-06,117,-23.35,126.79,1.0833e+07,1e+06,-4.48075e-08,1.39727e-07,-2.26478e-08,-0.00261123,0.038277,0.000159074,0.0395986,2,1763
12,6.83804e-22,1,2722,121.75,-6.484e-06,5.34219e-06,-1.09595e-08,8.40128e-06,117,-23.35,126.79,1.0833e+07,1e+06,-4.39057e-08,1.39541e-07,-2.07834e-08,-0.00220665,0.0384742,0.000836301,0.0392695,2,1764
12,6.63107e-22,1,2723,121.75,-6.52727e-06,5.35928e-06,-1.18705e-08,8.44555e-06,117.375,-23.35,126.79,1.01872e+07,968750,-4.4447e-08,1.43125e-07,-2.45893e-08,-0.00203755,0.0375654,0.000662729,0.0386097,2,1765
12,5.8032e-22,1,2724,121.75,-6.5729e-06,5.38722e-06,-2.54889e-08,8.49857e-06,118.875,-23.35,126.79,7.60394e+06,843750,-5.28739e-08,1.82837e-07,-5.43167e-08,-0.0016299,0.0368319,-0.000301323,0.0386836,2,1766
12,4.56139e-22,2,2725,155.53,-6.63302e-06,5.4952e-06,-5.70658e-08,8.61379e-06,121.125,-173.56,119.95,3.72906e+06,656250,-7.00515e-08,2.67465e-07,-1.13872e-07,-0.000375074,0.0367536,-0.000244271,0.0381318,3,957
12,3.73351e-22,2,2726,155.53,-6.713e-06,5.71827e-06,-8.58694e-08,8.81875e-06,122.625,-173.56,119.95,1.14581e+06,531250,-8.43904e-08,3.37664e-07,-1.67984e-07,0.000366584,0.0354554,2.32973e-05,0.0358995,3,958
12,3.52654e-22,2,2727,155.53,-6.8018e-06,6.00879e-06,-9.44777e-08,9.07629e-06,123,-173.56,119.95,500000,500000,-8.89018e-08,3.54134e-07,-1.90312e-07,-0.000346934,0.0328274,-0.00116397,0.0337587,3,959
12,3.91095e-22,2,2728,110.47,-3.37732e-08,4.84147e-06,-4.7452e-08,4.84182e-06,6.875,-113.15,-163.66,2.43744e+06,593750,-6.3987e-08,2.18504e-07,-9.30569e-08,0.00260003,0.0255522,-0.0021809,0.0272503,3,960
12,3.76428e-22,2,2729,110.47,-9.42008e-08,4.95184e-06,-4.47277e-08,4.95294e-06,10.25,-113.15,-163.66,2.43744e+06,593750,-5.38579e-08,2.14111e-07,-9.04537e-08,0.00330237,0.0272969,-0.000799073,0.028367,3,961
12,4.44602e-22,1,2730,71.87,-1.41489e-07,5.08002e-06,-3.60865e-08,5.08211e-06,18,-131.18,-164.33,5.6665e+06,750000,-4.6505e-08,1.87527e-07,-7.40297e-08,0.00308175,0.0282288,-0.000904191,0.0292582,2,1767
12,5.37264e-22,1,2731,71.87,-1.87211e-07,5.18712e-06,-2.90895e-08,5.19058e-06,24.875,-131.18,-164.33,9.54138e+06,937500,-4.81637e-08,1.76514e-07,-5.75814e-08,0.00373309,0.0302014,0.000259791,0.0289323,2,1768
12,5.69008e-22,1,2732,71.87,-2.37816e-07,5.26973e-06,-2.72317e-08,5.27516e-06,27,-131.18,-164.33,1.0833e+07,1e+06,-5.13264e-08,1.76531e-07,-5.41929e-08,0.00353712,0.0311763,0.000486913,0.0294058,2,1769
12,5.69008e-22,1,2733,71.87,-2.89864e-07,5.33736e-06,-2.78126e-08,5.3453e-06,27,-131.18,-164.33,1.0833e+07,1e+06,-5.32401e-08,1.80585e-07,-5.54968e-08,0.0032677,0.0321687,0.000178278,0.0309419,2,1770
12,5.69008e-22,1,2734,71.87,-3.44297e-07,5.39681e-06,-2.85096e-08,5.40786e-06,27,-131.18,-164.33,1.0833e+07,1e+06,-5.58591e-08,1.86574e-07,-5.70105e-08,0.00308423,0.033381,6.98861e-05,0.0325195,2,1771
12,5.69008e-22,1,2735,71.87,-4.01582e-07,5.45482e-06,-2.92864e-08,5.46966e-06,27,-131.18,-164.33,1.0833e+07,1e+06,-5.84119e-08,1.92764e-07,-5.85469e-08,0.00297207,0.0345472,5.70041e-05,0.0338826,2,1772
12,5.69008e-22,1,2736,71.87,-4.6112e-07,5.51689e-06,-2.97243e-08,5.53621e-06,27,-131.18,-164.33,1.0833e+07,1e+06,-5.97783e-08,1.95947e-07,-5.94677e-08,0.0028998,0.0350767,4.37704e-05,0.0344694,2,1773
12,5.69008e-22,1,2737,71.87,-5.21138e-07,5.58622e-06,-2.97004e-08,5.61055e-06,27,-131.18,-164.33,1.0833e+07,1e+06,-5.93357e-08,1.95484e-07,-5.93677e-08,0.00297778,0.034978,0.000104181,0.0342388,2,1774
12,5.69008e-22,1,2738,71.87,-5.79792e-07,5.66575e-06,-2.92178e-08,5.69541e-06,27,-131.18,-164.33,1.0833e+07,1e+06,-5.66599e-08,1.92538e-07,-5.83508e-08,0.00343682,0.0345678,0.000425218,0.0333132,2,1775
12,5.39186e-22,1,2739,71.87,-6.34458e-07,5.763e-06,-2.91504e-08,5.79789e-06,28.5,-131.18,-164.33,8.89556e+06,906250,-5.4419e-08,1.85375e-07,-5.80669e-08,0.00334635,0.0324469,-0.000650632,0.0320028,2,1776
12,4.696e-22,2,2740,117.14,-6.8863e-07,5.85205e-06,-2.37427e-08,5.89247e-06,32,133.75,99.63,4.37488e+06,687500,-5.69497e-08,1.81288e-07,-4.84052e-08,0.00446287,0.0300038,-0.00074988,0.0292552,3,962
12,4.19897e-22,2,2741,117.14,-7.48357e-07,5.90829e-06,-1.73525e-08,5.95552e-06,34.5,133.75,99.63,1.14581e+06,531250,-6.2183e-08,1.79133e-07,-3.47799e-08,0.00608044,0.0281422,0.00046849,0.0256965,3,963
12,4.09956e-22,2,2742,117.14,-8.12996e-07,5.95545e-06,-1.63851e-08,6.01071e-06,35,133.75,99.63,500000,500000,-6.65135e-08,1.76176e-07,-3.18674e-08,0.00581868,0.0265955,0.000104208,0.0242638,3,964
12,4.09956e-22,2,2743,117.14,-8.81384e-07,6.00794e-06,-1.59097e-08,6.07226e-06,35,133.75,99.63,500000,500000,-7.02149e-08,1.77948e-07,-3.18588e-08,0.00541709,0.0264631,-0.000164612,0.0244074,3,965
12,4.09956e-22,2,2744,117.14,-9.53426e-07,6.05914e-06,-1.55342e-08,6.13371e-06,35,133.75,99.63,500000,500000,-7.36092e-08,1.81679e-07,-3.11389e-08,0.00530543,0.0268945,-4.29099e-05,0.0247803,3,966
12,4.09956e-22,2,2745,117.14,-1.0286e-06,6.10406e-06,-1.51822e-08,6.19013e-06,35,133.75,99.63,500000,500000,-7.64103e-08,1.84368e-07,-3.04989e-08,0.00516811,0.0271757,3.39742e-05,0.0250404,3,967
12,4.09956e-22,2,2746,117.14,-1.10625e-06,6.14237e-06,-1.49225e-08,6.24121e-06,35,133.75,99.63,500000,500000,-7.86813e-08,1.85338e-07,-2.98676e-08,0.00494349,0.0271439,1.04814e-05,0.0250837,3,968
12,4.09956e-22,2,2747,117.14,-1.18597e-06,6.17407e-06,-1.47726e-08,6.28696e-06,35,133.75,99.63,500000,500000,-8.09271e-08,1.87172e-07,-2.95615e-08,0.00478671,0.0272763,-9.11288e-06,0.0252752,3,969
12,4.09956e-22,2,2748,117.14,-1.2681e-06,6.19736e-06,-1.46755e-08,6.32578e-06,35,133.75,99.63,500000,500000,-8.3322e-08,1.89847e-07,-2.93577e-08,0.00467002,0.0275682,1.77185e-05,0.0255944,3,970
12,4.09956e-22,2,2749,117.14,-1.35261e-06,6.21001e-06,-1.46052e-08,6.35562e-06,35,133.75,99.63,500000,500000,-8.53871e-08,1.91915e-07,-2.91879e-08,0.0045289,0.0277694,3.00831e-05,0.0258531,3,971
12,4.09956e-22,2,2750,117.14,-1.43887e-06,6.21099e-06,-1.456e-08,6.37549e-06,35,133.75,99.63,500000,500000,-8.71194e-08,1.93386e-07,-2.911e-08,0.00436972,0.0278723,9.39286e-06,0.0260508,3,972
12,4.09956e-22,2,2751,117.14,-1.52685e-06,6.20067e-06,-1.45488e-08,6.3859e-06,35,133.75,99.63,500000,500000,-8.92524e-08,1.95403e-07,-2.90959e-08,0.00419658,0.0280342,-2.17594e-05,0.0263232,3,973
12,4.09956e-22,2,2752,117.14,-1.61738e-06,6.1807e-06,-1.44532e-08,6.38883e-06,35,133.75,99.63,500000,500000,-9.19962e-08,1.98484e-07,-2.88946e-08,0.00406192,0.0283618,1.04781e-05,0.0266988,3,974
12,4.09956e-22,2,2753,117.14,-1.71084e-06,6.15383e-06,-1.44798e-08,6.38724e-06,35,133.75,99.63,500000,500000,-9.2255e-08,2.01165e-07,-2.89867e-08,0.00434219,0.0288944,0.000171318,0.0270296,3,975
12,5.14261e-22,2,2754,117.14,-1.80189e-06,6.12811e-06,-1.8878e-08,6.38756e-06,40,133.75,99.63,3.08325e+06,625000,-8.00843e-08,2.01188e-07,-3.77628e-08,0.00403679,0.0324368,0.000365213,0.0309384,3,976
12,7.2287e-22,1,2755,130.6,-1.87101e-06,6.13182e-06,-2.76294e-08,6.41097e-06,50,117.2,-48.36,8.24975e+06,875000,-5.94531e-08,1.99294e-07,-5.52477e-08,0.00350351,0.0372261,-9.46439e-05,0.0361831,2,1777
12,8.27175e-22,1,2756,130.6,-1.9208e-06,6.16345e-06,-3.15997e-08,6.4559e-06,55,117.2,-48.36,1.0833e+07,1e+06,-4.89782e-08,1.97472e-07,-6.32028e-08,0.0038179,0.0388179,-0.000357118,0.0374023,2,1778
12,8.27175e-22,1,2757,130.6,-1.96897e-06,6.19547e-06,-3.09666e-08,6.5009e-06,55,117.2,-48.36,1.0833e+07,1e+06,-4.7865e-08,1.9626e-07,-6.19278e-08,0.00408381,0.0388199,-4.23863e-05,0.037103,2,1779
12,8.27175e-22,1,2758,130.6,-2.01653e-06,6.22418e-06,-3.08598e-08,6.54277e-06,55,117.2,-48.36,1.0833e+07,1e+06,-4.75308e-08,1.95958e-07,-6.1719e-08,0.00414857,0.0388344,-2.16226e-06,0.0370782,2,1780
12,8.27175e-22,1,2759,130.6,-2.06403e-06,6.25043e-06,-3.09734e-08,6.58248e-06,55,117.2,-48.36,1.0833e+07,1e+06,-4.77291e-08,1.96785e-07,-6.19492e-08,0.00416509,0.039012,1.21188e-06,0.037251,2,1781
12,8.27175e-22,1,2760,130.6,-2.11198e-06,6.27481e-06,-3.12684e-08,6.62078e-06,55,117.2,-48.36,1.0833e+07,1e+06,-4.84225e-08,1.98884e-07,-6.25391e-08,0.0041588,0.039416,8.12096e-06,0.037654,2,1782
12,8.27175e-22,1,2761,130.6,-2.16087e-06,6.29791e-06,-3.17535e-08,6.65838e-06,55,117.2,-48.36,1.0833e+07,1e+06,-4.95979e-08,2.02321e-07,-6.35171e-08,0.00413962,0.0400604,1.90217e-05,0.0382974,2,1783
12,8.27175e-22,1,2762,130.6,-2.21118e-06,6.32009e-06,-3.24451e-08,6.69581e-06,55,117.2,-48.36,1.0833e+07,1e+06,-5.14118e-08,2.07282e-07,-6.49319e-08,0.0040805,0.0409664,3.06933e-05,0.0392158,2,1784
12,8.27175e-22,1,2763,130.6,-2.2637e-06,6.34145e-06,-3.36532e-08,6.73345e-06,55,117.2,-48.36,1.0833e+07,1e+06,-5.42331e-08,2.14634e-07,-6.69989e-08,0.00394569,0.0423295,2.41108e-05,0.0406925,2,1785
12,7.95993e-22,1,2764,130.6,-2.31965e-06,6.35386e-06,-3.44544e-08,6.76413e-06,54.75,117.2,-48.36,1.01872e+07,968750,-5.91234e-08,2.2616e-07,-6.84739e-08,0.00398814,0.0441032,0.000208781,0.0425825,2,1786
12,6.54902e-22,1,2765,130.6,-2.38194e-06,6.3363e-06,-3.17987e-08,6.76929e-06,54.375,117.2,-48.36,7.60394e+06,843750,-7.0787e-08,2.28735e-07,-6.41813e-08,0.00270242,0.0410423,0.000568284,0.0405861,2,1787
12,4.96779e-22,2,2766,53.81,-2.46122e-06,6.27291e-06,-2.63361e-08,6.73852e-06,56.6875,55.09,-94.23,5.6665e+06,750000,-8.38551e-08,2.14022e-07,-5.3343e-08,-0.000590921,0.0333434,0.00214708,0.0345446,3,977
12,4.9302e-22,1,2767,80.41,-2.54965e-06,6.23085e-06,-3.22456e-08,6.7324e-06,61.75,-123.18,-170.23,7.60394e+06,843750,-8.60807e-08,2.12339e-07,-6.41467e-08,-0.00210108,0.0303378,0.000688133,0.0329866,2,1788
12,5.51414e-22,1,2768,80.41,-2.63338e-06,6.22676e-06,-3.82982e-08,6.76082e-06,64.6875,-123.18,-170.23,1.01872e+07,968750,-8.20452e-08,2.19596e-07,-7.6479e-08,-0.000962858,0.0318604,-0.000916093,0.0343654,2,1789
12,5.65354e-22,1,2769,80.41,-2.71374e-06,6.21e-06,-3.55852e-08,6.77715e-06,65,-123.18,-170.23,1.0833e+07,1e+06,-7.76355e-08,2.14574e-07,-7.11881e-08,0.000154673,0.0322218,0.000215877,0.0337171,2,1790
12,5.65354e-22,1,2770,80.41,-2.78865e-06,6.18697e-06,-3.51226e-08,6.78648e-06,65,-123.18,-170.23,1.0833e+07,1e+06,-7.20564e-08,2.06645e-07,-7.00972e-08,0.000805332,0.0311655,-2.85043e-06,0.0324129,2,1791
12,5.65354e-22,1,2771,80.41,-2.85786e-06,6.16406e-06,-3.44083e-08,6.79442e-06,65,-123.18,-170.23,1.0833e+07,1e+06,-6.73955e-08,1.99285e-07,-6.88422e-08,0.00127611,0.0300524,-7.61955e-05,0.0307764,2,1792
12,5.65354e-22,1,2772,80.41,-2.92344e-06,6.14645e-06,-3.39848e-08,6.80636e-06,65,-123.18,-170.23,1.0833e+07,1e+06,-6.53064e-08,1.94716e-07,-6.79349e-08,0.00139408,0.0291552,-7.62314e-05,0.0293725,2,1793
12,5.65354e-22,1,2773,80.41,-2.98847e-06,6.13859e-06,-3.4063e-08,6.82748e-06,65,-123.18,-170.23,1.0833e+07,1e+06,-6.64022e-08,1.9479e-07,-6.8154e-08,0.00115243,0.0287751,-6.96058e-05,0.028713,2,1794
12,5.65354e-22,1,2774,80.41,-3.05625e-06,6.14311e-06,-3.47913e-08,6.86146e-06,65,-123.18,-170.23,1.0833e+07,1e+06,-6.99033e-08,1.99856e-07,-6.96545e-08,0.00077274,0.0291454,-2.83762e-05,0.0290086,2,1795
12,5.65354e-22,1,2775,80.41,-3.12828e-06,6.15963e-06,-3.58474e-08,6.90857e-06,65,-123.18,-170.23,1.0833e+07,1e+06,-7.35458e-08,2.06422e-07,-7.17403e-08,0.000471958,0.0298613,-2.82826e-05,0.0297719,2,1796
12,5.65354e-22,1,2776,80.41,-3.20334e-06,6.18653e-06,-3.67787e-08,6.96677e-06,65,-123.18,-170.23,1.0833e+07,1e+06,-7.64951e-08,2.11249e-07,-7.36977e-08,0.000118919,0.0303039,-0.000157604,0.0304097,2,1797
12,5.65354e-22,1,2777,80.41,-3.28127e-06,6.22402e-06,-3.71842e-08,7.03609e-06,65,-123.18,-170.23,1.0833e+07,1e+06,-8.06486e-08,2.18455e-07,-7.48148e-08,-0.000239813,0.0312528,0.00021162,0.0313533,2,1798
12,5.38952e-22,1,2778,80.41,-3.36464e-06,6.27539e-06,-4.30356e-08,7.12061e-06,66.875,-123.18,-170.23,8.89556e+06,906250,-7.95279e-08,2.30287e-07,-8.49092e-08,-0.000892036,0.0325041,-7.29366e-05,0.0336717,2,1799
12,4.77346e-22,2,2779,82.04,-3.44032e-06,6.28478e-06,-4.6689e-08,7.16495e-06,71.25,62.56,148.29,4.37488e+06,687500,-6.88346e-08,2.14648e-07,-9.30038e-08,-0.00346909,0.0280986,-0.000949373,0.0315127,3,978
12,4.33342e-22,2,2780,82.04,-3.50231e-06,6.22058e-06,-4.60907e-08,7.1389e-06,74.375,62.56,148.29,1.14581e+06,531250,-6.06188e-08,1.95948e-07,-9.30575e-08,-0.00533105,0.0234277,-0.00029395,0.0271903,3,979
12,4.24542e-22,2,2781,82.04,-3.56156e-06,6.12927e-06,-4.78215e-08,7.08907e-06,75,62.56,148.29,500000,500000,-5.87355e-08,1.97031e-07,-9.55491e-08,-0.00528561,0.0229391,0.000214363,0.026174,3,980
12,4.24542e-22,2,2782,82.04,-3.61978e-06,6.03293e-06,-4.76209e-08,7.03571e-06,75,62.56,148.29,500000,500000,-5.78674e-08,1.93232e-07,-9.53382e-08,-0.00538088,0.0221273,-1.55343e-05,0.0254617,3,981
12,4.24542e-22,2,2783,82.04,-3.67729e-06,5.93505e-06,-4.68008e-08,6.98208e-06,75,62.56,148.29,500000,500000,-5.73901e-08,1.9048e-07,-9.34639e-08,-0.005321,0.0218248,5.97989e-05,0.0250897,3,982
12,4.24542e-22,2,2784,82.04,-3.73456e-06,5.83597e-06,-4.53785e-08,6.92875e-06,75,62.56,148.29,500000,500000,-5.66647e-08,1.87493e-07,-9.0888e-08,-0.00514339,0.0216149,0.000223651,0.0247053,3,983
12,4.24542e-22,2,2785,82.04,-3.79062e-06,5.73115e-06,-4.32703e-08,6.87145e-06,75,62.56,148.29,500000,500000,-5.55397e-08,1.78149e-07,-8.66812e-08,-0.00518796,0.0201886,1.7357e-05,0.023321,3,984
12,5.31023e-22,2,2786,82.04,-3.84564e-06,5.61725e-06,-3.49834e-08,6.80762e-06,76.75,62.56,148.29,3.08325e+06,625000,-5.89055e-08,1.6316e-07,-6.98833e-08,-0.00527291,0.0206504,-0.000444809,0.0243139,3,985
12,7.43987e-22,1,2787,133.1,-3.90843e-06,5.5687e-06,-2.33962e-08,6.80344e-06,80.25,119.51,-49.37,8.24975e+06,875000,-6.85806e-08,1.59186e-07,-4.66602e-08,-0.00481643,0.0255332,0.000183621,0.0286767,2,1800
12,8.50469e-22,1,2788,133.1,-3.9828e-06,5.58765e-06,-2.05992e-08,6.86184e-06,82,119.51,-49.37,1.0833e+07,1e+06,-7.82649e-08,1.7056e-07,-4.11637e-08,-0.0049393,0.0298848,0.000400209,0.0326642,2,1801
12,8.50469e-22,1,2789,133.1,-4.06496e-06,5.60714e-06,-2.35336e-08,6.92564e-06,82,119.51,-49.37,1.0833e+07,1e+06,-8.63872e-08,1.88688e-07,-4.71503e-08,-0.00556094,0.0329417,-4.29972e-05,0.0362452,2,1802
12,8.50469e-22,1,2790,133.1,-4.15557e-06,5.63491e-06,-2.59002e-08,7.00155e-06,82,119.51,-49.37,1.0833e+07,1e+06,-9.39426e-08,2.06761e-07,-5.17816e-08,-0.00586021,0.0360401,7.57655e-05,0.0394056,2,1803
12,8.50469e-22,1,2791,133.1,-4.25285e-06,5.67439e-06,-2.78796e-08,7.09127e-06,82,119.51,-49.37,1.0833e+07,1e+06,-9.8904e-08,2.19671e-07,-5.57653e-08,-0.00595112,0.0380812,9.11393e-05,0.0414117,2,1804
12,8.50469e-22,1,2792,133.1,-4.35338e-06,5.72698e-06,-2.94254e-08,7.19382e-06,82,119.51,-49.37,1.0833e+07,1e+06,-1.00575e-07,2.27383e-07,-5.88552e-08,-0.00562555,0.0392109,9.85759e-05,0.0423108,2,1805
12,8.50469e-22,1,2793,133.1,-4.454e-06,5.79343e-06,-3.04546e-08,7.30772e-06,82,119.51,-49.37,1.0833e+07,1e+06,-9.89791e-08,2.3109e-07,-6.07337e-08,-0.00471317,0.0398017,0.000292883,0.0423406,2,1806
12,8.50469e-22,1,2794,133.1,-4.55134e-06,5.87233e-06,-3.12243e-08,7.42967e-06,82,119.51,-49.37,1.0833e+07,1e+06,-9.53673e-08,2.3191e-07,-6.15915e-08,-0.00343108,0.0399221,0.000661964,0.0416363,2,1807
12,6.98421e-22,1,2795,133.1,-4.64473e-06,5.96625e-06,-3.39805e-08,7.56114e-06,83.75,119.51,-49.37,8.24975e+06,875000,-8.51854e-08,2.40921e-07,-6.93518e-08,-0.00175888,0.0412763,0.00115403,0.0429548,2,1808
12,3.94324e-22,2,2796,99.87,-4.72171e-06,5.99469e-06,-5.69721e-08,7.63113e-06,87.25,165.01,-32.53,3.08325e+06,625000,-6.51956e-08,2.71173e-07,-1.14608e-07,-0.0025213,0.0411349,0.00117045,0.0438358,3,986
12,2.42275e-22,2,2797,99.87,-4.77513e-06,5.94352e-06,-7.90049e-08,7.62453e-06,89,165.01,-32.53,500000,500000,-4.6678e-08,2.85509e-07,-1.56776e-07,-0.00392358,0.0381165,0.000106089,0.0414081,3,987
12,2.42275e-22,2,2798,99.87,-4.81506e-06,5.90023e-06,-7.98624e-08,7.61603e-06,89,165.01,-32.53,500000,500000,-3.66785e-08,2.76e-07,-1.59958e-07,-0.00307116,0.0366725,-0.000427656,0.0396303,3,988
12,2.42275e-22,2,2799,99.87,-4.84848e-06,5.87912e-06,-7.89483e-08,7.6209e-06,89,165.01,-32.53,500000,500000,-3.23911e-08,2.71647e-07,-1.57924e-07,-0.00251805,0.0366283,-0.000113237,0.0392681,3,989
12,2.42275e-22,2,2800,99.87,-4.87985e-06,5.87518e-06,-7.81025e-08,7.63785e-06,89,165.01,-32.53,500000,500000,-3.0868e-08,2.68413e-07,-1.56178e-07,-0.0024266,0.0364663,-2.81847e-05,0.0391192,3,990
12,2.42275e-22,2,2801,99.87,-4.91022e-06,5.88619e-06,-7.72752e-08,7.66574e-06,89,165.01,-32.53,500000,500000,-2.94524e-08,2.64311e-07,-1.54571e-07,-0.00242675,0.0360677,-8.03331e-05,0.0388257,3,991
12,2.42275e-22,2,2802,99.87,-4.93875e-06,5.91404e-06,-7.62581e-08,7.70538e-06,89,165.01,-32.53,500000,500000,-2.93451e-08,2.57201e-07,-1.52095e-07,-0.002884,0.0350417,-0.000489302,0.0383337,3,992
12,2.68023e-22,2,2803,99.87,-4.96891e-06,5.96287e-06,-6.52745e-08,7.76209e-06,89.75,165.01,-32.53,500000,500000,-3.77096e-08,2.44651e-07,-1.30722e-07,-0.00260086,0.0341732,0.000287347,0.0372319,3,993
12,3.281e-22,2,2804,82.05,-5.01417e-06,6.02165e-06,-5.27601e-08,7.83613e-06,91.5,-126.68,-31.71,500000,500000,-5.10893e-08,2.34883e-07,-1.05839e-07,-0.00170629,0.0331612,0.00113015,0.0354407,3,994
12,3.63709e-22,2,2805,82.05,-5.07109e-06,6.06573e-06,-5.21209e-08,7.90644e-06,93.0625,-126.68,-31.71,500000,500000,-6.12144e-08,2.35608e-07,-1.04607e-07,-0.00177469,0.0306371,0.0003083,0.0329784,3,995
12,3.43078e-22,2,2806,82.05,-5.1366e-06,6.08e-06,-5.63951e-08,7.95954e-06,94.5625,-126.68,-31.71,500000,500000,-8.49567e-08,2.55928e-07,-1.13263e-07,-0.00264116,0.0272485,-0.000485108,0.0301132,3,996
12,2.99259e-22,2,2807,9.76004,-5.241e-06,6.05005e-06,-6.05121e-08,8.00468e-06,96.4375,161.5,100.91,500000,500000,-1.31726e-07,2.95717e-07,-1.20642e-07,-0.00419194,0.0234459,-0.00113397,0.02708,3,997
12,2.69199e-22,2,2808,9.76004,-5.40005e-06,5.98204e-06,-5.96312e-08,8.05908e-06,97.625,161.5,100.91,500000,500000,-1.76511e-07,3.36861e-07,-1.17826e-07,-0.00426067,0.0234401,-0.0014042,0.027027,3,998
12,3.686e-22,2,2809,9.76003,-5.59402e-06,5.86308e-06,-4.46725e-08,8.10375e-06,100.75,161.5,100.91,3.08325e+06,625000,-1.69668e-07,3.42932e-07,-8.94549e-08,-0.00205313,0.0385333,0.00201127,0.0405966,3,999
12,5.84548e-22,1,2810,64.5,-5.73939e-06,5.76086e-06,-3.98112e-08,8.13201e-06,106.562,-144,-153.09,8.24975e+06,875000,-1.1291e-07,3.01118e-07,-8.04123e-08,-0.0018432,0.0533393,0.000818029,0.0560856,2,1809
12,6.9471e-22,1,2811,64.5,-5.81984e-06,5.72034e-06,-4.20862e-08,8.16056e-06,109.375,-144,-153.09,1.0833e+07,1e+06,-7.75981e-08,2.60082e-07,-8.38838e-08,-0.00259273,0.0532037,-0.00173502,0.0563844,2,1810
12,6.98239e-22,1,2812,64.5,-5.89458e-06,5.68312e-06,-3.51517e-08,8.18811e-06,109.125,-144,-153.09,1.0833e+07,1e+06,-7.45556e-08,2.40933e-07,-7.05734e-08,-0.00264971,0.0498932,0.000246312,0.0519255,2,1811
12,7.00004e-22,1,2813,64.5,-5.96895e-06,5.64608e-06,-3.25229e-08,8.2163e-06,109,-144,-153.09,1.0833e+07,1e+06,-7.31109e-08,2.26806e-07,-6.50719e-08,-0.00333437,0.0469484,0.000316089,0.0493167,2,1812
12,7.00004e-22,1,2814,64.5,-6.0408e-06,5.60963e-06,-2.99205e-08,8.24379e-06,109,-144,-153.09,1.0833e+07,1e+06,-6.94258e-08,2.10968e-07,-5.98571e-08,-0.00357259,0.0437153,0.000348538,0.0462984,2,1813
12,7.00004e-22,1,2815,64.5,-6.10781e-06,5.57098e-06,-2.65181e-08,8.26691e-06,109,-144,-153.09,1.0833e+07,1e+06,-6.32782e-08,1.90592e-07,-5.31928e-08,-0.00343268,0.0396826,0.000491497,0.0422368,2,1814
12,6.97979e-22,1,2816,64.5,-6.16736e-06,5.5311e-06,-2.25359e-08,8.28432e-06,110,-144,-153.09,1.0833e+07,1e+06,-5.53893e-08,1.6674e-07,-4.57421e-08,-0.00345669,0.0362817,-0.000302807,0.0393878,2,1815
12,6.91904e-22,1,2817,64.5,-6.21858e-06,5.48706e-06,-1.73533e-08,8.29331e-06,113,-144,-153.09,1.0833e+07,1e+06,-4.8382e-08,1.46029e-07,-3.37895e-08,-0.00331658,0.0357066,-0.00073624,0.0389134,2,1816
12,6.85829e-22,1,2818,121.75,-6.26413e-06,5.44755e-06,-1.13482e-08,8.30152e-06,116,-23.35,126.79,1.0833e+07,1e+06,-4.53609e-08,1.34968e-07,-2.20604e-08,-0.00290504,0.0363396,4.81461e-05,0.0384337,2,1817
12,6.83804e-22,1,2819,121.75,-6.30931e-06,5.43056e-06,-9.52001e-09,8.32457e-06,117,-23.35,126.79,1.0833e+07,1e+06,-4.67222e-08,1.35394e-07,-1.97252e-08,-0.00313074,0.037091,0.000216591,0.0387792,2,1818
12,6.83804e-22,1,2820,121.75,-6.35757e-06,5.43393e-06,-1.04253e-08,8.36339e-06,117,-23.35,126.79,1.0833e+07,1e+06,-4.90808e-08,1.41423e-07,-2.04099e-08,-0.00338223,0.0386612,0.000377687,0.0403419,2,1819
12,6.83804e-22,1,2821,121.75,-6.40747e-06,5.44363e-06,-1.01788e-08,8.40766e-06,117,-23.35,126.79,1.0833e+07,1e+06,-4.86635e-08,1.41509e-07,-1.96341e-08,-0.00319292,0.0387774,0.000706279,0.0401981,2,1820
12,6.83804e-22,1,2822,121.75,-6.4549e-06,5.46018e-06,-9.40995e-09,8.45455e-06,117,-23.35,126.79,1.0833e+07,1e+06,-4.66125e-08,1.39427e-07,-1.87225e-08,-0.00273107,0.0383805,0.00107757,0.0393917,2,1821
12,6.63107e-22,1,2823,121.75,-6.50069e-06,5.48169e-06,-1.15474e-08,8.50341e-06,117.375,-23.35,126.79,1.01872e+07,968750,-4.75208e-08,1.49235e-07,-2.43136e-08,-0.00233868,0.039135,0.000982366,0.0402341,2,1822
12,5.8032e-22,1,2824,121.75,-6.54994e-06,5.51049e-06,-2.64286e-08,8.55967e-06,118.875,-23.35,126.79,7.60394e+06,843750,-5.54288e-08,1.91274e-07,-5.56955e-08,-0.00178475,0.0389037,-0.000109438,0.040815,2,1823
12,4.56139e-22,2,2825,155.53,-6.61155e-06,5.60852e-06,-5.81794e-08,8.67015e-06,121.125,-173.56,119.95,3.72906e+06,656250,-7.00646e-08,2.71991e-07,-1.15936e-07,-0.000394129,0.0378629,-0.00028349,0.0393906,3,1000
12,3.73351e-22,2,2826,155.53,-6.69007e-06,5.81318e-06,-8.65063e-08,8.86327e-06,122.625,-173.56,119.95,1.14581e+06,531250,-8.2507e-08,3.38355e-07,-1.69332e-07,0.000359102,0.0360888,-8.94719e-05,0.0367381,3,1001
12,3.52654e-22,2,2827,155.53,-6.77656e-06,6.07514e-06,-9.32184e-08,9.10153e-06,123,-173.56,119.95,500000,500000,-8.66496e-08,3.53679e-07,-1.86404e-07,0.000172327,0.0339426,-0.000413227,0.0343646,3,1002
12,3.52654e-22,2,2828,155.53,-6.86337e-06,6.35719e-06,-8.94741e-08,9.35562e-06,123,-173.56,119.95,500000,500000,-8.66571e-08,3.40877e-07,-1.80276e-07,-0.000123752,0.031636,-0.000603724,0.0320661,3,1003
12,3.35602e-22,2,2829,110.47,-4.00538e-08,5.07513e-06,-4.80491e-08,5.07551e-06,6,-113.15,-163.66,500000,500000,-7.82903e-08,2.41727e-07,-9.59683e-08,0.00275949,0.0250567,0.000385685,0.0237747,3,1004
12,3.5019e-22,2,2830,110.47,-1.16527e-07,5.17428e-06,-4.4959e-08,5.17578e-06,7.3125,-113.15,-163.66,1.14581e+06,531250,-6.89025e-08,2.31996e-07,-9.00317e-08,0.00335096,0.0261381,0.00130255,0.0244917,3,1005
12,4.23129e-22,2,2831,110.47,-1.77859e-07,5.27059e-06,-3.6956e-08,5.27372e-06,13.875,-113.15,-163.66,4.37488e+06,687500,-5.4289e-08,2.01365e-07,-7.38482e-08,0.00402408,0.0283745,0.000358171,0.0282052,3,1006
12,5.25244e-22,1,2832,71.87,-2.25105e-07,5.3648e-06,-2.83884e-08,5.36959e-06,23.0625,-131.18,-164.33,8.89556e+06,906250,-4.72702e-08,1.82259e-07,-5.75096e-08,0.00501651,0.0313927,0.000788935,0.0297838,2,1824
12,5.69008e-22,1,2833,71.87,-2.72399e-07,5.44815e-06,-2.88879e-08,5.45503e-06,27,-131.18,-164.33,1.0833e+07,1e+06,-4.97928e-08,1.82174e-07,-5.73338e-08,0.00453122,0.032263,0.000406468,0.0299959,2,1825
12,5.69008e-22,1,2834,71.87,-3.24691e-07,5.52066e-06,-2.90335e-08,5.53028e-06,27,-131.18,-164.33,1.0833e+07,1e+06,-5.45745e-08,1.87106e-07,-5.78499e-08,0.00356142,0.033243,0.000214783,0.0317692,2,1826
12,5.69008e-22,1,2835,71.87,-3.81548e-07,5.58622e-06,-2.939e-08,5.59931e-06,27,-131.18,-164.33,1.0833e+07,1e+06,-5.8938e-08,1.92337e-07,-5.87652e-08,0.00280845,0.0341229,6.417e-05,0.033255,2,1827
12,5.69008e-22,1,2836,71.87,-4.42567e-07,5.64944e-06,-2.96348e-08,5.66683e-06,27,-131.18,-164.33,1.0833e+07,1e+06,-6.26428e-08,1.96783e-07,-5.92801e-08,0.00222247,0.0348263,5.91995e-05,0.0343607,2,1828
12,5.69008e-22,1,2837,71.87,-5.06834e-07,5.71403e-06,-2.96441e-08,5.73654e-06,27,-131.18,-164.33,1.0833e+07,1e+06,-6.51912e-08,1.98744e-07,-5.92927e-08,0.00171597,0.0350376,5.7211e-05,0.0348649,2,1829
12,5.69008e-22,1,2838,71.87,-5.72949e-07,5.78268e-06,-2.93078e-08,5.81107e-06,27,-131.18,-164.33,1.0833e+07,1e+06,-6.62619e-08,1.97803e-07,-5.86023e-08,0.00132932,0.0347382,8.79594e-05,0.0347198,2,1830
12,5.69008e-22,1,2839,71.87,-6.39358e-07,5.85839e-06,-2.84647e-08,5.89325e-06,27,-131.18,-164.33,1.0833e+07,1e+06,-6.47202e-08,1.93403e-07,-5.68543e-08,0.00133382,0.0339719,0.000299312,0.0337654,2,1831
12,5.59067e-22,1,2840,71.87,-7.02389e-07,5.94417e-06,-2.68263e-08,5.98558e-06,27.5,-131.18,-164.33,1.01872e+07,968750,-5.92159e-08,1.81191e-07,-5.41871e-08,0.00150034,0.0317648,3.16912e-05,0.0317138,2,1832
12,5.09363e-22,1,2841,71.87,-7.5779e-07,6.02987e-06,-2.56744e-08,6.07736e-06,30,-131.18,-164.33,6.95812e+06,812500,-5.63761e-08,1.74641e-07,-5.03727e-08,0.00256546,0.0297023,-0.000675342,0.0299284,2,1833
12,4.39778e-22,2,2842,117.14,-8.15142e-07,6.08649e-06,-1.87095e-08,6.14086e-06,33.5,133.75,99.63,2.43744e+06,593750,-6.16283e-08,1.75613e-07,-3.6987e-08,0.0048411,0.0280939,0.000280207,0.0266164,3,1007
12,4.09956e-22,2,2843,117.14,-8.81046e-07,6.12958e-06,-1.29004e-08,6.19259e-06,35,133.75,99.63,500000,500000,-6.64294e-08,1.74033e-07,-2.68674e-08,0.00597889,0.0266016,0.00116735,0.0236664,3,1008
12,4.09956e-22,2,2844,117.14,-9.48e-07,6.18467e-06,-1.43996e-08,6.25692e-06,35,133.75,99.63,500000,500000,-6.69448e-08,1.74638e-07,-2.89082e-08,0.00589989,0.0264208,0.000611513,0.0237408,3,1009
12,4.09956e-22,2,2845,117.14,-1.01494e-06,6.23898e-06,-1.5209e-08,6.32102e-06,35,133.75,99.63,500000,500000,-6.73932e-08,1.77654e-07,-3.09895e-08,0.00598221,0.0268537,0.000299463,0.0242926,3,1010
12,4.09956e-22,2,2846,117.14,-1.08279e-06,6.2855e-06,-1.59797e-08,6.3781e-06,35,133.75,99.63,500000,500000,-6.79333e-08,1.79038e-07,-3.16917e-08,0.00598166,0.0270313,0.000181758,0.0245229,3,1011
12,4.09956e-22,2,2847,117.14,-1.1508e-06,6.32482e-06,-1.63044e-08,6.42868e-06,35,133.75,99.63,500000,500000,-6.89932e-08,1.791e-07,-3.19698e-08,0.0058094,0.026862,-1.00741e-05,0.0245253,3,1012
12,4.09956e-22,2,2848,117.14,-1.22077e-06,6.35905e-06,-1.61629e-08,6.47519e-06,35,133.75,99.63,500000,500000,-7.16065e-08,1.82178e-07,-3.23306e-08,0.00568249,0.0271526,-0.000130166,0.024923,3,1013
12,4.09956e-22,2,2849,117.14,-1.29402e-06,6.38543e-06,-1.59798e-08,6.51525e-06,35,133.75,99.63,500000,500000,-7.46339e-08,1.86064e-07,-3.19616e-08,0.00560773,0.027643,-3.28387e-05,0.0253702,3,1014
12,4.09956e-22,2,2850,117.14,-1.37004e-06,6.40038e-06,-1.57638e-08,6.54539e-06,35,133.75,99.63,500000,500000,-7.71949e-08,1.88708e-07,-3.16338e-08,0.00545827,0.0279163,1.52085e-05,0.0256709,3,1015
12,4.09956e-22,2,2851,117.14,-1.44841e-06,6.40315e-06,-1.56561e-08,6.56494e-06,35,133.75,99.63,500000,500000,-7.96995e-08,1.90653e-07,-3.13735e-08,0.00523176,0.0280364,-3.60999e-06,0.0258935,3,1016
12,4.09956e-22,2,2852,117.14,-1.52944e-06,6.39518e-06,-1.55507e-08,6.57554e-06,35,133.75,99.63,500000,500000,-8.27532e-08,1.93258e-07,-3.1046e-08,0.00499216,0.0282336,-1.18646e-05,0.0261936,3,1017
12,4.09956e-22,2,2853,117.14,-1.61391e-06,6.37815e-06,-1.5248e-08,6.57919e-06,35,133.75,99.63,500000,500000,-8.61474e-08,1.96322e-07,-3.04913e-08,0.00476913,0.0285044,3.40473e-05,0.0265267,3,1018
12,4.09956e-22,2,2854,117.14,-1.70173e-06,6.35354e-06,-1.51535e-08,6.57751e-06,35,133.75,99.63,500000,500000,-8.68936e-08,1.9876e-07,-3.03252e-08,0.0049494,0.0289423,0.000192466,0.0268121,3,1019
12,5.14261e-22,2,2855,117.14,-1.7877e-06,6.32809e-06,-1.94405e-08,6.57579e-06,40,133.75,99.63,3.08325e+06,625000,-7.58534e-08,1.9944e-07,-3.8876e-08,0.00459448,0.0324765,0.000342267,0.0307561,3,1020
12,7.2287e-22,1,2856,130.6,-1.85344e-06,6.33059e-06,-2.78709e-08,6.59639e-06,50,117.2,-48.36,8.24975e+06,875000,-5.67856e-08,1.98523e-07,-5.57453e-08,0.00404049,0.0373344,-9.61568e-05,0.0360721,2,1834
12,8.27175e-22,1,2857,130.6,-1.90127e-06,6.3607e-06,-3.16423e-08,6.63885e-06,55,117.2,-48.36,1.0833e+07,1e+06,-4.71182e-08,1.96978e-07,-6.32864e-08,0.0043006,0.0389354,-0.000322003,0.0373177,2,1835
12,8.27175e-22,1,2858,130.6,-1.94768e-06,6.39148e-06,-3.10359e-08,6.68172e-06,55,117.2,-48.36,1.0833e+07,1e+06,-4.61362e-08,1.95669e-07,-6.20659e-08,0.00451866,0.0388737,-3.52614e-05,0.0369837,2,1836
12,8.27175e-22,1,2859,130.6,-1.99354e-06,6.41981e-06,-3.09392e-08,6.72229e-06,55,117.2,-48.36,1.0833e+07,1e+06,-4.58719e-08,1.95336e-07,-6.18787e-08,0.00456292,0.0388534,-4.99201e-07,0.0369291,2,1837
12,8.27175e-22,1,2860,130.6,-2.03942e-06,6.44687e-06,-3.10717e-08,6.76183e-06,55,117.2,-48.36,1.0833e+07,1e+06,-4.61479e-08,1.96256e-07,-6.21428e-08,0.00456768,0.0390323,4.3657e-06,0.0371017,2,1838
12,8.27175e-22,1,2861,130.6,-2.08584e-06,6.47333e-06,-3.13737e-08,6.80115e-06,55,117.2,-48.36,1.0833e+07,1e+06,-4.68653e-08,1.98434e-07,-6.27487e-08,0.00456331,0.0394481,1.64495e-05,0.0375102,2,1839
12,8.27175e-22,1,2862,130.6,-2.13315e-06,6.49976e-06,-3.18608e-08,6.84092e-06,55,117.2,-48.36,1.0833e+07,1e+06,-4.7839e-08,2.0184e-07,-6.37022e-08,0.00460276,0.0401142,4.40036e-05,0.0381426,2,1840
12,8.27175e-22,1,2863,130.6,-2.18152e-06,6.52669e-06,-3.24725e-08,6.8817e-06,55,117.2,-48.36,1.0833e+07,1e+06,-4.87614e-08,2.06652e-07,-6.50222e-08,0.00480651,0.0410993,0.000128663,0.038993,2,1841
12,8.27175e-22,1,2864,130.6,-2.23068e-06,6.55506e-06,-3.36578e-08,6.9243e-06,55,117.2,-48.36,1.0833e+07,1e+06,-5.07886e-08,2.13877e-07,-6.74856e-08,0.00492061,0.0423813,8.81329e-05,0.0402898,2,1842
12,7.33629e-22,1,2865,130.6,-2.28309e-06,6.5857e-06,-3.62454e-08,6.97031e-06,54.25,117.2,-48.36,8.89556e+06,906250,-6.2777e-08,2.33236e-07,-7.20425e-08,0.00449868,0.0434518,-0.000410062,0.0421106,2,1843
12,5.15356e-22,2,2866,53.81,-2.35623e-06,6.57797e-06,-3.67568e-08,6.98734e-06,52.5,55.09,-94.23,4.37488e+06,687500,-8.54887e-08,2.51543e-07,-7.30814e-08,0.00297692,0.039735,-0.000848427,0.0395114,3,1021
12,3.76899e-22,2,2867,53.81,-2.45407e-06,6.49869e-06,-2.74058e-08,6.94666e-06,53.8125,55.09,-94.23,1.79163e+06,562500,-9.44015e-08,2.41168e-07,-5.58201e-08,0.00118046,0.0348226,0.00273262,0.0342978,3,1022
12,4.08501e-22,2,2868,51.21,-2.54503e-06,6.44993e-06,-3.29453e-08,6.93397e-06,59.3125,116.77,99.47,3.72906e+06,656250,-8.34463e-08,2.29527e-07,-6.58402e-08,0.000571561,0.0330407,0.00145313,0.0341224,3,1023
12,4.95654e-22,1,2869,80.41,-2.62096e-06,6.4477e-06,-4.15339e-08,6.96017e-06,63.4375,-123.18,-170.23,7.60394e+06,843750,-7.51265e-08,2.24964e-07,-8.24581e-08,0.000944985,0.0325363,-0.0017798,0.0350399,2,1844
12,5.51414e-22,1,2870,80.41,-2.69529e-06,6.42306e-06,-3.51458e-08,6.96574e-06,64.6875,-123.18,-170.23,1.01872e+07,968750,-7.2592e-08,2.12132e-07,-7.07826e-08,0.00125295,0.0322949,0.000178461,0.0336124,2,1845
12,5.65354e-22,1,2871,80.41,-2.76615e-06,6.39059e-06,-3.35233e-08,6.96365e-06,65,-123.18,-170.23,1.0833e+07,1e+06,-6.8395e-08,2.00561e-07,-6.70705e-08,0.00128916,0.0306849,0.000293766,0.031739,2,1846
12,5.65354e-22,1,2872,80.41,-2.83208e-06,6.35958e-06,-3.27118e-08,6.96175e-06,65,-123.18,-170.23,1.0833e+07,1e+06,-6.49663e-08,1.90741e-07,-6.52142e-08,0.00115903,0.0288496,1.09503e-05,0.0296825,2,1847
12,5.65354e-22,1,2873,80.41,-2.89608e-06,6.33743e-06,-3.2203e-08,6.96788e-06,65,-123.18,-170.23,1.0833e+07,1e+06,-6.49745e-08,1.8637e-07,-6.43834e-08,0.000743054,0.0276256,-0.000107793,0.0281049,2,1848
12,5.65354e-22,1,2874,80.41,-2.96202e-06,6.33077e-06,-3.27044e-08,6.98951e-06,65,-123.18,-170.23,1.0833e+07,1e+06,-6.87197e-08,1.90141e-07,-6.56414e-08,0.000182629,0.027576,-0.000108766,0.0278739,2,1849
12,5.65354e-22,1,2875,80.41,-3.03352e-06,6.34266e-06,-3.3903e-08,7.03084e-06,65,-123.18,-170.23,1.0833e+07,1e+06,-7.49629e-08,1.99336e-07,-6.7907e-08,-0.000493635,0.028487,-3.44646e-06,0.0288646,2,1850
12,5.65354e-22,1,2876,80.41,-3.11195e-06,6.36741e-06,-3.48259e-08,7.08727e-06,65,-123.18,-170.23,1.0833e+07,1e+06,-8.05824e-08,2.07555e-07,-6.94497e-08,-0.00109216,0.0294629,0.000143047,0.0300494,2,1851
12,5.65354e-22,1,2877,80.41,-3.19468e-06,6.39828e-06,-3.48869e-08,7.15159e-06,65,-123.18,-170.23,1.0833e+07,1e+06,-8.38143e-08,2.09626e-07,-6.98311e-08,-0.00172861,0.0293814,9.68639e-05,0.0303067,2,1852
12,5.64968e-22,1,2878,80.41,-3.27958e-06,6.44201e-06,-3.26181e-08,7.22885e-06,65.25,-123.18,-170.23,1.0833e+07,1e+06,-8.49459e-08,2.0726e-07,-6.57492e-08,-0.00240251,0.0301545,0.000286882,0.0315261,2,1853
12,5.29378e-22,1,2879,80.41,-3.36458e-06,6.50137e-06,-3.64265e-08,7.32048e-06,68,-123.18,-170.23,8.24975e+06,875000,-7.86599e-08,2.02608e-07,-7.20885e-08,-0.00379361,0.0295172,-0.00111621,0.0329292,2,1854
12,4.59358e-22,2,2880,82.04,-3.4369e-06,6.49673e-06,-4.40724e-08,7.34995e-06,72.75,62.56,148.29,3.08325e+06,625000,-6.57826e-08,2.00449e-07,-8.7338e-08,-0.00488197,0.0262272,-0.000919969,0.0303035,3,1024
12,4.24542e-22,2,2881,82.04,-3.49614e-06,6.41912e-06,-4.78556e-08,7.30961e-06,75,62.56,148.29,500000,500000,-5.83078e-08,2.01862e-07,-9.61674e-08,-0.00497289,0.0242641,0.000516336,0.0273485,3,1025
12,4.24542e-22,2,2882,82.04,-3.55351e-06,6.32803e-06,-4.95417e-08,7.25768e-06,75,62.56,148.29,500000,500000,-5.69441e-08,1.99987e-07,-9.93481e-08,-0.00505514,0.0232694,5.00649e-05,0.0264388,3,1026
12,4.24542e-22,2,2883,82.04,-3.61003e-06,6.2263e-06,-4.84099e-08,7.19732e-06,75,62.56,148.29,500000,500000,-5.58657e-08,1.94161e-07,-9.69502e-08,-0.00502411,0.0223025,4.12522e-06,0.0254009,3,1027
12,4.24542e-22,2,2884,82.04,-3.66525e-06,6.12432e-06,-4.72128e-08,7.13748e-06,75,62.56,148.29,500000,500000,-5.47034e-08,1.89212e-07,-9.44949e-08,-0.00494734,0.0216892,-1.61527e-05,0.0247401,3,1028
12,4.24542e-22,2,2885,82.04,-3.71944e-06,6.02255e-06,-4.65145e-08,7.07866e-06,75,62.56,148.29,500000,500000,-5.42752e-08,1.87096e-07,-9.30276e-08,-0.00484488,0.021445,3.36537e-05,0.0243937,3,1029
12,4.24542e-22,2,2886,82.04,-3.7738e-06,5.91251e-06,-4.63322e-08,7.01437e-06,75,62.56,148.29,500000,500000,-5.53127e-08,1.85009e-07,-9.23833e-08,-0.00503153,0.020797,-0.00016871,0.0238812,3,1030
12,5.31023e-22,2,2887,82.04,-3.83006e-06,5.78686e-06,-3.84771e-08,6.93964e-06,76.75,62.56,148.29,3.08325e+06,625000,-6.06698e-08,1.76741e-07,-7.712e-08,-0.00499058,0.022494,-0.000522498,0.0260558,3,1031
12,7.43987e-22,1,2888,133.1,-3.89514e-06,5.73155e-06,-2.46209e-08,6.92989e-06,80.25,119.51,-49.37,8.24975e+06,875000,-7.00411e-08,1.66123e-07,-4.95961e-08,-0.00465717,0.0265181,0.000207292,0.029551,2,1855
12,8.50469e-22,1,2889,133.1,-3.97014e-06,5.75896e-06,-2.09393e-08,6.99486e-06,82,119.51,-49.37,1.0833e+07,1e+06,-7.90209e-08,1.72122e-07,-4.16848e-08,-0.00493804,0.0299505,0.000474521,0.0325861,2,1856
12,8.50469e-22,1,2890,133.1,-4.05318e-06,5.79586e-06,-2.40142e-08,7.07254e-06,82,119.51,-49.37,1.0833e+07,1e+06,-8.73794e-08,1.9082e-07,-4.79227e-08,-0.00561491,0.0331543,-1.94894e-05,0.0363841,2,1857
12,8.50469e-22,1,2891,133.1,-4.1449e-06,5.84045e-06,-2.56591e-08,7.16183e-06,82,119.51,-49.37,1.0833e+07,1e+06,-9.41959e-08,2.0531e-07,-5.13287e-08,-0.00607028,0.0356489,5.69332e-05,0.0391208,2,1858
12,8.50469e-22,1,2892,133.1,-4.24157e-06,5.8913e-06,-2.70988e-08,7.25941e-06,82,119.51,-49.37,1.0833e+07,1e+06,-9.77852e-08,2.1477e-07,-5.42065e-08,-0.00612357,0.0371839,5.87268e-05,0.0406385,2,1859
12,8.50469e-22,1,2893,133.1,-4.34047e-06,5.95082e-06,-2.83161e-08,7.36564e-06,82,119.51,-49.37,1.0833e+07,1e+06,-9.92255e-08,2.20825e-07,-5.66528e-08,-0.00590641,0.0380563,4.40909e-05,0.04134,2,1860
12,8.50469e-22,1,2894,133.1,-4.44002e-06,6.02064e-06,-2.93236e-08,7.48083e-06,82,119.51,-49.37,1.0833e+07,1e+06,-9.98485e-08,2.24559e-07,-5.87136e-08,-0.00570302,0.0384456,-2.7931e-05,0.0416435,2,1861
12,8.50469e-22,1,2895,133.1,-4.54017e-06,6.10222e-06,-3.02109e-08,7.606e-06,82,119.51,-49.37,1.0833e+07,1e+06,-1.00292e-07,2.27838e-07,-6.04589e-08,-0.00545899,0.0387094,4.45255e-06,0.0418511,2,1862
12,7.36433e-22,1,2896,133.1,-4.6406e-06,6.20148e-06,-3.26921e-08,7.74562e-06,83.3125,119.51,-49.37,8.89556e+06,906250,-9.43658e-08,2.29376e-07,-6.59203e-08,-0.00500364,0.0384333,-0.000541136,0.0425474,2,1863
12,4.70348e-22,2,2897,99.87,-4.7289e-06,6.26228e-06,-5.15221e-08,7.84738e-06,86.375,165.01,-32.53,4.37488e+06,687500,-7.6497e-08,2.58722e-07,-1.02328e-07,-0.00419559,0.0399155,-0.000676742,0.044475,3,1032
12,2.80287e-22,2,2898,99.87,-4.7936e-06,6.23083e-06,-7.24176e-08,7.86174e-06,88.5625,165.01,-32.53,1.14581e+06,531250,-5.52752e-08,2.81941e-07,-1.44237e-07,-0.0038761,0.0388945,-0.000284251,0.042524,3,1033
12,2.42275e-22,2,2899,99.87,-4.83945e-06,6.17573e-06,-7.68166e-08,7.84639e-06,89,165.01,-32.53,500000,500000,-4.19356e-08,2.73334e-07,-1.54277e-07,-0.00360771,0.0361483,-0.000303439,0.0392705,3,1034
12,2.42275e-22,2,2900,99.87,-4.87747e-06,6.15027e-06,-7.64855e-08,7.84993e-06,89,165.01,-32.53,500000,500000,-3.77297e-08,2.69857e-07,-1.5295e-07,-0.00314944,0.0363702,-0.000124757,0.039379,3,1035
12,2.42275e-22,2,2901,99.87,-4.91491e-06,6.1432e-06,-7.52771e-08,7.86772e-06,89,165.01,-32.53,500000,500000,-3.76902e-08,2.67225e-07,-1.50556e-07,-0.00327022,0.0363067,-2.32837e-05,0.0394684,3,1036
12,2.42275e-22,2,2902,99.87,-4.95285e-06,6.15042e-06,-7.40314e-08,7.89708e-06,89,165.01,-32.53,500000,500000,-3.8122e-08,2.63771e-07,-1.48009e-07,-0.00346937,0.0359786,-5.57285e-05,0.0393508,3,1037
12,2.42275e-22,2,2903,99.87,-4.99116e-06,6.1716e-06,-7.22322e-08,7.9376e-06,89,165.01,-32.53,500000,500000,-3.88731e-08,2.57527e-07,-1.44762e-07,-0.00388201,0.0350916,-0.000322734,0.0388694,3,1038
12,2.50858e-22,2,2904,99.87,-5.0306e-06,6.20842e-06,-6.68708e-08,7.99099e-06,89.25,165.01,-32.53,500000,500000,-4.33179e-08,2.46467e-07,-1.33515e-07,-0.00430795,0.033787,-0.000371736,0.0379863,3,1039
12,2.9377e-22,2,2905,99.87,-5.07779e-06,6.25766e-06,-5.49143e-08,8.05887e-06,90.5,165.01,-32.53,500000,500000,-5.53173e-08,2.3661e-07,-1.09468e-07,-0.00393134,0.0331912,0.000762982,0.0368912,3,1040
12,3.53847e-22,2,2906,82.05,-5.14123e-06,6.297e-06,-4.86328e-08,8.12938e-06,92.25,-126.68,-31.71,500000,500000,-6.80792e-08,2.32813e-07,-9.73835e-08,-0.00412999,0.0315524,0.000730277,0.0351313,3,1041
12,3.72291e-22,2,2907,82.05,-5.21395e-06,6.31723e-06,-5.03196e-08,8.19116e-06,93.3125,-126.68,-31.71,500000,500000,-7.84349e-08,2.34914e-07,-1.01254e-07,-0.00533206,0.0287827,-0.000366353,0.0332083,3,1042
12,3.63104e-22,2,2908,82.05,-5.2981e-06,6.32058e-06,-5.01039e-08,8.24755e-06,95.5625,-126.68,-31.71,1.14581e+06,531250,-1.0433e-07,2.48678e-07,-9.89045e-08,-0.00668498,0.0263174,-0.000634036,0.0317771,3,1043
12,3.64945e-22,2,2909,9.76003,-5.42261e-06,6.30012e-06,-3.92853e-08,8.31251e-06,99,161.5,100.91,2.43744e+06,593750,-1.4206e-07,2.74917e-07,-7.83819e-08,-0.00574716,0.0288197,-0.000117258,0.0345361,3,1044
12,4.50658e-22,2,2910,50.35,-5.58222e-06,6.19265e-06,-2.60176e-08,8.33731e-06,102.562,-96.61,171.85,5.02069e+06,718750,-1.41548e-07,2.9233e-07,-5.45699e-08,-0.00227178,0.0435118,0.00268039,0.0467733,3,1045
12,6.16324e-22,1,2911,64.5,-5.7057e-06,6.05221e-06,-3.32433e-08,8.31778e-06,106.812,-144,-153.09,8.89556e+06,906250,-1.00826e-07,2.78316e-07,-6.60559e-08,-0.00165745,0.0542946,0.0013384,0.0566652,2,1864
12,7.00004e-22,1,2912,64.5,-5.78387e-06,5.97538e-06,-3.9542e-08,8.31624e-06,109,-144,-153.09,1.0833e+07,1e+06,-7.73497e-08,2.54116e-07,-7.80999e-08,-0.00272726,0.0525968,-0.000960859,0.0552825,2,1865
12,7.00004e-22,1,2913,64.5,-5.8604e-06,5.92317e-06,-3.482e-08,8.33243e-06,109,-144,-153.09,1.0833e+07,1e+06,-7.71433e-08,2.40724e-07,-6.9738e-08,-0.00331559,0.049649,0.0001844,0.0518553,2,1866
12,7.00004e-22,1,2914,64.5,-5.93816e-06,5.87393e-06,-3.27988e-08,8.3526e-06,109,-144,-153.09,1.0833e+07,1e+06,-7.72702e-08,2.29304e-07,-6.54852e-08,-0.00430062,0.0470458,0.00015676,0.0498646,2,1867
12,7.00004e-22,1,2915,64.5,-6.01494e-06,5.82184e-06,-3.01352e-08,8.37104e-06,109,-144,-153.09,1.0833e+07,1e+06,-7.48289e-08,2.14643e-07,-6.0492e-08,-0.00486254,0.0440405,0.000142017,0.0473721,2,1868
12,7.00004e-22,1,2916,64.5,-6.08782e-06,5.76185e-06,-2.64254e-08,8.38219e-06,109,-144,-153.09,1.0833e+07,1e+06,-6.86566e-08,1.93447e-07,-5.25852e-08,-0.00480867,0.0400861,0.000514714,0.0435219,2,1869
12,6.96966e-22,1,2917,64.5,-6.15226e-06,5.69692e-06,-2.1377e-08,8.38484e-06,110.5,-144,-153.09,1.0833e+07,1e+06,-5.93115e-08,1.63491e-07,-4.17301e-08,-0.00485883,0.0360143,-0.000199285,0.0400943,2,1870
12,6.89879e-22,1,2918,121.75,-6.20644e-06,5.63045e-06,-1.20385e-08,8.37986e-06,114,-23.35,126.79,1.0833e+07,1e+06,-5.27704e-08,1.37441e-07,-2.42763e-08,-0.00464902,0.0344552,0.000131344,0.0381214,2,1871
12,6.84816e-22,1,2919,121.75,-6.2578e-06,5.57994e-06,-5.53481e-09,8.38426e-06,116.5,-23.35,126.79,1.0833e+07,1e+06,-5.25107e-08,1.31165e-07,-1.18026e-08,-0.00420407,0.0357035,0.00163876,0.0378539,2,1872
12,6.83804e-22,1,2920,121.75,-6.31146e-06,5.56499e-06,-6.53459e-09,8.41449e-06,117,-23.35,126.79,1.0833e+07,1e+06,-5.38769e-08,1.36636e-07,-1.30715e-08,-0.00434004,0.0373906,0.00149348,0.0392776,2,1873
12,6.83804e-22,1,2921,121.75,-6.36555e-06,5.57588e-06,-7.79319e-09,8.46231e-06,117,-23.35,126.79,1.0833e+07,1e+06,-5.45822e-08,1.43355e-07,-1.52708e-08,-0.00428854,0.0392264,0.00149667,0.0409603,2,1874
12,6.63107e-22,1,2922,121.75,-6.42062e-06,5.58618e-06,-1.05678e-08,8.51058e-06,117.375,-23.35,126.79,1.01872e+07,968750,-5.60575e-08,1.52548e-07,-2.0681e-08,-0.00406504,0.0398621,0.00123034,0.0417948,2,1875
12,6.21713e-22,1,2923,121.75,-6.47767e-06,5.59945e-06,-1.80694e-08,8.56238e-06,118.125,-23.35,126.79,8.89556e+06,906250,-5.55128e-08,1.72589e-07,-3.76963e-08,-0.00288719,0.0392118,0.000709345,0.0412125,2,1876
12,5.59623e-22,1,2924,121.75,-6.53165e-06,5.64066e-06,-3.29674e-08,8.63021e-06,119.25,-23.35,126.79,6.95812e+06,812500,-5.59748e-08,2.13264e-07,-6.87729e-08,-0.00079128,0.040323,0.000153799,0.0417645,2,1877
12,4.56139e-22,2,2925,155.53,-6.58962e-06,5.74183e-06,-6.20551e-08,8.74045e-06,121.125,-173.56,119.95,3.72906e+06,656250,-6.57638e-08,2.83209e-07,-1.22915e-07,0.000796731,0.040182,-7.43963e-05,0.0409988,3,1046
12,3.73351e-22,2,2926,155.53,-6.66318e-06,5.9312e-06,-8.94684e-08,8.92105e-06,122.625,-173.56,119.95,1.14581e+06,531250,-7.78543e-08,3.44482e-07,-1.75359e-07,0.001098,0.0373128,-6.31242e-05,0.0377081,3,1047
12,3.52654e-22,2,2927,155.53,-6.74533e-06,6.17191e-06,-9.54556e-08,9.14336e-06,123,-173.56,119.95,500000,500000,-8.30708e-08,3.57677e-07,-1.90922e-07,0.000540985,0.0349134,-0.000474223,0.035327,3,1048
12,3.52654e-22,2,2928,155.53,-6.82932e-06,6.42562e-06,-9.04357e-08,9.37744e-06,123,-173.56,119.95,500000,500000,-8.42325e-08,3.45875e-07,-1.82069e-07,0.000373414,0.0331008,-0.000212681,0.0332056,3,1049
12,3.52654e-22,2,2929,155.53,-6.91379e-06,6.69054e-06,-8.4965e-08,9.62139e-06,123,-173.56,119.95,500000,500000,-8.42883e-08,3.26673e-07,-1.70042e-07,2.00624e-05,0.0304159,-0.000196383,0.0305556,3,1050
12,3.35602e-22,2,2930,110.47,-4.40884e-08,5.32493e-06,-5.38451e-08,5.32538e-06,6,-113.15,-163.66,500000,500000,-8.54488e-08,2.57605e-07,-1.07908e-07,0.00182863,0.025929,-0.000902108,0.0260294,3,1051
12,3.35602e-22,2,2931,110.47,-1.26809e-07,5.41583e-06,-5.14285e-08,5.41756e-06,6,-113.15,-163.66,500000,500000,-7.54596e-08,2.47088e-07,-1.01858e-07,0.00231706,0.0257343,0.00111282,0.0241971,3,1052
12,3.79366e-22,2,2932,110.47,-1.95008e-07,5.48275e-06,-4.41935e-08,5.48639e-06,9.9375,-113.15,-163.66,2.43744e+06,593750,-6.11398e-08,2.2026e-07,-8.94968e-08,0.00279617,0.0272103,0.000248215,0.0272317,3,1053
12,4.81481e-22,1,2933,71.87,-2.49089e-07,5.55164e-06,-3.46963e-08,5.55733e-06,19.125,-131.18,-164.33,6.95813e+06,812500,-5.23976e-08,1.97056e-07,-6.96572e-08,0.00394349,0.0313122,-0.000269501,0.0314757,2,1878
12,5.5442e-22,1,2934,71.87,-2.99803e-07,5.63408e-06,-3.23323e-08,5.64214e-06,25.6875,-131.18,-164.33,1.01872e+07,968750,-5.29269e-08,1.9206e-07,-6.34833e-08,0.00423351,0.033231,-0.000419774,0.0320299,2,1879
12,5.69008e-22,1,2935,71.87,-3.54943e-07,5.71157e-06,-3.03585e-08,5.72267e-06,27,-131.18,-164.33,1.0833e+07,1e+06,-5.7647e-08,1.94769e-07,-6.13164e-08,0.00344673,0.0341146,1.51459e-05,0.0326256,2,1880
12,5.69008e-22,1,2936,71.87,-4.15097e-07,5.78148e-06,-3.04274e-08,5.79645e-06,27,-131.18,-164.33,1.0833e+07,1e+06,-6.23076e-08,1.98727e-07,-6.08336e-08,0.00253352,0.03486,7.41357e-05,0.033922,2,1881
12,5.69008e-22,1,2937,71.87,-4.79558e-07,5.84839e-06,-3.03117e-08,5.86809e-06,27,-131.18,-164.33,1.0833e+07,1e+06,-6.62246e-08,2.01414e-07,-6.06304e-08,0.0017133,0.0351977,4.77778e-05,0.0347786,2,1882
12,5.69008e-22,1,2938,71.87,-5.47546e-07,5.91438e-06,-2.99801e-08,5.93975e-06,27,-131.18,-164.33,1.0833e+07,1e+06,-6.92384e-08,2.02047e-07,-5.99557e-08,0.000949359,0.0351238,3.99627e-05,0.0351469,2,1883
12,5.69008e-22,1,2939,71.87,-6.18035e-07,5.98182e-06,-2.9384e-08,6.01374e-06,27,-131.18,-164.33,1.0833e+07,1e+06,-7.10611e-08,2.0038e-07,-5.87551e-08,0.000290721,0.0346304,5.70014e-05,0.0349875,2,1884
12,5.69008e-22,1,2940,71.87,-6.89668e-07,6.05255e-06,-2.83398e-08,6.09178e-06,27,-131.18,-164.33,1.0833e+07,1e+06,-7.08847e-08,1.95373e-07,-5.65676e-08,-0.00014712,0.033661,0.000154475,0.0342029,2,1885
12,5.69008e-22,1,2941,71.87,-7.59804e-07,6.12538e-06,-2.58898e-08,6.17238e-06,27,-131.18,-164.33,1.0833e+07,1e+06,-6.78462e-08,1.85237e-07,-5.18651e-08,-0.000272873,0.0321203,0.000633552,0.0325917,2,1886
12,5.2497e-22,1,2942,71.87,-8.25361e-07,6.20133e-06,-2.54766e-08,6.25607e-06,28.9375,-131.18,-164.33,8.24975e+06,875000,-6.68046e-08,1.74586e-07,-5.06241e-08,-0.00100199,0.0290485,-0.000590271,0.031108,2,1887
12,4.36896e-22,2,2943,117.14,-8.93413e-07,6.25951e-06,-2.22286e-08,6.32299e-06,32.8125,133.75,99.63,3.08325e+06,625000,-6.99322e-08,1.74568e-07,-4.45362e-08,3.06172e-05,0.0267111,-0.000561508,0.0285077,3,1054
12,3.92858e-22,2,2944,117.14,-9.65225e-07,6.30352e-06,-1.93256e-08,6.37702e-06,34.75,133.75,99.63,500000,500000,-6.77158e-08,1.77107e-07,-3.91953e-08,0.00230507,0.0263156,0.000721242,0.0259856,3,1055
12,3.92858e-22,2,2945,117.14,-1.02884e-06,6.35721e-06,-2.20141e-08,6.43997e-06,34.75,133.75,99.63,500000,500000,-5.83017e-08,1.74548e-07,-4.39075e-08,0.00362415,0.0262786,0.000334862,0.0253889,3,1056
12,3.97133e-22,2,2946,117.14,-1.08183e-06,6.41445e-06,-2.23506e-08,6.50507e-06,34.8125,133.75,99.63,500000,500000,-5.36252e-08,1.76282e-07,-4.4388e-08,0.00533006,0.0271613,0.000224869,0.0255075,3,1057
12,4.05682e-22,2,2947,117.14,-1.1361e-06,6.46213e-06,-1.80136e-08,6.56126e-06,34.9375,133.75,99.63,500000,500000,-5.73441e-08,1.76598e-07,-3.59141e-08,0.00665158,0.0275091,0.000675236,0.0247558,3,1058
12,4.09956e-22,2,2948,117.14,-1.19652e-06,6.50057e-06,-1.48338e-08,6.60979e-06,35,133.75,99.63,500000,500000,-6.07912e-08,1.74513e-07,-2.98666e-08,0.00701155,0.0270705,0.000969498,0.0237533,3,1059
12,4.09956e-22,2,2949,117.14,-1.25768e-06,6.53843e-06,-1.57238e-08,6.65831e-06,35,133.75,99.63,500000,500000,-6.21652e-08,1.7641e-07,-3.17329e-08,0.00683798,0.0271331,0.000519044,0.0241348,3,1060
12,4.09956e-22,2,2950,117.14,-1.32085e-06,6.56948e-06,-1.64398e-08,6.70097e-06,35,133.75,99.63,500000,500000,-6.48327e-08,1.81035e-07,-3.34305e-08,0.00670442,0.027683,0.00021117,0.0249024,3,1061
12,4.09956e-22,2,2951,117.14,-1.38734e-06,6.58742e-06,-1.70471e-08,6.73195e-06,35,133.75,99.63,500000,500000,-6.79473e-08,1.84628e-07,-3.37744e-08,0.00649854,0.0280524,0.000103903,0.0253963,3,1062
12,4.09956e-22,2,2952,117.14,-1.45674e-06,6.59229e-06,-1.69968e-08,6.75135e-06,35,133.75,99.63,500000,500000,-7.14196e-08,1.87054e-07,-3.33835e-08,0.00618374,0.0281537,4.34565e-05,0.025638,3,1063
12,4.09956e-22,2,2953,117.14,-1.53018e-06,6.58718e-06,-1.64272e-08,6.7626e-06,35,133.75,99.63,500000,500000,-7.5829e-08,1.90643e-07,-3.30038e-08,0.0058236,0.0283858,-1.27507e-05,0.0260296,3,1064
12,4.09956e-22,2,2954,117.14,-1.6084e-06,6.57334e-06,-1.59907e-08,6.76728e-06,35,133.75,99.63,500000,500000,-8.03474e-08,1.94091e-07,-3.20539e-08,0.0054693,0.0286316,4.54622e-05,0.0263617,3,1065
12,4.09956e-22,2,2955,117.14,-1.69088e-06,6.55135e-06,-1.5885e-08,6.76605e-06,35,133.75,99.63,500000,500000,-8.21138e-08,1.97375e-07,-3.17421e-08,0.00556749,0.0291336,0.000210043,0.0267408,3,1066
12,5.14261e-22,2,2956,117.14,-1.77263e-06,6.52699e-06,-2.00246e-08,6.76345e-06,40,133.75,99.63,3.08325e+06,625000,-7.24105e-08,1.99038e-07,-4.00522e-08,0.00515331,0.0327134,0.000341946,0.030755,3,1067
12,7.2287e-22,1,2957,130.6,-1.8357e-06,6.52886e-06,-2.81384e-08,6.78208e-06,50,117.2,-48.36,8.24975e+06,875000,-5.45779e-08,1.98345e-07,-5.62741e-08,0.00454285,0.0375131,-8.33172e-05,0.0360328,2,1888
12,8.27175e-22,1,2958,130.6,-1.88178e-06,6.55741e-06,-3.16872e-08,6.82215e-06,55,117.2,-48.36,1.0833e+07,1e+06,-4.54447e-08,1.96442e-07,-6.33733e-08,0.00472869,0.0390032,-0.000296808,0.0372092,2,1889
12,8.27175e-22,1,2959,130.6,-1.92659e-06,6.58681e-06,-3.10692e-08,6.86286e-06,55,117.2,-48.36,1.0833e+07,1e+06,-4.46693e-08,1.94964e-07,-6.21393e-08,0.00487106,0.0388594,-3.19503e-05,0.0368294,2,1890
12,8.27175e-22,1,2960,130.6,-1.97112e-06,6.61486e-06,-3.09919e-08,6.90236e-06,55,117.2,-48.36,1.0833e+07,1e+06,-4.47471e-08,1.94822e-07,-6.19852e-08,0.00483772,0.0388281,-1.81269e-07,0.0367885,2,1891
12,8.27175e-22,1,2961,130.6,-2.01608e-06,6.64294e-06,-3.11504e-08,6.9422e-06,55,117.2,-48.36,1.0833e+07,1e+06,-4.54588e-08,1.96058e-07,-6.2299e-08,0.00474822,0.0390216,4.24808e-07,0.0370103,2,1892
12,8.27175e-22,1,2962,130.6,-2.06204e-06,6.67168e-06,-3.1471e-08,6.98314e-06,55,117.2,-48.36,1.0833e+07,1e+06,-4.67084e-08,1.98556e-07,-6.29392e-08,0.00462046,0.0394494,1.89171e-06,0.0374846,2,1893
12,8.27175e-22,1,2963,130.6,-2.1095e-06,6.70159e-06,-3.19615e-08,7.02583e-06,55,117.2,-48.36,1.0833e+07,1e+06,-4.84942e-08,2.02303e-07,-6.39295e-08,0.00445139,0.0401071,-5.38693e-06,0.0382153,2,1894
12,8.27175e-22,1,2964,130.6,-2.15903e-06,6.73339e-06,-3.26507e-08,7.07114e-06,55,117.2,-48.36,1.0833e+07,1e+06,-5.12589e-08,2.07592e-07,-6.52776e-08,0.00414846,0.0410073,-1.97453e-05,0.0392514,2,1895
12,8.27175e-22,1,2965,130.6,-2.21202e-06,6.7692e-06,-3.33534e-08,7.12153e-06,55,117.2,-48.36,1.0833e+07,1e+06,-5.64461e-08,2.15556e-07,-6.69612e-08,0.00347716,0.0421347,6.60837e-05,0.0406392,2,1896
12,7.33629e-22,1,2966,130.6,-2.27192e-06,6.82033e-06,-3.5908e-08,7.18887e-06,54.25,117.2,-48.36,8.89556e+06,906250,-6.77754e-08,2.27911e-07,-7.2517e-08,0.00236871,0.0412715,-0.00131357,0.0413114,2,1897
12,5.15356e-22,2,2967,53.81,-2.34757e-06,6.83938e-06,-4.13537e-08,7.23118e-06,52.5,55.09,-94.23,4.37488e+06,687500,-8.30598e-08,2.50064e-07,-8.09249e-08,0.00260244,0.0385368,-0.00272193,0.0396092,3,1068
12,3.62959e-22,2,2968,53.81,-2.43804e-06,6.75524e-06,-3.3339e-08,7.18181e-06,53.5,55.09,-94.23,1.14581e+06,531250,-8.87892e-08,2.6078e-07,-6.67826e-08,0.00362,0.0383251,0.00236464,0.0369528,3,1069
12,3.52741e-22,2,2969,51.21,-2.52515e-06,6.6899e-06,-3.56652e-08,7.15069e-06,58.0625,116.77,99.47,1.14581e+06,531250,-8.06139e-08,2.52043e-07,-7.30989e-08,0.0030267,0.0363679,0.00200164,0.0360429,3,1070
12,4.12014e-22,2,2970,51.21,-2.59927e-06,6.67669e-06,-4.43496e-08,7.16494e-06,61.5625,116.77,99.47,3.72906e+06,656250,-7.10884e-08,2.34119e-07,-8.75217e-08,0.00256849,0.0329427,-0.00224818,0.0352453,3,1071
12,4.95654e-22,1,2971,80.41,-2.66732e-06,6.63426e-06,-3.67237e-08,7.15048e-06,63.4375,-123.18,-170.23,7.60394e+06,843750,-6.80456e-08,2.11309e-07,-7.29573e-08,0.00216277,0.0315241,-0.000642247,0.0330982,2,1898
12,5.51414e-22,1,2972,80.41,-2.73536e-06,6.58809e-06,-3.24506e-08,7.13345e-06,64.6875,-123.18,-170.23,1.01872e+07,968750,-6.67575e-08,1.97417e-07,-6.55868e-08,0.00150958,0.030137,0.000319931,0.0309849,2,1899
12,5.65354e-22,1,2973,80.41,-2.80084e-06,6.54554e-06,-2.98607e-08,7.11967e-06,65,-123.18,-170.23,1.0833e+07,1e+06,-6.45504e-08,1.82098e-07,-6.01664e-08,0.00065717,0.0274077,0.00037872,0.028084,2,1900
12,5.65354e-22,1,2974,80.41,-2.86446e-06,6.51919e-06,-2.92613e-08,7.1208e-06,65,-123.18,-170.23,1.0833e+07,1e+06,-6.74035e-08,1.76306e-07,-5.82452e-08,-0.00060383,0.0255484,0.000166255,0.0263523,2,1901
12,5.65354e-22,1,2975,80.41,-2.93564e-06,6.51888e-06,-3.03613e-08,7.14945e-06,65,-123.18,-170.23,1.0833e+07,1e+06,-7.59688e-08,1.876e-07,-6.07905e-08,-0.00164667,0.0264803,0.000368007,0.0273212,2,1902
12,5.64968e-22,1,2976,80.41,-3.0164e-06,6.54178e-06,-3.03442e-08,7.20378e-06,65.25,-123.18,-170.23,1.0833e+07,1e+06,-8.18488e-08,1.9297e-07,-6.09154e-08,-0.00296225,0.027982,-0.000132727,0.0297828,2,1903
12,5.64195e-22,1,2977,80.41,-3.09934e-06,6.57474e-06,-2.86398e-08,7.26869e-06,65.75,-123.18,-170.23,1.0833e+07,1e+06,-8.37522e-08,1.89673e-07,-5.69205e-08,-0.00409806,0.029303,-0.000915836,0.0322073,2,1904
12,5.63809e-22,1,2978,80.41,-3.1839e-06,6.60578e-06,-2.69532e-08,7.33309e-06,66,-123.18,-170.23,1.0833e+07,1e+06,-8.58159e-08,1.84583e-07,-5.2917e-08,-0.00509208,0.0289205,-0.00110066,0.0324749,2,1905
12,5.63036e-22,1,2979,80.41,-3.27097e-06,6.63854e-06,-2.06746e-08,7.40067e-06,66.5,-123.18,-170.23,1.0833e+07,1e+06,-8.32973e-08,1.72332e-07,-4.12946e-08,-0.00549365,0.0295115,-0.000353254,0.0332869,2,1906
12,5.35862e-22,1,2980,53.66,-3.3505e-06,6.6806e-06,-1.70001e-08,7.47373e-06,68.875,-114.01,-136.45,8.89556e+06,906250,-7.32253e-08,1.53429e-07,-3.58733e-08,-0.00584111,0.0282907,-0.00112016,0.0331683,2,1907
12,4.75415e-22,2,2981,82.04,-3.41742e-06,6.68568e-06,-2.93141e-08,7.50853e-06,72.5,62.56,148.29,4.37488e+06,687500,-6.43872e-08,1.67267e-07,-5.83809e-08,-0.0057271,0.0262268,-0.00102485,0.0311017,3,1072
12,4.32956e-22,2,2982,82.04,-3.47927e-06,6.6243e-06,-4.46087e-08,7.48256e-06,74.625,62.56,148.29,1.14581e+06,531250,-6.11707e-08,1.97986e-07,-8.76711e-08,-0.00526864,0.0255326,0.000363872,0.0291056,3,1073
12,4.24542e-22,2,2983,82.04,-3.53977e-06,6.52924e-06,-4.97301e-08,7.42721e-06,75,62.56,148.29,500000,500000,-5.91644e-08,2.03296e-07,-9.98379e-08,-0.00529662,0.0237256,8.58749e-05,0.0270397,3,1074
12,4.24542e-22,2,2984,82.04,-3.5976e-06,6.42125e-06,-4.903e-08,7.36054e-06,75,62.56,148.29,500000,500000,-5.64234e-08,1.96089e-07,-9.84696e-08,-0.00507522,0.0223746,-7.92757e-05,0.0255033,3,1075
12,4.24542e-22,2,2985,82.04,-3.65261e-06,6.31347e-06,-4.77756e-08,7.29409e-06,75,62.56,148.29,500000,500000,-5.39895e-08,1.89527e-07,-9.55746e-08,-0.00480442,0.0215694,-6.03717e-05,0.0245092,3,1076
12,4.24542e-22,2,2986,82.04,-3.70558e-06,6.21016e-06,-4.75669e-08,7.23185e-06,75,62.56,148.29,500000,500000,-5.26386e-08,1.88453e-07,-9.52534e-08,-0.00452462,0.0214994,-2.00281e-05,0.0242356,3,1077
12,4.24542e-22,2,2987,82.04,-3.75789e-06,6.10117e-06,-4.9088e-08,7.16578e-06,75,62.56,148.29,500000,500000,-5.34678e-08,1.91823e-07,-9.75355e-08,-0.00443438,0.0215958,-9.88082e-05,0.0242689,3,1078
12,5.04403e-22,2,2988,82.04,-3.81251e-06,5.97073e-06,-4.36907e-08,7.08427e-06,76.3125,62.56,148.29,2.43744e+06,593750,-6.05385e-08,1.94746e-07,-8.72476e-08,-0.00435027,0.0245485,-3.93673e-05,0.0275481,3,1079
12,6.90746e-22,1,2989,133.1,-3.87897e-06,5.90095e-06,-2.82648e-08,7.06175e-06,79.375,119.51,-49.37,6.95812e+06,812500,-7.40181e-08,1.79855e-07,-5.7701e-08,-0.0055554,0.0271786,0.000392698,0.0309199,2,1908
12,8.23849e-22,1,2990,133.1,-3.96055e-06,5.93189e-06,-2.15638e-08,7.13259e-06,81.5625,119.51,-49.37,1.01872e+07,968750,-8.60132e-08,1.77143e-07,-4.31125e-08,-0.00669321,0.0297074,0.00049118,0.033615,2,1909
12,8.50469e-22,1,2991,133.1,-4.05099e-06,5.98878e-06,-2.41941e-08,7.23025e-06,82,119.51,-49.37,1.0833e+07,1e+06,-9.25412e-08,1.95458e-07,-4.7844e-08,-0.00654098,0.0336612,0.000179241,0.0373771,2,1910
12,8.50469e-22,1,2992,133.1,-4.14563e-06,6.04553e-06,-2.53777e-08,7.33044e-06,82,119.51,-49.37,1.0833e+07,1e+06,-9.53154e-08,2.04596e-07,-5.07936e-08,-0.00644914,0.035406,3.48462e-05,0.0391338,2,1911
12,8.50469e-22,1,2993,133.1,-4.24162e-06,6.10393e-06,-2.6454e-08,7.43303e-06,82,119.51,-49.37,1.0833e+07,1e+06,-9.64574e-08,2.10527e-07,-5.2915e-08,-0.00617084,0.0364508,3.40097e-05,0.0399644,2,1912
12,8.50469e-22,1,2994,133.1,-4.33855e-06,6.16863e-06,-2.74478e-08,7.5416e-06,82,119.51,-49.37,1.0833e+07,1e+06,-9.73416e-08,2.15077e-07,-5.49207e-08,-0.00595569,0.0370802,1.23825e-05,0.0404174,2,1913
12,8.50469e-22,1,2995,133.1,-4.43631e-06,6.24254e-06,-2.83736e-08,7.65839e-06,82,119.51,-49.37,1.0833e+07,1e+06,-9.83637e-08,2.18761e-07,-5.66677e-08,-0.00585486,0.0374425,3.07031e-06,0.0407145,2,1914
12,8.50469e-22,1,2996,133.1,-4.53527e-06,6.32801e-06,-2.87873e-08,7.78545e-06,82,119.51,-49.37,1.0833e+07,1e+06,-9.90209e-08,2.21489e-07,-5.75788e-08,-0.00566148,0.0376114,0.000215682,0.0407543,2,1915
12,8.12457e-22,1,2997,133.1,-4.63435e-06,6.425e-06,-3.01061e-08,7.92204e-06,82.4375,119.51,-49.37,1.01872e+07,968750,-9.64684e-08,2.19334e-07,-5.99392e-08,-0.00553653,0.0367444,-0.000388682,0.0405306,2,1916
12,6.22396e-22,1,2998,133.1,-4.72821e-06,6.51214e-06,-3.95993e-08,8.0477e-06,84.625,119.51,-49.37,6.95813e+06,812500,-8.45826e-08,2.39885e-07,-7.96498e-08,-0.00384266,0.0391421,-0.000622444,0.0430979,2,1917
12,3.56312e-22,2,2999,99.87,-4.80351e-06,6.5074e-06,-5.99116e-08,8.08848e-06,87.6875,165.01,-32.53,2.43744e+06,593750,-6.40206e-08,2.66849e-07,-1.2014e-07,-0.00341504,0.0389961,7.40203e-05,0.0424529,3,1080
12,2.42275e-22,2,3000,99.87,-4.85625e-06,6.4469e-06,-7.31907e-08,8.07162e-06,89,165.01,-32.53,500000,500000,-4.82369e-08,2.69035e-07,-1.4585e-07,-0.00433867,0.0357407,-7.34228e-05,0.0392938,3,1081
12,2.42275e-22,2,3001,99.87,-4.89999e-06,6.41884e-06,-7.36342e-08,8.07569e-06,89,165.01,-32.53,500000,500000,-4.37428e-08,2.67271e-07,-1.4727e-07,-0.0039868,0.0360516,-0.000188573,0.039636,3,1082
12,2.42275e-22,2,3002,99.87,-4.94374e-06,6.40963e-06,-7.2422e-08,8.095e-06,89,165.01,-32.53,500000,500000,-4.42444e-08,2.65565e-07,-1.44867e-07,-0.00414691,0.0361313,-2.64732e-05,0.0398707,3,1083
12,2.42275e-22,2,3003,99.87,-4.98848e-06,6.41374e-06,-7.11039e-08,8.12564e-06,89,165.01,-32.53,500000,500000,-4.51117e-08,2.6265e-07,-1.42206e-07,-0.00437044,0.0358858,-2.60332e-05,0.0398416,3,1084
12,2.42275e-22,2,3004,99.87,-5.03396e-06,6.42909e-06,-6.92963e-08,8.16571e-06,89,165.01,-32.53,500000,500000,-4.51247e-08,2.57093e-07,-1.39167e-07,-0.00459431,0.0351715,-0.000146055,0.039364,3,1085
12,2.42275e-22,2,3005,99.87,-5.07873e-06,6.4558e-06,-6.79469e-08,8.21434e-06,89,165.01,-32.53,500000,500000,-4.64121e-08,2.47748e-07,-1.35305e-07,-0.0053332,0.0336682,-0.000733952,0.0386015,3,1086
12,2.76605e-22,2,3006,99.87,-5.12679e-06,6.49487e-06,-5.67532e-08,8.27469e-06,90,165.01,-32.53,500000,500000,-5.6879e-08,2.37022e-07,-1.13319e-07,-0.00525294,0.0329331,0.000252024,0.0376191,3,1087
12,3.45265e-22,2,3007,82.05,-5.19248e-06,6.53136e-06,-4.79214e-08,8.34403e-06,92,-126.68,-31.71,500000,500000,-7.33894e-08,2.33469e-07,-9.6279e-08,-0.00557567,0.0317538,0.000490657,0.0365523,3,1088
12,3.79594e-22,2,3008,82.05,-5.27356e-06,6.54983e-06,-4.91692e-08,8.40911e-06,93,-126.68,-31.71,500000,500000,-8.30632e-08,2.32855e-07,-9.71867e-08,-0.00705687,0.0295924,-0.000546562,0.0353673,3,1089
12,4.32368e-22,2,3009,82.05,-5.35861e-06,6.54741e-06,-4.18493e-08,8.46079e-06,96.3125,-126.68,-31.71,2.43744e+06,593750,-8.73492e-08,2.23294e-07,-8.39066e-08,-0.0074374,0.0300978,-0.000188914,0.0358488,3,1090
12,5.37068e-22,1,3010,64.5,-5.44826e-06,6.53187e-06,-2.87481e-08,8.50586e-06,102.875,-144,-153.09,6.31231e+06,781250,-9.21194e-08,2.1444e-07,-5.93959e-08,-0.00640995,0.0343393,0.000573261,0.0401192,2,1918
12,6.16324e-22,1,3011,64.5,-5.54285e-06,6.44774e-06,-2.63363e-08,8.50278e-06,106.812,-144,-153.09,8.89556e+06,906250,-9.31759e-08,2.34071e-07,-5.22472e-08,-0.00446194,0.0448738,0.00158766,0.049397,2,1919
12,6.71828e-22,1,3012,64.5,-5.63461e-06,6.31749e-06,-3.45365e-08,8.46527e-06,108.25,-144,-153.09,1.01872e+07,968750,-8.85378e-08,2.55649e-07,-6.81249e-08,-0.00428815,0.0524512,0.000277844,0.0562116,2,1920
12,7.00004e-22,1,3013,64.5,-5.71992e-06,6.22858e-06,-3.71919e-08,8.4566e-06,109,-144,-153.09,1.0833e+07,1e+06,-8.39971e-08,2.51038e-07,-7.47458e-08,-0.0048292,0.0513688,-0.000789247,0.0549875,2,1921
12,7.00004e-22,1,3014,64.5,-5.80261e-06,6.16456e-06,-3.48882e-08,8.46601e-06,109,-144,-153.09,1.0833e+07,1e+06,-8.17845e-08,2.41118e-07,-6.9602e-08,-0.00463414,0.0491943,-8.03802e-05,0.0521175,2,1922
12,7.00004e-22,1,3015,64.5,-5.88349e-06,6.10469e-06,-3.28972e-08,8.47843e-06,109,-144,-153.09,1.0833e+07,1e+06,-8.04895e-08,2.31181e-07,-6.59165e-08,-0.00503493,0.0470494,8.3595e-06,0.0501842,2,1923
12,7.00004e-22,1,3016,64.5,-5.96359e-06,6.03891e-06,-3.04946e-08,8.48727e-06,109,-144,-153.09,1.0833e+07,1e+06,-7.92304e-08,2.19213e-07,-6.03593e-08,-0.00564635,0.0447552,0.000360367,0.0483076,2,1924
12,7.00004e-22,1,3017,64.5,-6.04195e-06,5.95788e-06,-2.50272e-08,8.48541e-06,109,-144,-153.09,1.0833e+07,1e+06,-7.56476e-08,1.98043e-07,-4.95774e-08,-0.00623966,0.0409629,0.00137232,0.0448887,2,1925
12,6.75257e-22,1,3018,64.5,-6.11488e-06,5.85808e-06,-1.95868e-08,8.46814e-06,111.375,-144,-153.09,1.01872e+07,968750,-7.13702e-08,1.67077e-07,-3.90096e-08,-0.00753217,0.0352084,0.000116791,0.0410223,2,1926
12,6.25763e-22,1,3019,121.75,-6.18469e-06,5.76195e-06,-1.49575e-08,8.45285e-06,116.125,-23.35,126.79,8.89556e+06,906250,-7.03512e-08,1.57228e-07,-3.04762e-08,-0.00704956,0.0331287,0.000198957,0.0385671,2,1927
12,6.01017e-22,1,3020,121.75,-6.25559e-06,5.70988e-06,-1.5226e-08,8.46967e-06,118.5,-23.35,126.79,8.24975e+06,875000,-6.94201e-08,1.71478e-07,-3.11205e-08,-0.00508503,0.0356156,0.00174803,0.0385938,2,1928
12,6.01017e-22,1,3021,121.75,-6.32353e-06,5.70384e-06,-2.04607e-08,8.51594e-06,118.5,-23.35,126.79,8.24975e+06,875000,-6.4151e-08,1.82987e-07,-4.0626e-08,-0.00367328,0.0380164,0.00119781,0.0400992,2,1929
12,6.01017e-22,1,3022,121.75,-6.38389e-06,5.72064e-06,-2.34606e-08,8.57206e-06,118.5,-23.35,126.79,8.24975e+06,875000,-5.6488e-08,1.91231e-07,-4.79367e-08,-0.00177474,0.0400155,0.00115077,0.0410748,2,1930
12,5.59623e-22,1,3023,121.75,-6.43651e-06,5.74872e-06,-3.31691e-08,8.63004e-06,119.25,-23.35,126.79,6.95812e+06,812500,-5.44374e-08,2.14975e-07,-6.84888e-08,-0.000344794,0.041087,0.00049844,0.0419896,2,1931
12,4.76836e-22,2,3024,155.53,-6.49276e-06,5.80536e-06,-5.64905e-08,8.70984e-06,120.75,-173.56,119.95,4.37488e+06,687500,-5.95814e-08,2.64548e-07,-1.12674e-07,0.000467449,0.0395686,-0.000324854,0.040898,3,1091
12,4.14745e-22,2,3025,155.53,-6.55567e-06,5.90822e-06,-7.9239e-08,8.82554e-06,121.875,-173.56,119.95,2.43744e+06,593750,-6.61809e-08,3.19534e-07,-1.56384e-07,0.00161113,0.0395113,-0.000383933,0.0402643,3,1092
12,3.73351e-22,2,3026,155.53,-6.62512e-06,6.07691e-06,-9.49185e-08,8.99055e-06,122.625,-173.56,119.95,1.14581e+06,531250,-7.35217e-08,3.58892e-07,-1.87895e-07,0.00212343,0.0391484,-0.000307733,0.0391518,3,1093
12,3.52654e-22,2,3027,155.53,-6.70272e-06,6.29748e-06,-9.99422e-08,9.19753e-06,123,-173.56,119.95,500000,500000,-7.89187e-08,3.67806e-07,-1.9993e-07,0.00140893,0.0362543,-0.000478872,0.0363151,3,1094
12,3.52654e-22,2,3028,155.53,-6.78296e-06,6.52853e-06,-9.41564e-08,9.41484e-06,123,-173.56,119.95,500000,500000,-8.13989e-08,3.54688e-07,-1.89612e-07,0.000881193,0.0343847,-0.000288681,0.0343733,3,1095
12,3.52654e-22,2,3029,155.53,-6.86551e-06,6.76689e-06,-8.78834e-08,9.64022e-06,123,-173.56,119.95,500000,500000,-8.25613e-08,3.3733e-07,-1.75792e-07,0.000633607,0.0322763,0.000102662,0.0320435,3,1096
12,3.52654e-22,2,3030,155.53,-6.94808e-06,7.01053e-06,-8.15822e-08,9.87067e-06,123,-173.56,119.95,500000,500000,-8.20878e-08,3.15036e-07,-1.63252e-07,3.36842e-05,0.0292312,-0.000131636,0.0293211,3,1097
12,3.35602e-22,2,3031,110.47,-4.603e-08,5.59034e-06,-5.80305e-08,5.59083e-06,6,-113.15,-163.66,500000,500000,-8.84834e-08,2.72579e-07,-1.16405e-07,0.0017974,0.0276502,-0.00115284,0.0280652,3,1098
12,3.35602e-22,2,3032,110.47,-1.30937e-07,5.66845e-06,-5.4542e-08,5.67023e-06,6,-113.15,-163.66,500000,500000,-7.73222e-08,2.5539e-07,-1.09588e-07,0.00169365,0.0263173,0.000613944,0.0254289,3,1099
12,3.5019e-22,2,3033,110.47,-2.00674e-07,5.71111e-06,-5.43221e-08,5.71489e-06,7.3125,-113.15,-163.66,1.14581e+06,531250,-6.46202e-08,2.35618e-07,-1.07048e-07,0.00188224,0.0257826,-0.000683087,0.0262839,3,1100
12,4.23129e-22,2,3034,110.47,-2.60177e-07,5.75891e-06,-4.1264e-08,5.76493e-06,13.875,-113.15,-163.66,4.37488e+06,687500,-5.83005e-08,2.15747e-07,-8.22382e-08,0.00318704,0.0304117,-2.21024e-05,0.0310851,3,1101
12,5.25244e-22,1,3035,71.87,-3.17275e-07,5.83227e-06,-3.12886e-08,5.84098e-06,23.0625,-131.18,-164.33,8.89556e+06,906250,-5.82303e-08,2.02321e-07,-6.42447e-08,0.00375579,0.0341462,0.000373921,0.0333644,2,1932
12,5.69008e-22,1,3036,71.87,-3.76638e-07,5.9102e-06,-3.18981e-08,5.92227e-06,27,-131.18,-164.33,1.0833e+07,1e+06,-6.17338e-08,2.03058e-07,-6.3383e-08,0.00328343,0.0351104,0.000241439,0.0333663,2,1933
12,5.69008e-22,1,3037,71.87,-4.40743e-07,5.98367e-06,-3.15872e-08,5.99996e-06,27,-131.18,-164.33,1.0833e+07,1e+06,-6.59937e-08,2.05989e-07,-6.29467e-08,0.00230436,0.035707,0.000181321,0.0346525,2,1934
12,5.69008e-22,1,3038,71.87,-5.08625e-07,6.05227e-06,-3.11881e-08,6.07368e-06,27,-131.18,-164.33,1.0833e+07,1e+06,-6.9289e-08,2.06385e-07,-6.23697e-08,0.00137541,0.0356446,2.16399e-05,0.035216,2,1935
12,5.69008e-22,1,3039,71.87,-5.79321e-07,6.11812e-06,-3.05366e-08,6.14557e-06,27,-131.18,-164.33,1.0833e+07,1e+06,-7.18839e-08,2.05283e-07,-6.10821e-08,0.000559352,0.0352699,1.8328e-05,0.0353038,2,1936
12,5.69008e-22,1,3040,71.87,-6.52393e-07,6.18344e-06,-2.97384e-08,6.21783e-06,27,-131.18,-164.33,1.0833e+07,1e+06,-7.39019e-08,2.02734e-07,-5.9467e-08,-0.000235184,0.0345913,2.81143e-05,0.0350458,2,1937
12,5.69008e-22,1,3041,71.87,-7.27125e-07,6.24914e-06,-2.86547e-08,6.29136e-06,27,-131.18,-164.33,1.0833e+07,1e+06,-7.54246e-08,1.9833e-07,-5.72906e-08,-0.00109571,0.033584,3.67427e-05,0.0345141,2,1938
12,5.69008e-22,1,3042,71.87,-8.03242e-07,6.31464e-06,-2.64516e-08,6.36558e-06,27,-131.18,-164.33,1.0833e+07,1e+06,-7.66136e-08,1.92104e-07,-5.30869e-08,-0.00199252,0.0324641,0.000461675,0.0337853,2,1939
12,5.16421e-22,1,3043,71.87,-8.80352e-07,6.37904e-06,-2.71518e-08,6.43956e-06,28.8125,-131.18,-164.33,8.24975e+06,875000,-7.52631e-08,1.82185e-07,-5.49386e-08,-0.00361251,0.0290706,-0.00056272,0.0322905,2,1940
12,4.11249e-22,2,3044,103.3,-9.53768e-07,6.43563e-06,-3.06284e-08,6.50599e-06,32.4375,-73.15,30.56,3.08325e+06,625000,-7.02499e-08,1.7924e-07,-6.09344e-08,-0.00396702,0.0258253,-0.000989973,0.0299294,3,1102
12,3.58663e-22,2,3045,103.3,-1.02085e-06,6.48379e-06,-3.30077e-08,6.56375e-06,34.25,-73.15,30.56,500000,500000,-6.38404e-08,1.82127e-07,-6.53703e-08,-0.00281504,0.0252802,-0.000346234,0.0284296,3,1103
12,3.58663e-22,2,3046,103.3,-1.08145e-06,6.53376e-06,-3.49095e-08,6.62275e-06,34.25,-73.15,30.56,500000,500000,-5.65087e-08,1.81234e-07,-6.97088e-08,-0.00178348,0.0253298,-0.000549188,0.0279489,3,1104
12,3.67211e-22,2,3047,103.3,-1.13387e-06,6.59155e-06,-3.37624e-08,6.68845e-06,34.375,-73.15,30.56,500000,500000,-5.50862e-08,1.81268e-07,-6.66716e-08,-0.0003414,0.0259983,-0.000781477,0.0281296,3,1105
12,3.84309e-22,2,3048,117.14,-1.19162e-06,6.6387e-06,-2.58128e-08,6.74484e-06,34.625,133.75,99.63,500000,500000,-6.08719e-08,1.80637e-07,-5.20708e-08,0.00175957,0.0267421,-0.000205523,0.0273894,3,1106
12,3.92858e-22,2,3049,117.14,-1.25561e-06,6.67385e-06,-2.15286e-08,6.79097e-06,34.75,133.75,99.63,500000,500000,-5.93064e-08,1.78698e-07,-4.4031e-08,0.00380567,0.0270592,0.000636003,0.0259569,3,1107
12,3.92858e-22,2,3050,117.14,-1.31023e-06,6.71187e-06,-2.42585e-08,6.8386e-06,34.75,133.75,99.63,500000,500000,-4.95903e-08,1.76665e-07,-4.84119e-08,0.00522659,0.0272128,0.000441745,0.0255346,3,1108
12,3.97133e-22,2,3051,117.14,-1.35479e-06,6.7475e-06,-2.44e-08,6.88221e-06,34.8125,133.75,99.63,500000,500000,-4.59717e-08,1.78348e-07,-4.85233e-08,0.00677459,0.0280339,0.000242034,0.0258199,3,1109
12,4.05682e-22,2,3052,117.14,-1.40218e-06,6.76964e-06,-1.99494e-08,6.91336e-06,34.9375,133.75,99.63,500000,500000,-5.31896e-08,1.80098e-07,-3.99123e-08,0.00758432,0.028384,0.000396343,0.0254699,3,1110
12,4.09956e-22,2,3053,117.14,-1.46117e-06,6.77726e-06,-1.66334e-08,6.93301e-06,35,133.75,99.63,500000,500000,-6.28202e-08,1.82801e-07,-3.39978e-08,0.00724204,0.0282894,0.000409597,0.0252005,3,1111
12,4.09956e-22,2,3054,117.14,-1.52782e-06,6.77646e-06,-1.71573e-08,6.94658e-06,35,133.75,99.63,500000,500000,-6.92519e-08,1.87656e-07,-3.41019e-08,0.00661255,0.028507,0.000119002,0.0257849,3,1112
12,4.09956e-22,2,3055,117.14,-1.59968e-06,6.76634e-06,-1.69496e-08,6.95288e-06,35,133.75,99.63,500000,500000,-7.46593e-08,1.91564e-07,-3.33431e-08,0.00615051,0.0287108,6.75857e-05,0.026166,3,1113
12,4.09956e-22,2,3056,117.14,-1.67714e-06,6.74829e-06,-1.66155e-08,6.9536e-06,35,133.75,99.63,500000,500000,-7.80069e-08,1.96857e-07,-3.334e-08,0.0061546,0.0294177,0.000170953,0.0268175,3,1114
12,5.14261e-22,2,3057,117.14,-1.75569e-06,6.72617e-06,-2.06135e-08,6.95157e-06,40,133.75,99.63,3.08325e+06,625000,-6.97963e-08,1.99907e-07,-4.12131e-08,0.0056972,0.0331413,0.000375882,0.0309224,3,1115
12,7.2287e-22,1,3058,130.6,-1.81673e-06,6.72728e-06,-2.83924e-08,6.96833e-06,50,117.2,-48.36,8.24975e+06,875000,-5.27952e-08,1.98751e-07,-5.67977e-08,0.00501688,0.0377657,-3.82969e-05,0.0360509,2,1941
12,8.27175e-22,1,3059,130.6,-1.86128e-06,6.75359e-06,-3.17222e-08,7.00545e-06,55,117.2,-48.36,1.0833e+07,1e+06,-4.39878e-08,1.95853e-07,-6.34754e-08,0.00509391,0.0389999,-0.000279327,0.0370515,2,1942
12,8.27175e-22,1,3060,130.6,-1.90471e-06,6.78141e-06,-3.11053e-08,7.04389e-06,55,117.2,-48.36,1.0833e+07,1e+06,-4.35678e-08,1.94321e-07,-6.22131e-08,0.00513138,0.0387851,-2.7307e-05,0.0366383,2,1943
12,8.27175e-22,1,3061,130.6,-1.94842e-06,6.80946e-06,-3.10533e-08,7.0828e-06,55,117.2,-48.36,1.0833e+07,1e+06,-4.42265e-08,1.94585e-07,-6.21045e-08,0.00497102,0.0387743,2.04394e-06,0.0366625,2,1944
12,8.27175e-22,1,3062,130.6,-1.99316e-06,6.83899e-06,-3.12327e-08,7.12358e-06,55,117.2,-48.36,1.0833e+07,1e+06,-4.55034e-08,1.96221e-07,-6.24648e-08,0.00475733,0.0389919,-2.56643e-06,0.0369567,2,1945
12,8.27175e-22,1,3063,130.6,-2.03942e-06,6.87044e-06,-3.15806e-08,7.16681e-06,55,117.2,-48.36,1.0833e+07,1e+06,-4.73142e-08,1.99086e-07,-6.31632e-08,0.00450204,0.0394342,-1.2931e-05,0.0374999,2,1946
12,8.27175e-22,1,3064,130.6,-2.08779e-06,6.90437e-06,-3.21052e-08,7.21319e-06,55,117.2,-48.36,1.0833e+07,1e+06,-4.98809e-08,2.03214e-07,-6.42292e-08,0.00414033,0.040075,-4.67263e-05,0.038301,2,1947
12,8.27175e-22,1,3065,130.6,-2.13919e-06,6.94187e-06,-3.28512e-08,7.26408e-06,55,117.2,-48.36,1.0833e+07,1e+06,-5.39009e-08,2.08849e-07,-6.56619e-08,0.0034987,0.0408718,-0.000111746,0.03939,2,1948
12,8.27175e-22,1,3066,130.6,-2.19559e-06,6.98617e-06,-3.32406e-08,7.32314e-06,55,117.2,-48.36,1.0833e+07,1e+06,-5.89575e-08,2.15638e-07,-6.62998e-08,0.00278354,0.041834,0.000183871,0.0404735,2,1949
12,7.95993e-22,1,3067,130.6,-2.2571e-06,7.04152e-06,-3.3896e-08,7.3945e-06,54.75,117.2,-48.36,1.01872e+07,968750,-6.30568e-08,2.1588e-07,-6.80714e-08,0.00178807,0.040484,-0.000679044,0.04022,2,1950
12,6.40962e-22,1,3068,130.6,-2.3217e-06,7.0781e-06,-3.68013e-08,7.44924e-06,54.0625,117.2,-48.36,6.95812e+06,812500,-7.01761e-08,2.26875e-07,-7.37498e-08,0.00169745,0.0389034,-0.0019934,0.0403639,2,1951
12,4.27078e-22,2,3069,53.81,-2.39745e-06,7.02025e-06,-3.69085e-08,7.41842e-06,55.125,55.09,-94.23,2.43744e+06,593750,-7.93388e-08,2.64259e-07,-7.31689e-08,0.00410966,0.0418725,0.00205432,0.0410728,3,1116
12,3.39679e-22,2,3070,51.21,-2.48038e-06,6.95402e-06,-4.19698e-08,7.38325e-06,58.3125,116.77,99.47,500000,500000,-7.79457e-08,2.73407e-07,-8.3727e-08,0.00499718,0.0396967,0.00201101,0.038465,3,1117
12,3.56253e-22,2,3071,51.21,-2.55334e-06,6.91594e-06,-4.255e-08,7.37235e-06,60.3125,116.77,99.47,1.14581e+06,531250,-6.86243e-08,2.40871e-07,-8.59014e-08,0.00423619,0.0331894,-0.000967346,0.0337076,3,1118
12,4.12014e-22,2,3072,51.21,-2.61763e-06,6.84568e-06,-3.49063e-08,7.32915e-06,61.5625,116.77,99.47,3.72906e+06,656250,-6.45095e-08,2.13206e-07,-7.01129e-08,0.00365742,0.0305705,0.000233771,0.0306352,3,1119
12,4.77054e-22,1,3073,80.41,-2.68236e-06,6.78543e-06,-3.31234e-08,7.29645e-06,63.625,-123.18,-170.23,6.95812e+06,812500,-6.67556e-08,2.0344e-07,-6.55168e-08,0.00219615,0.0300634,0.000653386,0.0304081,2,1952
12,5.14214e-22,1,3074,80.41,-2.75114e-06,6.72377e-06,-2.84113e-08,7.26489e-06,65.0625,-123.18,-170.23,8.89556e+06,906250,-7.22872e-08,1.82867e-07,-5.74296e-08,-0.0013152,0.0261828,0.000429887,0.0281721,2,1953
12,5.46368e-22,1,3075,80.41,-2.82694e-06,6.69004e-06,-2.38174e-08,7.26284e-06,65.4375,-123.18,-170.23,1.01872e+07,968750,-7.97669e-08,1.65787e-07,-4.84492e-08,-0.00485137,0.0233103,-8.22241e-05,0.0268861,2,1954
12,5.64195e-22,1,3076,80.41,-2.91067e-06,6.70597e-06,-2.38307e-08,7.31045e-06,65.75,-123.18,-170.23,1.0833e+07,1e+06,-8.57417e-08,1.72105e-07,-4.63265e-08,-0.00589906,0.026016,-0.000270605,0.0298431,2,1955
12,5.63036e-22,1,3077,80.41,-2.99842e-06,6.7286e-06,-2.0369e-08,7.36648e-06,66.5,-123.18,-170.23,1.0833e+07,1e+06,-8.55141e-08,1.67166e-07,-3.96523e-08,-0.00673996,0.0284043,-0.000845225,0.0330461,2,1956
12,5.61491e-22,1,3078,53.66,-3.0817e-06,6.74675e-06,-1.19923e-08,7.41726e-06,67.5,-114.01,-136.45,1.0833e+07,1e+06,-8.14227e-08,1.50733e-07,-2.46572e-08,-0.0070578,0.0298046,-0.000612589,0.0345934,2,1957
12,5.60719e-22,1,3079,53.66,-3.16127e-06,6.76744e-06,-7.38516e-09,7.4694e-06,68,-114.01,-136.45,1.0833e+07,1e+06,-8.05489e-08,1.39759e-07,-1.52219e-08,-0.00724522,0.0291996,-0.000149409,0.0338242,2,1958
12,5.60333e-22,1,3080,53.66,-3.2428e-06,6.78668e-06,-3.83852e-09,7.52162e-06,68.25,-114.01,-136.45,1.0833e+07,1e+06,-8.00367e-08,1.31834e-07,-7.26095e-09,-0.0074588,0.0289428,0.000592432,0.0335132,2,1959
12,5.51146e-22,1,3081,53.66,-3.32134e-06,6.80822e-06,1.40811e-10,7.57517e-06,69.125,-114.01,-136.45,1.01872e+07,968750,-7.53235e-08,1.20256e-07,-8.60381e-10,-0.00724017,0.0279302,0.000899196,0.0324482,2,1960
12,5.17101e-22,1,3082,53.66,-3.39345e-06,6.83126e-06,-9.03432e-09,7.6277e-06,70.875,-114.01,-136.45,7.60394e+06,843750,-6.91519e-08,1.29705e-07,-1.94067e-08,-0.00697569,0.0263034,-0.00034314,0.0315274,2,1961
12,4.66614e-22,2,3083,82.04,-3.45964e-06,6.81509e-06,-3.0012e-08,7.643e-06,73.125,62.56,148.29,3.72906e+06,656250,-6.49754e-08,1.68714e-07,-5.86978e-08,-0.00621667,0.0261696,-0.000580398,0.0310377,3,1120
12,4.32956e-22,2,3084,82.04,-3.5234e-06,6.73462e-06,-4.51112e-08,7.60075e-06,74.625,62.56,148.29,1.14581e+06,531250,-6.30803e-08,1.98641e-07,-8.89068e-08,-0.00558087,0.0249663,0.000191229,0.0286142,3,1121
12,4.24542e-22,2,3085,82.04,-3.5858e-06,6.61848e-06,-4.83642e-08,7.52759e-06,75,62.56,148.29,500000,500000,-6.03461e-08,1.98361e-07,-9.70914e-08,-0.00550702,0.0225772,3.60377e-05,0.0259051,3,1122
12,4.24542e-22,2,3086,82.04,-3.64409e-06,6.50337e-06,-4.72979e-08,7.4549e-06,75,62.56,148.29,500000,500000,-5.68039e-08,1.89284e-07,-9.49993e-08,-0.00531697,0.0212075,-0.000223321,0.0244943,3,1123
12,4.24542e-22,2,3087,82.04,-3.69941e-06,6.39946e-06,-4.7637e-08,7.39195e-06,75,62.56,148.29,500000,500000,-5.55227e-08,1.89968e-07,-9.52979e-08,-0.00499845,0.0214617,-9.9704e-05,0.0245084,3,1124
12,4.24542e-22,2,3088,82.04,-3.75513e-06,6.29615e-06,-4.99631e-08,7.3311e-06,75,62.56,148.29,500000,500000,-5.81203e-08,1.97793e-07,-1.00164e-07,-0.00518583,0.0220318,-0.000331268,0.0252377,3,1125
12,4.51162e-22,2,3089,82.04,-3.81565e-06,6.17635e-06,-5.12493e-08,7.2601e-06,75.4375,62.56,148.29,1.14581e+06,531250,-6.51671e-08,2.1289e-07,-1.01977e-07,-0.00545939,0.0249421,-0.000221203,0.0284682,3,1126
12,5.84264e-22,2,3090,82.04,-3.88547e-06,6.09126e-06,-3.95494e-08,7.22508e-06,77.625,62.56,148.29,4.37488e+06,687500,-7.68243e-08,2.01974e-07,-7.87968e-08,-0.00676044,0.0271984,-0.000135362,0.0318964,3,1127
12,7.70608e-22,1,3091,133.1,-3.9693e-06,6.11324e-06,-2.57535e-08,7.28888e-06,80.6875,119.51,-49.37,8.89556e+06,906250,-8.87202e-08,1.88959e-07,-5.19816e-08,-0.0073075,0.0303354,0.000122832,0.0350174,2,1962
12,8.50469e-22,1,3092,133.1,-4.06291e-06,6.18677e-06,-2.39848e-08,7.40162e-06,82,119.51,-49.37,1.0833e+07,1e+06,-9.38313e-08,1.98624e-07,-4.80033e-08,-0.00653139,0.034334,0.000347804,0.0380377,2,1963
12,8.50469e-22,1,3093,133.1,-4.15696e-06,6.24964e-06,-2.51069e-08,7.50593e-06,82,119.51,-49.37,1.0833e+07,1e+06,-9.38654e-08,2.02459e-07,-5.02181e-08,-0.00625765,0.035163,3.13449e-05,0.0388135,2,1964
12,8.50469e-22,1,3094,133.1,-4.25064e-06,6.31235e-06,-2.59141e-08,7.61015e-06,82,119.51,-49.37,1.0833e+07,1e+06,-9.40379e-08,2.06207e-07,-5.18326e-08,-0.00592093,0.0357974,3.21017e-05,0.0391817,2,1965
12,8.50469e-22,1,3095,133.1,-4.34504e-06,6.38097e-06,-2.67225e-08,7.7199e-06,82,119.51,-49.37,1.0833e+07,1e+06,-9.47628e-08,2.09775e-07,-5.34328e-08,-0.00575756,0.0362462,3.5957e-05,0.0394662,2,1966
12,8.50469e-22,1,3096,133.1,-4.44017e-06,6.45817e-06,-2.74045e-08,7.83733e-06,82,119.51,-49.37,1.0833e+07,1e+06,-9.49379e-08,2.12442e-07,-5.48204e-08,-0.0055139,0.0365071,7.91622e-05,0.0395452,2,1967
12,8.50469e-22,1,3097,133.1,-4.53492e-06,6.5452e-06,-2.78185e-08,7.96278e-06,82,119.51,-49.37,1.0833e+07,1e+06,-9.34003e-08,2.1323e-07,-5.54959e-08,-0.00490921,0.0365207,0.000278739,0.0391692,2,1968
12,8.50469e-22,1,3098,133.1,-4.62697e-06,6.64015e-06,-2.84146e-08,8.09328e-06,82,119.51,-49.37,1.0833e+07,1e+06,-9.14988e-08,2.12888e-07,-5.62177e-08,-0.00429881,0.0362182,0.000385722,0.0384954,2,1969
12,6.98421e-22,1,3099,133.1,-4.71791e-06,6.74205e-06,-3.1195e-08,8.22891e-06,83.75,119.51,-49.37,8.24975e+06,875000,-8.68059e-08,2.25046e-07,-6.31879e-08,-0.00323363,0.0378747,0.000730766,0.0403191,2,1970
12,3.94324e-22,2,3100,99.87,-4.80058e-06,6.76453e-06,-4.99385e-08,8.29499e-06,87.25,165.01,-32.53,3.08325e+06,625000,-7.31953e-08,2.51266e-07,-1.00543e-07,-0.00429361,0.0374821,0.000694659,0.0411694,3,1128
12,2.42275e-22,2,3101,99.87,-4.8643e-06,6.7138e-06,-6.85782e-08,8.29103e-06,89,165.01,-32.53,500000,500000,-5.80058e-08,2.65362e-07,-1.36462e-07,-0.0056535,0.0353635,-7.60126e-05,0.0398287,3,1129
12,2.42275e-22,2,3102,99.87,-4.91659e-06,6.68481e-06,-7.05316e-08,8.29847e-06,89,165.01,-32.53,500000,500000,-5.11503e-08,2.65027e-07,-1.40991e-07,-0.00497913,0.0356955,-0.000250067,0.0399231,3,1130
12,2.42275e-22,2,3103,99.87,-4.9666e-06,6.67433e-06,-7.00381e-08,8.31978e-06,89,165.01,-32.53,500000,500000,-4.96758e-08,2.638e-07,-1.40113e-07,-0.00489601,0.0358918,-5.92317e-05,0.0401356,3,1131
12,2.42275e-22,2,3104,99.87,-5.01594e-06,6.67572e-06,-6.91875e-08,8.35043e-06,89,165.01,-32.53,500000,500000,-4.91018e-08,2.61251e-07,-1.38427e-07,-0.00492702,0.0357594,-1.63594e-05,0.0401041,3,1132
12,2.42275e-22,2,3105,99.87,-5.06481e-06,6.68578e-06,-6.79301e-08,8.38788e-06,89,165.01,-32.53,500000,500000,-4.82519e-08,2.5623e-07,-1.35851e-07,-0.00499017,0.0351964,-5.71718e-05,0.0396656,3,1133
12,2.42275e-22,2,3106,99.87,-5.11244e-06,6.70392e-06,-6.65593e-08,8.43114e-06,89,165.01,-32.53,500000,500000,-4.86101e-08,2.48095e-07,-1.32644e-07,-0.00550562,0.0339581,-0.000513105,0.0389881,3,1134
12,2.68023e-22,2,3107,99.87,-5.16203e-06,6.73171e-06,-5.68071e-08,8.48326e-06,89.75,165.01,-32.53,500000,500000,-5.57964e-08,2.35997e-07,-1.14404e-07,-0.00550402,0.0329284,7.8906e-05,0.0379594,3,1135
12,3.281e-22,2,3108,82.05,-5.22404e-06,6.76393e-06,-4.75999e-08,8.54656e-06,91.5,-126.68,-31.71,500000,500000,-6.81853e-08,2.28743e-07,-9.5831e-08,-0.0053549,0.0319391,0.000471814,0.0369554,3,1136
12,3.91038e-22,2,3109,82.05,-5.2984e-06,6.78294e-06,-4.70938e-08,8.60718e-06,93.75,-126.68,-31.71,1.14581e+06,531250,-7.43013e-08,2.26868e-07,-9.28653e-08,-0.00552259,0.0311728,-0.000375225,0.0363207,3,1137
12,4.99748e-22,2,3110,82.05,-5.37264e-06,6.76717e-06,-4.0569e-08,8.64069e-06,99,-126.68,-31.71,4.37488e+06,687500,-6.91951e-08,2.19209e-07,-8.11331e-08,-0.00373548,0.0350005,-9.76322e-05,0.03841,3,1138
12,6.39927e-22,1,3111,64.5,-5.43679e-06,6.729e-06,-3.14207e-08,8.65096e-06,106,-144,-153.09,8.89556e+06,906250,-6.23778e-08,2.03886e-07,-6.34312e-08,-0.00226287,0.0395901,0.000363151,0.0419341,2,1971
12,7.00004e-22,1,3112,64.5,-5.4974e-06,6.66079e-06,-3.09029e-08,8.63646e-06,109,-144,-153.09,1.0833e+07,1e+06,-6.65834e-08,2.13497e-07,-6.1294e-08,-0.00270332,0.0446927,0.000451992,0.0473403,2,1972
12,7.00004e-22,1,3113,64.5,-5.56995e-06,6.56351e-06,-3.45184e-08,8.60844e-06,109,-144,-153.09,1.0833e+07,1e+06,-7.69571e-08,2.39339e-07,-6.91282e-08,-0.0037473,0.0498873,8.55975e-05,0.052959,2,1973
12,7.00004e-22,1,3114,64.5,-5.65131e-06,6.47745e-06,-3.5556e-08,8.59627e-06,109,-144,-153.09,1.0833e+07,1e+06,-8.08878e-08,2.44036e-07,-7.14223e-08,-0.00437803,0.050158,-0.00031156,0.0533401,2,1974
12,7.00004e-22,1,3115,64.5,-5.73173e-06,6.4054e-06,-3.47998e-08,8.59553e-06,109,-144,-153.09,1.0833e+07,1e+06,-7.90754e-08,2.38263e-07,-6.94494e-08,-0.00410387,0.0487413,-0.00015452,0.0514071,2,1975
12,7.00004e-22,1,3116,64.5,-5.80946e-06,6.3363e-06,-3.33639e-08,8.59649e-06,109,-144,-153.09,1.0833e+07,1e+06,-7.68484e-08,2.30071e-07,-6.6779e-08,-0.00405759,0.0470098,-0.000102327,0.0495595,2,1976
12,7.00004e-22,1,3117,64.5,-5.88543e-06,6.26027e-06,-3.07712e-08,8.59245e-06,109,-144,-153.09,1.0833e+07,1e+06,-7.45158e-08,2.208e-07,-6.10923e-08,-0.00404003,0.0456202,0.000649017,0.0480122,2,1977
12,6.78378e-22,1,3118,64.5,-5.95849e-06,6.15793e-06,-2.81343e-08,8.56881e-06,108.875,-144,-153.09,1.01872e+07,968750,-7.18496e-08,2.05087e-07,-5.70342e-08,-0.00460562,0.0416936,0.000309395,0.0454198,2,1978
12,5.90611e-22,1,3119,64.5,-6.02913e-06,6.03107e-06,-3.07056e-08,8.5279e-06,111.875,-144,-153.09,7.60394e+06,843750,-7.4809e-08,1.94284e-07,-6.19458e-08,-0.00562515,0.0342326,-0.00179164,0.0403894,2,1979
12,4.79956e-22,2,3120,155.53,-6.10811e-06,5.9449e-06,-4.05008e-08,8.52365e-06,118.25,-173.56,119.95,4.37488e+06,687500,-8.2899e-08,2.20998e-07,-8.05694e-08,-0.00529364,0.0310733,-0.00123939,0.0365862,3,1139
12,4.35442e-22,2,3121,155.53,-6.19492e-06,5.92289e-06,-5.27669e-08,8.57091e-06,121.5,-173.56,119.95,3.08325e+06,625000,-8.40873e-08,2.58965e-07,-1.05602e-07,-0.00396832,0.033105,-0.000304606,0.0368098,3,1140
12,4.35442e-22,2,3122,155.53,-6.27628e-06,5.93096e-06,-6.21135e-08,8.6355e-06,121.5,-173.56,119.95,3.08325e+06,625000,-7.67216e-08,2.77886e-07,-1.24058e-07,-0.00216763,0.035388,-0.000998114,0.0382157,3,1141
12,4.35442e-22,2,3123,155.53,-6.34837e-06,5.95834e-06,-6.90953e-08,8.7068e-06,121.5,-173.56,119.95,3.08325e+06,625000,-6.80901e-08,2.94287e-07,-1.38499e-07,0.000144579,0.0376429,-0.000986935,0.0392987,3,1142
12,4.14745e-22,2,3124,155.53,-6.41247e-06,6.01613e-06,-7.98545e-08,8.79317e-06,121.875,-173.56,119.95,2.43744e+06,593750,-6.38022e-08,3.21244e-07,-1.59911e-07,0.00224263,0.0395891,-0.000734406,0.0400406,3,1143
12,3.73351e-22,2,3125,155.53,-6.47597e-06,6.12854e-06,-9.59076e-08,8.91664e-06,122.625,-173.56,119.95,1.14581e+06,531250,-6.7616e-08,3.5503e-07,-1.90792e-07,0.00259032,0.038837,-0.000807235,0.0390112,3,1144
12,3.52654e-22,2,3126,155.53,-6.5477e-06,6.27973e-06,-1.05875e-07,9.07296e-06,123,-173.56,119.95,500000,500000,-7.62151e-08,3.8125e-07,-2.09972e-07,0.00191885,0.0384392,-0.000621439,0.0387241,3,1145
12,3.52654e-22,2,3127,155.53,-6.6284e-06,6.45962e-06,-1.04264e-07,9.25598e-06,123,-173.56,119.95,500000,500000,-8.22588e-08,3.8454e-07,-2.09092e-07,0.00135431,0.0380953,-0.000496539,0.0383046,3,1146
12,3.52654e-22,2,3128,155.53,-6.71221e-06,6.66681e-06,-9.85524e-08,9.46097e-06,123,-173.56,119.95,500000,500000,-8.36298e-08,3.68756e-07,-1.98383e-07,0.000936303,0.0357756,-0.000452817,0.0358616,3,1147
12,3.52654e-22,2,3129,155.53,-6.79566e-06,6.88129e-06,-9.22861e-08,9.67169e-06,123,-173.56,119.95,500000,500000,-8.34839e-08,3.50758e-07,-1.8458e-07,0.000808649,0.033789,-3.15203e-05,0.0335954,3,1148
12,3.52654e-22,2,3130,155.53,-6.87918e-06,7.10028e-06,-8.56605e-08,9.88658e-06,123,-173.56,119.95,500000,500000,-8.26207e-08,3.30413e-07,-1.71371e-07,0.000513549,0.0313518,7.88581e-05,0.0311483,3,1149
12,3.52654e-22,2,3131,155.53,-6.9609e-06,7.32062e-06,-7.92296e-08,1.01021e-05,123,-173.56,119.95,500000,500000,-8.09452e-08,3.06673e-07,-1.58502e-07,-4.31799e-05,0.0282873,-0.000143669,0.0284103,3,1150
12,3.35602e-22,2,3132,110.47,-4.55714e-08,5.87008e-06,-6.41884e-08,5.87061e-06,6,-113.15,-163.66,500000,500000,-8.65737e-08,2.80232e-07,-1.26524e-07,0.00147101,0.0285705,-0.00197893,0.0298686,3,1151
12,3.35602e-22,2,3133,110.47,-1.27576e-07,5.92661e-06,-5.68782e-08,5.92826e-06,6,-113.15,-163.66,500000,500000,-7.54222e-08,2.57135e-07,-1.15185e-07,0.00130993,0.0263513,0.000147178,0.0260026,3,1152
12,3.35602e-22,2,3134,110.47,-1.96416e-07,5.95398e-06,-5.6893e-08,5.95749e-06,6,-113.15,-163.66,500000,500000,-6.69615e-08,2.43663e-07,-1.13416e-07,0.00160103,0.0249654,-0.000112869,0.0247259,3,1153
12,3.79366e-22,2,3135,110.47,-2.61499e-07,5.98313e-06,-4.62654e-08,5.98902e-06,9.9375,-113.15,-163.66,2.43744e+06,593750,-6.41959e-08,2.30235e-07,-9.37994e-08,0.00234192,0.0286027,0.000412885,0.029002,3,1154
12,4.81481e-22,1,3136,71.87,-3.24808e-07,6.03872e-06,-3.6988e-08,6.04756e-06,19.125,-131.18,-164.33,6.95812e+06,812500,-6.34575e-08,2.15828e-07,-7.41469e-08,0.00284713,0.0338269,-0.000224654,0.0345931,2,1980
12,5.5442e-22,1,3137,71.87,-3.88414e-07,6.11769e-06,-3.51495e-08,6.13011e-06,25.6875,-131.18,-164.33,1.01872e+07,968750,-6.57589e-08,2.1323e-07,-6.90248e-08,0.00285315,0.0360446,-0.000481133,0.0354511,2,1981
12,5.69008e-22,1,3138,71.87,-4.56325e-07,6.19346e-06,-3.27323e-08,6.21034e-06,27,-131.18,-164.33,1.0833e+07,1e+06,-6.93782e-08,2.13123e-07,-6.61351e-08,0.00206216,0.036423,-1.41952e-05,0.0354579,2,1982
12,5.69008e-22,1,3139,71.87,-5.2717e-07,6.26116e-06,-3.21448e-08,6.28339e-06,27,-131.18,-164.33,1.0833e+07,1e+06,-7.16933e-08,2.11332e-07,-6.42416e-08,0.00121861,0.0361574,-2.04067e-06,0.0356873,2,1983
12,5.69008e-22,1,3140,71.87,-5.99712e-07,6.32495e-06,-3.13202e-08,6.3534e-06,27,-131.18,-164.33,1.0833e+07,1e+06,-7.34371e-08,2.08001e-07,-6.26051e-08,0.000396156,0.0353624,-8.85715e-05,0.0353783,2,1984
12,5.69008e-22,1,3141,71.87,-6.74045e-07,6.38729e-06,-3.03954e-08,6.42283e-06,27,-131.18,-164.33,1.0833e+07,1e+06,-7.54039e-08,2.0495e-07,-6.08405e-08,-0.000436231,0.0345739,-8.06371e-05,0.0350198,2,1985
12,5.69008e-22,1,3142,71.87,-7.5052e-07,6.44921e-06,-2.94256e-08,6.4928e-06,27,-131.18,-164.33,1.0833e+07,1e+06,-7.71449e-08,2.01912e-07,-5.88751e-08,-0.00120364,0.0338674,-1.25092e-06,0.034697,2,1986
12,5.69008e-22,1,3143,71.87,-8.28334e-07,6.50959e-06,-2.77737e-08,6.56214e-06,27,-131.18,-164.33,1.0833e+07,1e+06,-7.70503e-08,1.9672e-07,-5.58376e-08,-0.00164691,0.0330135,0.000274854,0.034015,2,1987
12,5.26362e-22,1,3144,71.87,-9.0462e-07,6.5657e-06,-2.84216e-08,6.62779e-06,28.3125,-131.18,-164.33,8.89556e+06,906250,-7.20203e-08,1.87786e-07,-5.68944e-08,-0.00218022,0.0304436,3.10932e-05,0.0321686,2,1988
12,4.26856e-22,2,3145,103.3,-9.72375e-07,6.61799e-06,-3.23767e-08,6.68912e-06,31.375,-73.15,30.56,4.37488e+06,687500,-6.36816e-08,1.80223e-07,-6.42093e-08,-0.00306723,0.0266145,-0.000261522,0.0294188,3,1155
12,3.5578e-22,2,3146,103.3,-1.03198e-06,6.66777e-06,-3.63706e-08,6.74726e-06,33.5625,-73.15,30.56,1.14581e+06,531250,-5.93606e-08,1.81808e-07,-7.26786e-08,-0.00376437,0.0248171,-7.39726e-05,0.0280577,3,1156
12,3.41565e-22,2,3147,103.3,-1.0911e-06,6.71968e-06,-3.89787e-08,6.8078e-06,34,-73.15,30.56,500000,500000,-5.99712e-08,1.87509e-07,-7.81527e-08,-0.00413296,0.024912,-0.000135973,0.0282959,3,1157
12,3.45839e-22,2,3148,103.3,-1.15193e-06,6.77698e-06,-3.87223e-08,6.8743e-06,34.0625,-73.15,30.56,500000,500000,-6.26849e-08,1.87726e-07,-7.78097e-08,-0.00439873,0.0248681,-0.000726769,0.0287636,3,1158
12,3.54388e-22,2,3149,103.3,-1.21647e-06,6.82341e-06,-3.63593e-08,6.93109e-06,34.1875,-73.15,30.56,500000,500000,-6.42262e-08,1.88152e-07,-7.28413e-08,-0.00349191,0.0255092,-0.000663761,0.0290148,3,1159
12,3.58663e-22,2,3150,103.3,-1.28038e-06,6.85796e-06,-3.66074e-08,6.97656e-06,34.25,-73.15,30.56,500000,500000,-5.8938e-08,1.89414e-07,-7.29342e-08,-0.00184117,0.0262639,-0.000370183,0.0287259,3,1160
12,3.58663e-22,2,3151,103.3,-1.33434e-06,6.89176e-06,-3.90234e-08,7.01985e-06,34.25,-73.15,30.56,500000,500000,-4.77734e-08,1.86354e-07,-7.7595e-08,-0.000330065,0.0263043,-0.000482168,0.0280621,3,1161
12,3.67211e-22,2,3152,103.3,-1.37593e-06,6.92618e-06,-3.72776e-08,7.06162e-06,34.375,-73.15,30.56,500000,500000,-4.254e-08,1.82795e-07,-7.36777e-08,0.00162887,0.0268394,-0.000638853,0.0279439,3,1162
12,3.84309e-22,2,3153,117.14,-1.41942e-06,6.94762e-06,-2.86696e-08,7.09119e-06,34.625,133.75,99.63,500000,500000,-4.62048e-08,1.79787e-07,-5.79111e-08,0.00412849,0.027585,-8.30401e-05,0.0270986,3,1163
12,3.97133e-22,2,3154,117.14,-1.46833e-06,6.9579e-06,-2.288e-08,7.11118e-06,34.8125,133.75,99.63,500000,500000,-5.09258e-08,1.81496e-07,-4.64165e-08,0.00630771,0.0284369,0.000431748,0.026351,3,1164
12,4.05682e-22,2,3155,117.14,-1.52127e-06,6.9625e-06,-1.94408e-08,7.12678e-06,34.9375,133.75,99.63,500000,500000,-5.8868e-08,1.84397e-07,-3.87255e-08,0.00714986,0.0287234,0.000410792,0.0259321,3,1165
12,4.09956e-22,2,3156,117.14,-1.58607e-06,6.95647e-06,-1.61063e-08,7.13501e-06,35,133.75,99.63,500000,500000,-6.90793e-08,1.88849e-07,-3.26228e-08,0.0070037,0.028883,0.000540776,0.0257447,3,1166
12,4.09956e-22,2,3157,117.14,-1.65943e-06,6.94506e-06,-1.66367e-08,7.14058e-06,35,133.75,99.63,500000,500000,-7.4488e-08,1.96817e-07,-3.31222e-08,0.00687432,0.0298921,0.000522126,0.0267975,3,1167
12,5.14261e-22,2,3158,117.14,-1.73505e-06,6.9268e-06,-2.07142e-08,7.14083e-06,40,133.75,99.63,3.08325e+06,625000,-6.74954e-08,2.01582e-07,-4.14357e-08,0.006353,0.033821,0.000667572,0.0311234,3,1168
12,7.2287e-22,1,3159,130.6,-1.79442e-06,6.92636e-06,-2.84905e-08,7.15509e-06,50,117.2,-48.36,8.24975e+06,875000,-5.12606e-08,1.9978e-07,-5.70141e-08,0.00553495,0.0381377,0.000153151,0.0360525,2,1989
12,8.27175e-22,1,3160,130.6,-1.83757e-06,6.94912e-06,-3.18305e-08,7.18804e-06,55,117.2,-48.36,1.0833e+07,1e+06,-4.2937e-08,1.95344e-07,-6.34115e-08,0.00537363,0.038936,-0.000194982,0.0368061,2,1990
12,8.27175e-22,1,3161,130.6,-1.8803e-06,6.97546e-06,-3.11958e-08,7.2245e-06,55,117.2,-48.36,1.0833e+07,1e+06,-4.33438e-08,1.94277e-07,-6.24352e-08,0.00520003,0.038704,-3.60845e-05,0.0365071,2,1991
12,8.27175e-22,1,3162,130.6,-1.92426e-06,7.00403e-06,-3.11304e-08,7.26362e-06,55,117.2,-48.36,1.0833e+07,1e+06,-4.4718e-08,1.94916e-07,-6.22555e-08,0.00487252,0.0387171,3.42284e-06,0.0366139,2,1992
12,8.27175e-22,1,3163,130.6,-1.96973e-06,7.03538e-06,-3.1309e-08,7.30599e-06,55,117.2,-48.36,1.0833e+07,1e+06,-4.6369e-08,1.96795e-07,-6.26217e-08,0.0045742,0.0389533,-3.06881e-06,0.0369633,2,1993
12,8.27175e-22,1,3164,130.6,-2.01699e-06,7.06985e-06,-3.16674e-08,7.35201e-06,55,117.2,-48.36,1.0833e+07,1e+06,-4.83436e-08,1.99804e-07,-6.33402e-08,0.00428594,0.0394061,-1.10505e-05,0.0375284,2,1994
12,8.27175e-22,1,3165,130.6,-2.06642e-06,7.10802e-06,-3.21929e-08,7.40237e-06,55,117.2,-48.36,1.0833e+07,1e+06,-5.07517e-08,2.03845e-07,-6.43834e-08,0.00396747,0.0400284,-2.26777e-05,0.0382754,2,1995
12,8.27175e-22,1,3166,130.6,-2.1185e-06,7.15109e-06,-3.28125e-08,7.45836e-06,55,117.2,-48.36,1.0833e+07,1e+06,-5.33821e-08,2.08587e-07,-6.55921e-08,0.0036645,0.0407499,6.54041e-06,0.0390861,2,1996
12,8.27175e-22,1,3167,130.6,-2.17318e-06,7.20048e-06,-3.30301e-08,7.52135e-06,55,117.2,-48.36,1.0833e+07,1e+06,-5.45134e-08,2.11899e-07,-6.60306e-08,0.00372018,0.041318,0.000246288,0.0394614,2,1997
12,8.27175e-22,1,3168,130.6,-2.22752e-06,7.2521e-06,-3.3379e-08,7.58656e-06,55,117.2,-48.36,1.0833e+07,1e+06,-5.30372e-08,2.09423e-07,-6.61182e-08,0.00387576,0.0407927,7.67838e-05,0.0389901,2,1998
12,7.35385e-22,1,3169,130.6,-2.27926e-06,7.29313e-06,-3.31016e-08,7.64106e-06,55.375,117.2,-48.36,8.89556e+06,906250,-5.50518e-08,2.13496e-07,-6.81693e-08,0.00346262,0.0406438,-0.000548958,0.0405337,2,1999
12,5.2238e-22,2,3170,51.21,-2.33763e-06,7.28376e-06,-3.95112e-08,7.64979e-06,57,116.77,99.47,4.37488e+06,687500,-6.10701e-08,2.57091e-07,-7.84005e-08,0.00592586,0.0448566,0.00140265,0.0440633,3,1169
12,3.67079e-22,2,3171,51.21,-2.4014e-06,7.23671e-06,-5.06727e-08,7.62491e-06,59.625,116.77,99.47,1.14581e+06,531250,-5.96068e-08,2.76545e-07,-9.91806e-08,0.00773507,0.0419415,0.000161755,0.0410926,3,1170
12,3.28333e-22,2,3172,51.21,-2.45684e-06,7.15843e-06,-4.82142e-08,7.56846e-06,61.5,116.77,99.47,500000,500000,-5.77128e-08,2.44109e-07,-9.76901e-08,0.00560451,0.0328869,-0.00141236,0.0330217,3,1171
12,3.37614e-22,2,3173,51.21,-2.51682e-06,7.06067e-06,-3.92071e-08,7.49593e-06,62.3125,116.77,99.47,1.14581e+06,531250,-7.05861e-08,2.24306e-07,-7.90013e-08,0.00217447,0.0293072,7.10686e-05,0.0296242,3,1172
12,3.56174e-22,2,3174,51.21,-2.59801e-06,6.99497e-06,-3.61661e-08,7.46194e-06,63.9375,116.77,99.47,2.43744e+06,593750,-8.78991e-08,2.16749e-07,-7.18762e-08,-0.00230284,0.0276738,-0.000606438,0.0308645,3,1173
12,3.88674e-22,2,3175,95.17,-2.69262e-06,6.91127e-06,-3.14245e-08,7.41734e-06,65.875,150.32,151.68,4.37488e+06,687500,-9.63942e-08,1.98513e-07,-6.24854e-08,-0.00629535,0.0245642,-0.000664935,0.0300934,3,1174
12,4.71195e-22,1,3176,80.41,-2.7908e-06,6.85076e-06,-2.00734e-08,7.39743e-06,66.6875,-123.18,-170.23,7.60394e+06,843750,-9.53139e-08,1.6422e-07,-4.06114e-08,-0.00925849,0.0230019,-0.000566203,0.0299375,2,2000
12,5.43278e-22,1,3177,53.66,-2.88325e-06,6.86309e-06,-9.72301e-09,7.44414e-06,67.4375,-114.01,-136.45,1.01872e+07,968750,-8.85543e-08,1.40859e-07,-1.92549e-08,-0.00947172,0.0261605,-0.000390612,0.0327475,2,2001
12,5.60333e-22,1,3178,53.66,-2.96791e-06,6.87611e-06,-4.21924e-09,7.48929e-06,68.25,-114.01,-136.45,1.0833e+07,1e+06,-8.2649e-08,1.32258e-07,-8.28783e-09,-0.00852698,0.0288573,0.000152635,0.0342768,2,2002
12,5.5956e-22,1,3179,53.66,-3.04855e-06,6.8762e-06,7.41744e-10,7.52169e-06,68.75,-114.01,-136.45,1.0833e+07,1e+06,-7.9271e-08,1.23425e-07,1.2602e-09,-0.00796999,0.0294605,0.00102132,0.0340437,2,2003
12,5.59174e-22,1,3180,53.66,-3.12645e-06,6.8853e-06,3.56248e-09,7.56188e-06,69,-114.01,-136.45,1.0833e+07,1e+06,-7.78392e-08,1.1642e-07,6.41865e-09,-0.00761871,0.0285779,0.00134705,0.0327097,2,2004
12,5.59174e-22,1,3181,53.66,-3.20423e-06,6.90221e-06,3.28251e-09,7.6097e-06,69,-114.01,-136.45,1.0833e+07,1e+06,-7.80039e-08,1.14059e-07,6.55227e-09,-0.00771297,0.027766,0.00106743,0.0320918,2,2005
12,5.59174e-22,1,3182,53.66,-3.28246e-06,6.92111e-06,3.14334e-09,7.66005e-06,69,-114.01,-136.45,1.0833e+07,1e+06,-7.78917e-08,1.12663e-07,7.5707e-09,-0.00766672,0.0274044,0.00125127,0.0316638,2,2006
12,5.50759e-22,1,3183,53.66,-3.36001e-06,6.94509e-06,1.81974e-09,7.71518e-06,69.375,-114.01,-136.45,1.01872e+07,968750,-7.56464e-08,1.11382e-07,2.90432e-09,-0.00786291,0.026157,0.000596153,0.0310817,2,2007
12,5.17101e-22,1,3184,53.66,-3.43375e-06,6.96173e-06,-9.42379e-09,7.7625e-06,70.875,-114.01,-136.45,7.60394e+06,843750,-7.20849e-08,1.29609e-07,-2.03852e-08,-0.00786949,0.0257036,-0.000753238,0.031584,2,2008
12,4.66614e-22,2,3185,82.04,-3.50418e-06,6.92653e-06,-2.96937e-08,7.76253e-06,73.125,62.56,148.29,3.72906e+06,656250,-6.95062e-08,1.70831e-07,-5.81954e-08,-0.00696056,0.0260263,-0.000536542,0.0311895,3,1175
12,4.32956e-22,2,3186,82.04,-3.57277e-06,6.81797e-06,-4.26173e-08,7.69748e-06,74.625,62.56,148.29,1.14581e+06,531250,-6.68383e-08,1.92304e-07,-8.45085e-08,-0.00637489,0.023571,-9.11394e-06,0.0276765,3,1176
12,4.24542e-22,2,3187,82.04,-3.63786e-06,6.69204e-06,-4.45532e-08,7.61705e-06,75,62.56,148.29,500000,500000,-6.40455e-08,1.87751e-07,-8.94625e-08,-0.00648343,0.0209208,-0.000123773,0.0249509,3,1177
12,4.24542e-22,2,3188,82.04,-3.70086e-06,6.5901e-06,-4.50258e-08,7.55829e-06,75,62.56,148.29,500000,500000,-6.46192e-08,1.90459e-07,-8.99573e-08,-0.00652405,0.021405,0.000117952,0.0254122,3,1178
12,4.24542e-22,2,3189,82.04,-3.7671e-06,6.49675e-06,-4.75512e-08,7.51007e-06,75,62.56,148.29,500000,500000,-6.93515e-08,2.02083e-07,-9.5808e-08,-0.00702306,0.0224886,-3.15515e-05,0.0268196,3,1179
12,4.24542e-22,2,3190,82.04,-3.83956e-06,6.39651e-06,-5.30103e-08,7.46059e-06,75,62.56,148.29,500000,500000,-7.38849e-08,2.1938e-07,-1.0558e-07,-0.00739597,0.0243782,-0.000297618,0.0289849,3,1180
12,5.31023e-22,2,3191,82.04,-3.91486e-06,6.3049e-06,-4.66963e-08,7.42159e-06,76.75,62.56,148.29,3.08325e+06,625000,-7.9097e-08,2.17926e-07,-9.24195e-08,-0.00709216,0.027833,-0.000510188,0.0327242,3,1181
12,7.43987e-22,1,3192,133.1,-3.99775e-06,6.30981e-06,-2.98812e-08,7.46971e-06,80.25,119.51,-49.37,8.24975e+06,875000,-8.62787e-08,2.02069e-07,-6.02089e-08,-0.00600349,0.0323366,0.000134188,0.0362309,2,2009
12,8.50469e-22,1,3193,133.1,-4.08742e-06,6.38602e-06,-2.39923e-08,7.58214e-06,82,119.51,-49.37,1.0833e+07,1e+06,-8.90841e-08,1.97852e-07,-4.83323e-08,-0.00524682,0.034729,0.000475759,0.0375871,2,2010
12,8.50469e-22,1,3194,133.1,-4.17592e-06,6.45045e-06,-2.5062e-08,7.68422e-06,82,119.51,-49.37,1.0833e+07,1e+06,-8.91473e-08,1.98862e-07,-5.01446e-08,-0.00531161,0.0348355,4.84457e-06,0.0379306,2,2011
12,8.50469e-22,1,3195,133.1,-4.26572e-06,6.51634e-06,-2.55752e-08,7.78843e-06,82,119.51,-49.37,1.0833e+07,1e+06,-9.07797e-08,2.02145e-07,-5.11326e-08,-0.00541177,0.0352206,4.85273e-05,0.0382897,2,2012
12,8.50469e-22,1,3196,133.1,-4.35748e-06,6.58818e-06,-2.61375e-08,7.89889e-06,82,119.51,-49.37,1.0833e+07,1e+06,-9.23225e-08,2.05127e-07,-5.2274e-08,-0.00553433,0.0354908,4.81681e-05,0.0385742,2,2013
12,8.50469e-22,1,3197,133.1,-4.45036e-06,6.66743e-06,-2.66129e-08,8.0163e-06,82,119.51,-49.37,1.0833e+07,1e+06,-9.28114e-08,2.06888e-07,-5.32316e-08,-0.00547362,0.0355712,6.30678e-05,0.0385888,2,2014
12,8.50469e-22,1,3198,133.1,-4.5431e-06,6.75447e-06,-2.69732e-08,8.14023e-06,82,119.51,-49.37,1.0833e+07,1e+06,-9.23585e-08,2.07266e-07,-5.40747e-08,-0.00529697,0.0354153,3.62317e-05,0.038368,2,2015
12,8.50469e-22,1,3199,133.1,-4.63508e-06,6.85077e-06,-2.79211e-08,8.27151e-06,82,119.51,-49.37,1.0833e+07,1e+06,-9.15931e-08,2.08633e-07,-5.57305e-08,-0.00494671,0.0353884,-5.0941e-05,0.0382727,2,2016
12,6.98421e-22,1,3200,133.1,-4.72629e-06,6.96223e-06,-2.99546e-08,8.41495e-06,83.75,119.51,-49.37,8.24975e+06,875000,-8.65697e-08,2.14175e-07,-5.98548e-08,-0.00413185,0.0357908,0.000322009,0.0389692,2,2017
12,3.94324e-22,2,3201,99.87,-4.80822e-06,7.00993e-06,-4.67116e-08,8.5006e-06,87.25,165.01,-32.53,3.08325e+06,625000,-7.49091e-08,2.40972e-07,-9.33757e-08,-0.00495364,0.0358675,0.000725468,0.0399338,3,1182
12,2.42275e-22,2,3202,99.87,-4.87611e-06,6.97762e-06,-6.49693e-08,8.51281e-06,89,165.01,-32.53,500000,500000,-6.30988e-08,2.62806e-07,-1.29858e-07,-0.00612515,0.0352029,0.000119392,0.0398619,3,1183
12,2.42275e-22,2,3203,99.87,-4.93442e-06,6.94889e-06,-6.82468e-08,8.52292e-06,89,165.01,-32.53,500000,500000,-5.52787e-08,2.61976e-07,-1.36667e-07,-0.00554578,0.0351169,-0.000298291,0.0396594,3,1184
12,2.42275e-22,2,3204,99.87,-4.98667e-06,6.93723e-06,-6.88666e-08,8.54381e-06,89,165.01,-32.53,500000,500000,-5.10965e-08,2.6161e-07,-1.37731e-07,-0.00509615,0.035596,-7.68987e-05,0.0399745,3,1185
12,2.42275e-22,2,3205,99.87,-5.03661e-06,6.93624e-06,-6.85799e-08,8.57225e-06,89,165.01,-32.53,500000,500000,-4.93812e-08,2.59743e-07,-1.37102e-07,-0.00499937,0.0356231,-1.34174e-06,0.0400399,3,1186
12,2.42275e-22,2,3206,99.87,-5.08543e-06,6.94155e-06,-6.75533e-08,8.6053e-06,89,165.01,-32.53,500000,500000,-4.8252e-08,2.55326e-07,-1.35018e-07,-0.00501881,0.0351702,-3.20631e-05,0.0396952,3,1187
12,2.42275e-22,2,3207,99.87,-5.13311e-06,6.95199e-06,-6.59146e-08,8.64195e-06,89,165.01,-32.53,500000,500000,-4.74679e-08,2.47687e-07,-1.31992e-07,-0.00527529,0.0341028,-0.000308215,0.038953,3,1188
12,2.50858e-22,2,3208,99.87,-5.18036e-06,6.96686e-06,-6.11509e-08,8.682e-06,89.25,165.01,-32.53,500000,500000,-4.96458e-08,2.3563e-07,-1.22319e-07,-0.0056268,0.0327005,-0.000461167,0.0380426,3,1189
12,3.13796e-22,2,3209,99.87,-5.2324e-06,6.98885e-06,-4.87985e-08,8.73066e-06,91.5,165.01,-32.53,1.14581e+06,531250,-5.68005e-08,2.198e-07,-9.73176e-08,-0.00487701,0.0322225,0.000396963,0.0370155,3,1190
12,4.53975e-22,2,3210,82.05,-5.29396e-06,7.00357e-06,-3.87191e-08,8.77938e-06,97.25,-126.68,-31.71,3.72906e+06,656250,-6.1227e-08,2.12491e-07,-7.78719e-08,-0.00280548,0.0347874,0.000643811,0.0378472,3,1191
12,5.99876e-22,1,3211,64.5,-5.35486e-06,6.98583e-06,-3.57486e-08,8.80213e-06,104,-144,-153.09,7.60394e+06,843750,-5.70819e-08,2.14856e-07,-7.17693e-08,-9.63043e-05,0.0406034,0.00029491,0.041563,2,2018
12,6.79978e-22,1,3212,64.5,-5.40813e-06,6.93964e-06,-3.33518e-08,8.79816e-06,108,-144,-153.09,1.01872e+07,968750,-5.3452e-08,2.1216e-07,-6.61242e-08,0.00104861,0.0441105,0.000246952,0.0443318,2,2019
12,7.00004e-22,1,3213,64.5,-5.46176e-06,6.87473e-06,-3.28086e-08,8.78031e-06,109,-144,-153.09,1.0833e+07,1e+06,-5.68746e-08,2.15937e-07,-6.55301e-08,0.000325053,0.0458753,0.000163193,0.0466697,2,2020
12,7.00004e-22,1,3214,64.5,-5.52188e-06,6.79617e-06,-3.40144e-08,8.75672e-06,109,-144,-153.09,1.0833e+07,1e+06,-6.35314e-08,2.2902e-07,-6.8285e-08,-0.000544278,0.0484732,0.000254517,0.0495999,2,2021
12,7.00004e-22,1,3215,64.5,-5.58883e-06,6.71665e-06,-3.48787e-08,8.73782e-06,109,-144,-153.09,1.0833e+07,1e+06,-6.83482e-08,2.34386e-07,-6.97649e-08,-0.00141334,0.0490565,7.90622e-05,0.0504482,2,2022
12,7.00004e-22,1,3216,64.5,-5.65857e-06,6.64109e-06,-3.46323e-08,8.72495e-06,109,-144,-153.09,1.0833e+07,1e+06,-6.90573e-08,2.32192e-07,-6.92467e-08,-0.00168685,0.0482491,-2.23975e-05,0.0495991,2,2023
12,7.00004e-22,1,3217,64.5,-5.72694e-06,6.56483e-06,-3.39153e-08,8.71183e-06,109,-144,-153.09,1.0833e+07,1e+06,-6.65198e-08,2.26405e-07,-6.78912e-08,-0.00138585,0.047074,-8.69597e-05,0.0482181,2,2024
12,7.00004e-22,1,3218,64.5,-5.79161e-06,6.48051e-06,-3.08875e-08,8.69142e-06,109,-144,-153.09,1.0833e+07,1e+06,-6.181e-08,2.18122e-07,-6.23319e-08,-0.000531599,0.0462087,0.000908679,0.0466266,2,2025
12,6.35125e-22,1,3219,64.5,-5.85056e-06,6.36805e-06,-3.44367e-08,8.64768e-06,108.625,-144,-153.09,8.89556e+06,906250,-6.44363e-08,2.1484e-07,-6.87176e-08,-0.00103094,0.0420104,-0.00129458,0.0450474,2,2026
12,4.83409e-22,2,3220,110.45,-5.92049e-06,6.24665e-06,-4.225e-08,8.60666e-06,111.75,-147.4,-167.14,4.37488e+06,687500,-7.717e-08,2.33218e-07,-8.45745e-08,-0.000578183,0.0345808,-0.00221076,0.0387331,3,1192
12,3.74613e-22,2,3221,155.53,-6.0049e-06,6.20394e-06,-5.9423e-08,8.63431e-06,119.125,-173.56,119.95,1.14581e+06,531250,-8.35152e-08,2.74667e-07,-1.19118e-07,-0.000412286,0.0308754,-0.000208984,0.0331725,3,1193
12,3.52654e-22,2,3222,155.53,-6.08752e-06,6.22781e-06,-8.00976e-08,8.70919e-06,123,-173.56,119.95,500000,500000,-8.2109e-08,3.13188e-07,-1.59776e-07,-0.00149497,0.0320014,-0.0007013,0.0344938,3,1194
12,3.52654e-22,2,3223,155.53,-6.16912e-06,6.25961e-06,-8.9418e-08,8.78913e-06,123,-173.56,119.95,500000,500000,-8.23959e-08,3.38491e-07,-1.78841e-07,-0.00101064,0.0343656,-0.00106273,0.0367833,3,1195
12,3.52654e-22,2,3224,155.53,-6.25231e-06,6.30921e-06,-9.75966e-08,8.88296e-06,123,-173.56,119.95,500000,500000,-8.47829e-08,3.62415e-07,-1.94533e-07,-0.000580086,0.0365449,-0.00122913,0.0387749,3,1196
12,3.52654e-22,2,3225,155.53,-6.33868e-06,6.39121e-06,-1.04159e-07,9.00208e-06,123,-173.56,119.95,500000,500000,-8.74486e-08,3.84404e-07,-2.06863e-07,3.27539e-05,0.038588,-0.000962275,0.0401828,3,1197
12,3.52654e-22,2,3226,155.53,-6.42721e-06,6.51542e-06,-1.06079e-07,9.15264e-06,123,-173.56,119.95,500000,500000,-8.82957e-08,3.92747e-07,-2.12404e-07,0.000381096,0.0389861,-0.000891071,0.0400677,3,1198
12,3.52654e-22,2,3227,155.53,-6.51527e-06,6.67072e-06,-1.04584e-07,9.32514e-06,123,-173.56,119.95,500000,500000,-8.86526e-08,3.91979e-07,-2.10383e-07,0.00069243,0.0387206,-0.000562499,0.0392678,3,1199
12,3.52654e-22,2,3228,155.53,-6.60451e-06,6.84599e-06,-1.01231e-07,9.51301e-06,123,-173.56,119.95,500000,500000,-8.95411e-08,3.83785e-07,-2.02615e-07,0.000744413,0.037689,-0.000132421,0.0378146,3,1200
12,3.52654e-22,2,3229,155.53,-6.69436e-06,7.03499e-06,-9.5818e-08,9.71158e-06,123,-173.56,119.95,500000,500000,-8.88775e-08,3.65905e-07,-1.91667e-07,0.000444723,0.0353603,-0.000124277,0.035454,3,1201
12,3.52654e-22,2,3230,155.53,-6.78227e-06,7.23005e-06,-8.98807e-08,9.91367e-06,123,-173.56,119.95,500000,500000,-8.66309e-08,3.46158e-07,-1.79784e-07,0.000335502,0.0330384,-4.13727e-05,0.0330337,3,1202
12,3.52654e-22,2,3231,155.53,-6.86762e-06,7.42771e-06,-8.36497e-08,1.01164e-05,123,-173.56,119.95,500000,500000,-8.35524e-08,3.24494e-07,-1.67268e-07,0.000235616,0.0305355,2.47557e-05,0.0304663,3,1203
12,3.52654e-22,2,3232,155.53,-6.94937e-06,7.62388e-06,-7.74333e-08,1.03162e-05,123,-173.56,119.95,500000,500000,-8.06463e-08,3.00649e-07,-1.54905e-07,-0.000186295,0.0275784,-0.000181033,0.0277821,3,1204
12,3.79366e-22,2,3233,110.47,-3.97342e-08,6.1508e-06,-4.97489e-08,6.15113e-06,9.9375,-113.15,-163.66,2.43744e+06,593750,-7.69084e-08,2.59904e-07,-9.92969e-08,0.00248519,0.0326335,0.00097336,0.0329249,3,1205
12,3.5019e-22,2,3234,110.47,-1.14083e-07,6.18272e-06,-5.34433e-08,6.18401e-06,7.3125,-113.15,-163.66,1.14581e+06,531250,-7.11663e-08,2.47684e-07,-1.07298e-07,0.00140602,0.027557,0.000238181,0.0277988,3,1206
12,3.35602e-22,2,3235,110.47,-1.82067e-07,6.19844e-06,-5.70879e-08,6.20137e-06,6,-113.15,-163.66,500000,500000,-6.8053e-08,2.44482e-07,-1.14711e-07,0.00130478,0.0247691,-0.000275695,0.0247073,3,1207
12,3.5019e-22,2,3236,110.47,-2.50189e-07,6.21938e-06,-5.52492e-08,6.22466e-06,7.3125,-113.15,-163.66,1.14581e+06,531250,-6.91024e-08,2.43417e-07,-1.08913e-07,0.00157561,0.0265375,-0.000533612,0.0271552,3,1208
12,4.23129e-22,2,3237,110.47,-3.20272e-07,6.26393e-06,-4.28797e-08,6.27225e-06,13.875,-113.15,-163.66,4.37488e+06,687500,-6.97852e-08,2.33353e-07,-8.55461e-08,0.0023408,0.032452,6.1493e-05,0.0336234,3,1209
12,5.25244e-22,1,3238,71.87,-3.89759e-07,6.33666e-06,-3.34367e-08,6.34872e-06,23.0625,-131.18,-164.33,8.89556e+06,906250,-7.00872e-08,2.22151e-07,-6.86455e-08,0.00270112,0.0368178,0.000484303,0.0365536,2,2027
12,5.69008e-22,1,3239,71.87,-4.60446e-07,6.40992e-06,-3.39502e-08,6.42652e-06,27,-131.18,-164.33,1.0833e+07,1e+06,-7.19815e-08,2.19786e-07,-6.76159e-08,0.00218182,0.037278,0.000289352,0.0359378,2,2028
12,5.69008e-22,1,3240,71.87,-5.33722e-07,6.47493e-06,-3.28464e-08,6.49697e-06,27,-131.18,-164.33,1.0833e+07,1e+06,-7.34838e-08,2.15378e-07,-6.54993e-08,0.00121948,0.0365255,0.000123543,0.0359158,2,2029
12,5.69008e-22,1,3241,71.87,-6.07414e-07,6.53413e-06,-3.19044e-08,6.56238e-06,27,-131.18,-164.33,1.0833e+07,1e+06,-7.42669e-08,2.09219e-07,-6.35975e-08,0.000324035,0.0351798,-0.000133349,0.0351741,2,2030
12,5.69008e-22,1,3242,71.87,-6.82256e-07,6.59334e-06,-3.11911e-08,6.62862e-06,27,-131.18,-164.33,1.0833e+07,1e+06,-7.61489e-08,2.06419e-07,-6.20677e-08,-0.000482448,0.0344446,-0.000154167,0.0348473,2,2031
12,5.69008e-22,1,3243,71.87,-7.59712e-07,6.65296e-06,-3.02759e-08,6.69627e-06,27,-131.18,-164.33,1.0833e+07,1e+06,-7.85484e-08,2.04865e-07,-6.06294e-08,-0.0013143,0.0340166,-0.000141299,0.0348645,2,2032
12,5.69008e-22,1,3244,71.87,-8.39352e-07,6.70808e-06,-2.89255e-08,6.76045e-06,27,-131.18,-164.33,1.0833e+07,1e+06,-7.8497e-08,2.01277e-07,-5.76534e-08,-0.00159451,0.0336291,0.000248645,0.0345251,2,2033
12,5.54792e-22,1,3245,71.87,-9.16705e-07,6.75461e-06,-2.69498e-08,6.81659e-06,27.4375,-131.18,-164.33,1.01872e+07,968750,-7.33676e-08,1.90535e-07,-5.37518e-08,-0.00146819,0.0318919,0.000676153,0.0327225,2,2034
12,4.83717e-22,1,3246,71.87,-9.86088e-07,6.79607e-06,-2.84026e-08,6.8673e-06,29.625,-131.18,-164.33,6.95813e+06,812500,-6.4299e-08,1.77656e-07,-5.78191e-08,-0.00199148,0.0278751,7.53778e-06,0.0297133,2,2035
12,3.8421e-22,2,3247,103.3,-1.0453e-06,6.84741e-06,-3.53835e-08,6.92683e-06,32.6875,-73.15,30.56,2.43744e+06,593750,-5.68806e-08,1.7967e-07,-7.0761e-08,-0.00276663,0.025263,-0.000112339,0.0278146,3,1210
12,3.41565e-22,2,3248,103.3,-1.09985e-06,6.90878e-06,-4.05713e-08,6.9959e-06,34,-73.15,30.56,500000,500000,-5.47325e-08,1.89115e-07,-8.07782e-08,-0.00312678,0.0253057,0.000227735,0.0278394,3,1211
12,3.41565e-22,2,3249,103.3,-1.15477e-06,6.967e-06,-4.15166e-08,7.06217e-06,34,-73.15,30.56,500000,500000,-5.46878e-08,1.90615e-07,-8.33434e-08,-0.0033321,0.0253373,-2.5045e-05,0.0281016,3,1212
12,3.41565e-22,2,3250,103.3,-1.20922e-06,7.015e-06,-4.21305e-08,7.11858e-06,34,-73.15,30.56,500000,500000,-5.4488e-08,1.92449e-07,-8.40941e-08,-0.00326056,0.0257121,6.48848e-05,0.0284622,3,1213
12,3.41565e-22,2,3251,103.3,-1.26374e-06,7.05267e-06,-4.3319e-08,7.16513e-06,34,-73.15,30.56,500000,500000,-5.4283e-08,1.95162e-07,-8.62931e-08,-0.00324863,0.0260903,-2.48224e-05,0.0289037,3,1214
12,3.41565e-22,2,3252,103.3,-1.31779e-06,7.08458e-06,-4.4074e-08,7.20623e-06,34,-73.15,30.56,500000,500000,-5.28749e-08,1.94432e-07,-8.8204e-08,-0.00330719,0.0259105,-0.000301824,0.0288803,3,1215
12,3.45839e-22,2,3253,103.3,-1.36949e-06,7.11309e-06,-4.27086e-08,7.24385e-06,34.0625,-73.15,30.56,500000,500000,-5.1477e-08,1.89229e-07,-8.57324e-08,-0.00306019,0.025549,-0.000744491,0.0287822,3,1216
12,3.54388e-22,2,3254,103.3,-1.42074e-06,7.12921e-06,-3.92302e-08,7.26951e-06,34.1875,-73.15,30.56,500000,500000,-4.9259e-08,1.85283e-07,-7.82368e-08,-0.00146973,0.0260459,-0.000420945,0.0284851,3,1217
12,3.67211e-22,2,3255,103.3,-1.46801e-06,7.14025e-06,-3.56789e-08,7.28969e-06,34.375,-73.15,30.56,500000,500000,-4.88453e-08,1.8486e-07,-7.02152e-08,0.000839353,0.0270647,-0.000399982,0.0284873,3,1218
12,3.84309e-22,2,3256,117.14,-1.51844e-06,7.14526e-06,-2.77368e-08,7.30487e-06,34.625,133.75,99.63,500000,500000,-5.38971e-08,1.83694e-07,-5.60213e-08,0.00326,0.0277213,-0.000142983,0.0276478,3,1219
12,3.97133e-22,2,3257,117.14,-1.57581e-06,7.14403e-06,-2.19843e-08,7.3158e-06,34.8125,133.75,99.63,500000,500000,-6.08706e-08,1.88429e-07,-4.48879e-08,0.00539867,0.0288361,0.000321641,0.0271583,3,1220
12,4.31758e-22,2,3258,117.14,-1.64018e-06,7.14193e-06,-2.08065e-08,7.32788e-06,36.1875,133.75,99.63,1.14581e+06,531250,-6.64367e-08,1.94413e-07,-4.16583e-08,0.00614681,0.0303918,-8.06629e-05,0.0283789,3,1221
12,5.66413e-22,2,3259,117.14,-1.70868e-06,7.12934e-06,-2.36008e-08,7.33127e-06,42.5,133.75,99.63,4.37488e+06,687500,-6.13596e-08,1.98826e-07,-4.70353e-08,0.00590875,0.034568,7.94437e-05,0.0324463,3,1222
12,7.48946e-22,1,3260,130.6,-1.7629e-06,7.12684e-06,-2.99545e-08,7.3417e-06,51.25,117.2,-48.36,8.89556e+06,906250,-4.90645e-08,1.99581e-07,-5.95858e-08,0.00538016,0.0384894,-2.54955e-05,0.0364626,2,2036
12,8.27175e-22,1,3261,130.6,-1.80681e-06,7.14427e-06,-3.16199e-08,7.36927e-06,55,117.2,-48.36,1.0833e+07,1e+06,-4.43156e-08,1.96039e-07,-6.33254e-08,0.00506244,0.038889,-0.000132723,0.0367918,2,2037
12,8.27175e-22,1,3262,130.6,-1.85153e-06,7.16996e-06,-3.12792e-08,7.40523e-06,55,117.2,-48.36,1.0833e+07,1e+06,-4.54096e-08,1.95339e-07,-6.25336e-08,0.00472011,0.0386394,-3.76676e-05,0.036597,2,2038
12,8.27175e-22,1,3263,130.6,-1.89763e-06,7.19929e-06,-3.11636e-08,7.44525e-06,55,117.2,-48.36,1.0833e+07,1e+06,-4.68266e-08,1.95976e-07,-6.23466e-08,0.00438065,0.0386545,-7.47113e-06,0.0367263,2,2039
12,8.27175e-22,1,3264,130.6,-1.94518e-06,7.23258e-06,-3.13466e-08,7.48965e-06,55,117.2,-48.36,1.0833e+07,1e+06,-4.83893e-08,1.97863e-07,-6.26963e-08,0.00410895,0.0389113,-4.95919e-06,0.0370868,2,2040
12,8.27175e-22,1,3265,130.6,-1.99441e-06,7.27005e-06,-3.16915e-08,7.53872e-06,55,117.2,-48.36,1.0833e+07,1e+06,-5.01377e-08,2.00758e-07,-6.33834e-08,0.00387627,0.0393673,-5.50461e-07,0.0376297,2,2041
12,8.27175e-22,1,3266,130.6,-2.04546e-06,7.31206e-06,-3.21499e-08,7.59283e-06,55,117.2,-48.36,1.0833e+07,1e+06,-5.18505e-08,2.04277e-07,-6.42873e-08,0.0037151,0.0399541,2.11225e-05,0.0382613,2,2042
12,8.27175e-22,1,3267,130.6,-2.09811e-06,7.35905e-06,-3.25939e-08,7.65237e-06,55,117.2,-48.36,1.0833e+07,1e+06,-5.28274e-08,2.07561e-07,-6.51904e-08,0.00375553,0.0405468,8.38607e-05,0.0387875,2,2043
12,8.27175e-22,1,3268,130.6,-2.15111e-06,7.40997e-06,-3.28532e-08,7.71596e-06,55,117.2,-48.36,1.0833e+07,1e+06,-5.20476e-08,2.09039e-07,-6.57275e-08,0.00414041,0.0409261,0.000172594,0.0389504,2,2044
12,8.27175e-22,1,3269,130.6,-2.2022e-06,7.46037e-06,-3.33469e-08,7.77868e-06,55,117.2,-48.36,1.0833e+07,1e+06,-4.87641e-08,2.09332e-07,-6.69065e-08,0.00505903,0.0413035,6.51322e-05,0.0390431,2,2045
12,7.96871e-22,1,3270,130.6,-2.24864e-06,7.50509e-06,-3.54572e-08,7.8348e-06,55.3125,117.2,-48.36,1.01872e+07,968750,-4.5649e-08,2.14161e-07,-7.02739e-08,0.00599153,0.0425736,-0.000372591,0.0407273,2,2046
12,6.40692e-22,1,3271,130.6,-2.2935e-06,7.53443e-06,-3.80113e-08,7.87586e-06,57.375,117.2,-48.36,6.95812e+06,812500,-4.87209e-08,2.48299e-07,-7.66206e-08,0.00792389,0.0471728,0.00186653,0.0446476,2,2047
12,4.09925e-22,2,3272,51.21,-2.34608e-06,7.50711e-06,-5.0091e-08,7.86532e-06,61.5625,116.77,99.47,2.43744e+06,593750,-5.70332e-08,2.63694e-07,-1.00979e-07,0.00570773,0.0409578,-0.000354848,0.0413081,3,1223
12,2.95714e-22,2,3273,95.17,-2.40757e-06,7.40415e-06,-5.67303e-08,7.78595e-06,65,150.32,151.68,500000,500000,-6.81785e-08,2.46876e-07,-1.12274e-07,0.000592692,0.0299299,-0.00275738,0.0329499,3,1224
12,2.86394e-22,2,3274,95.17,-2.48244e-06,7.29429e-06,-4.84021e-08,7.70529e-06,66,150.32,151.68,500000,500000,-8.4078e-08,2.39551e-07,-9.62534e-08,-0.00260149,0.027861,-0.000505656,0.0304584,3,1225
12,2.81734e-22,2,3275,95.17,-2.57572e-06,7.21893e-06,-4.14488e-08,7.66479e-06,66.5,150.32,151.68,500000,500000,-9.79385e-08,2.24479e-07,-8.35748e-08,-0.00624592,0.0251619,-0.000956313,0.0300441,3,1226
12,2.91014e-22,2,3276,95.17,-2.67831e-06,7.1208e-06,-3.76722e-08,7.60793e-06,67.3125,150.32,151.68,1.14581e+06,531250,-1.00974e-07,2.13319e-07,-7.45413e-08,-0.00758322,0.0239457,-0.000445221,0.0295058,3,1227
12,3.77809e-22,2,3277,95.17,-2.77767e-06,7.01848e-06,-2.34673e-08,7.54819e-06,67.875,150.32,151.68,4.37488e+06,687500,-9.14423e-08,1.76037e-07,-4.67648e-08,-0.00799201,0.0249608,-9.75797e-05,0.0307567,3,1228
12,5.04919e-22,1,3278,53.66,-2.8612e-06,6.98769e-06,-2.93992e-09,7.55078e-06,68.5625,-114.01,-136.45,8.89556e+06,906250,-7.84388e-08,1.26481e-07,-7.78057e-09,-0.00782954,0.0267874,0.000636031,0.0318204,2,2048
12,5.59174e-22,1,3279,53.66,-2.93455e-06,6.99312e-06,2.88974e-09,7.58388e-06,69,-114.01,-136.45,1.0833e+07,1e+06,-7.45081e-08,1.14861e-07,5.4891e-09,-0.00717196,0.0284329,0.00146265,0.032187,2,2049
12,5.59174e-22,1,3280,53.66,-3.01021e-06,6.9936e-06,1.51376e-09,7.61393e-06,69,-114.01,-136.45,1.0833e+07,1e+06,-7.64746e-08,1.15664e-07,3.79908e-09,-0.00769887,0.0283028,0.000705194,0.0326364,2,2050
12,5.59174e-22,1,3281,53.66,-3.0875e-06,7.00028e-06,1.41308e-09,7.65092e-06,69,-114.01,-136.45,1.0833e+07,1e+06,-7.74328e-08,1.13921e-07,3.32223e-09,-0.00800416,0.0275497,0.000188331,0.0323007,2,2051
12,5.59174e-22,1,3282,53.66,-3.16508e-06,7.0148e-06,1.82193e-09,7.69578e-06,69,-114.01,-136.45,1.0833e+07,1e+06,-7.78572e-08,1.12591e-07,3.57134e-09,-0.00807748,0.0270534,1.18764e-05,0.0319636,2,2052
12,5.59174e-22,1,3283,53.66,-3.24321e-06,7.03355e-06,2.18161e-09,7.74527e-06,69,-114.01,-136.45,1.0833e+07,1e+06,-7.81536e-08,1.11906e-07,4.68399e-09,-0.00803651,0.0268715,0.000217759,0.0317241,2,2053
12,5.59174e-22,1,3284,53.66,-3.32139e-06,7.05403e-06,3.05474e-09,7.79686e-06,69,-114.01,-136.45,1.0833e+07,1e+06,-7.74565e-08,1.09706e-07,6.68094e-09,-0.00791125,0.0264352,0.000773712,0.031061,2,2054
12,5.50759e-22,1,3285,53.66,-3.39813e-06,7.07431e-06,1.77187e-09,7.84813e-06,69.375,-114.01,-136.45,1.01872e+07,968750,-7.50763e-08,1.10023e-07,2.55214e-09,-0.0079245,0.0257408,0.000533836,0.0307114,2,2055
12,5.08687e-22,1,3286,53.66,-3.47154e-06,7.07628e-06,-1.11416e-08,7.88197e-06,71.25,-114.01,-136.45,6.95813e+06,812500,-7.40269e-08,1.35199e-07,-2.33828e-08,-0.00796501,0.025857,-0.000454952,0.0316398,2,2056
12,4.49785e-22,2,3287,82.04,-3.54618e-06,7.00308e-06,-3.07443e-08,7.84981e-06,73.875,62.56,148.29,2.43744e+06,593750,-7.6773e-08,1.72855e-07,-6.05582e-08,-0.00825537,0.0238395,-0.000248839,0.0296432,3,1229
12,4.46424e-22,2,3288,82.04,-3.62509e-06,6.87888e-06,-3.85001e-08,7.77571e-06,75.375,62.56,148.29,1.14581e+06,531250,-8.02801e-08,1.8484e-07,-7.65712e-08,-0.00896922,0.0207581,-1.79493e-05,0.02667,3,1230
12,4.90188e-22,2,3289,82.04,-3.70674e-06,6.78038e-06,-3.90746e-08,7.72754e-06,76.125,62.56,148.29,2.43744e+06,593750,-8.25266e-08,1.89247e-07,-7.85422e-08,-0.00877493,0.0212014,-0.000357506,0.0270749,3,1231
12,5.1207e-22,2,3290,82.04,-3.79014e-06,6.70032e-06,-4.25217e-08,7.69813e-06,76.5,62.56,148.29,3.08325e+06,625000,-8.28684e-08,2.02372e-07,-8.48666e-08,-0.00768801,0.0230461,-0.00034063,0.0281298,3,1232
12,5.1207e-22,2,3291,82.04,-3.87248e-06,6.61511e-06,-4.72316e-08,7.66537e-06,76.5,62.56,148.29,3.08325e+06,625000,-8.09125e-08,2.16637e-07,-9.44941e-08,-0.00646636,0.0249678,-0.000479534,0.0293254,3,1233
12,5.9667e-22,2,3292,82.04,-3.95196e-06,6.52711e-06,-4.49077e-08,7.63041e-06,77.875,62.56,148.29,5.02069e+06,718750,-7.93992e-08,2.24644e-07,-8.962e-08,-0.00438396,0.0303663,-0.000646542,0.0340648,3,1234
12,7.6587e-22,1,3293,133.1,-4.03127e-06,6.51738e-06,-3.1463e-08,7.66345e-06,80.625,119.51,-49.37,8.89556e+06,906250,-8.02127e-08,2.09752e-07,-6.30412e-08,-0.00304137,0.0347892,0.00025442,0.0371509,2,2057
12,8.50469e-22,1,3294,133.1,-4.11239e-06,6.58248e-06,-2.42718e-08,7.76153e-06,82,119.51,-49.37,1.0833e+07,1e+06,-8.22208e-08,1.94993e-07,-4.87173e-08,-0.00357629,0.0347098,0.000618399,0.0365233,2,2058
12,8.50469e-22,1,3295,133.1,-4.19572e-06,6.64737e-06,-2.53255e-08,7.8608e-06,82,119.51,-49.37,1.0833e+07,1e+06,-8.52787e-08,1.96488e-07,-5.04541e-08,-0.00446119,0.0345502,2.69598e-05,0.0370806,2,2059
12,8.50469e-22,1,3296,133.1,-4.28295e-06,6.71664e-06,-2.54169e-08,7.96603e-06,82,119.51,-49.37,1.0833e+07,1e+06,-8.86421e-08,1.99379e-07,-5.09122e-08,-0.00509428,0.0347233,2.59599e-05,0.0375815,2,2060
12,8.50469e-22,1,3297,133.1,-4.373e-06,6.79122e-06,-2.57479e-08,8.07741e-06,82,119.51,-49.37,1.0833e+07,1e+06,-9.08508e-08,2.01729e-07,-5.14913e-08,-0.00545888,0.0348579,3.90756e-05,0.0378934,2,2061
12,8.50469e-22,1,3298,133.1,-4.46465e-06,6.87194e-06,-2.60396e-08,8.19496e-06,82,119.51,-49.37,1.0833e+07,1e+06,-9.20537e-08,2.0289e-07,-5.20937e-08,-0.00566683,0.0347774,7.70083e-06,0.0379363,2,2062
12,8.50469e-22,1,3299,133.1,-4.55711e-06,6.95973e-06,-2.63219e-08,8.319e-06,82,119.51,-49.37,1.0833e+07,1e+06,-9.3002e-08,2.03501e-07,-5.26119e-08,-0.0058555,0.0345668,-1.66782e-05,0.037877,2,2063
12,8.50469e-22,1,3300,133.1,-4.65065e-06,7.05742e-06,-2.65715e-08,8.45201e-06,82,119.51,-49.37,1.0833e+07,1e+06,-9.38702e-08,2.04159e-07,-5.31268e-08,-0.00597881,0.0342631,5.0828e-05,0.0377497,2,2064
12,7.36433e-22,1,3301,133.1,-4.74485e-06,7.1704e-06,-2.7702e-08,8.5982e-06,83.3125,119.51,-49.37,8.89556e+06,906250,-9.00815e-08,2.02123e-07,-5.61589e-08,-0.00603546,0.033214,-0.000516263,0.0378564,2,2065
12,4.70348e-22,2,3302,99.87,-4.83082e-06,7.24647e-06,-4.27512e-08,8.70919e-06,86.375,165.01,-32.53,4.37488e+06,687500,-7.76158e-08,2.27687e-07,-8.48739e-08,-0.00553506,0.0347306,-0.000617586,0.0398916,3,1235
12,2.80287e-22,2,3303,99.87,-4.90008e-06,7.23941e-06,-6.12854e-08,8.74206e-06,88.5625,165.01,-32.53,1.14581e+06,531250,-6.22751e-08,2.55292e-07,-1.21811e-07,-0.00526452,0.0354249,-0.000163957,0.03988,3,1236
12,2.42275e-22,2,3304,99.87,-4.95537e-06,7.20877e-06,-6.71902e-08,8.74794e-06,89,165.01,-32.53,500000,500000,-5.20962e-08,2.56706e-07,-1.34984e-07,-0.00514083,0.0344209,-0.000176777,0.0386224,3,1237
12,2.42275e-22,2,3305,99.87,-5.00427e-06,7.19755e-06,-6.88402e-08,8.76654e-06,89,165.01,-32.53,500000,500000,-4.81125e-08,2.58938e-07,-1.37668e-07,-0.0047087,0.0353277,-3.8773e-05,0.0394552,3,1238
12,2.42275e-22,2,3306,99.87,-5.05159e-06,7.1952e-06,-6.90482e-08,8.79172e-06,89,165.01,-32.53,500000,500000,-4.65418e-08,2.58654e-07,-1.38066e-07,-0.00462355,0.0355307,4.42483e-05,0.0396896,3,1239
12,2.42275e-22,2,3307,99.87,-5.09736e-06,7.19644e-06,-6.8642e-08,8.81909e-06,89,165.01,-32.53,500000,500000,-4.4258e-08,2.55276e-07,-1.37287e-07,-0.00445254,0.0352141,5.80668e-05,0.0393277,3,1240
12,2.42275e-22,2,3308,99.87,-5.14011e-06,7.1993e-06,-6.78307e-08,8.84619e-06,89,165.01,-32.53,500000,500000,-4.00675e-08,2.47596e-07,-1.36156e-07,-0.00424677,0.0341954,-0.000114826,0.0383069,3,1241
12,2.42275e-22,2,3309,99.87,-5.17749e-06,7.20297e-06,-6.7851e-08,8.87095e-06,89,165.01,-32.53,500000,500000,-3.67235e-08,2.37283e-07,-1.34944e-07,-0.00443785,0.032629,-0.000763735,0.037225,3,1242
12,3.36682e-22,2,3310,99.87,-5.21355e-06,7.20353e-06,-5.2015e-08,8.8924e-06,93,165.01,-32.53,2.43744e+06,593750,-4.13717e-08,2.16938e-07,-1.03723e-07,-0.00288176,0.0335959,0.000337399,0.0367771,3,1243
12,5.4552e-22,1,3311,64.5,-5.26023e-06,7.20792e-06,-3.42592e-08,8.9233e-06,102,-144,-153.09,6.95813e+06,812500,-5.01112e-08,2.06756e-07,-6.96209e-08,7.1332e-05,0.039313,0.00117076,0.0398774,2,2066
12,6.79978e-22,1,3312,64.5,-5.31378e-06,7.19688e-06,-3.32703e-08,8.94609e-06,108,-144,-153.09,1.01872e+07,968750,-5.26141e-08,2.1287e-07,-6.65578e-08,0.00153134,0.0443326,0.000159108,0.0440362,2,2067
12,7.00004e-22,1,3313,64.5,-5.36546e-06,7.15332e-06,-3.38759e-08,8.942e-06,109,-144,-153.09,1.0833e+07,1e+06,-5.17855e-08,2.14847e-07,-6.74289e-08,0.00183835,0.0456818,-0.000115203,0.0454268,2,2068
12,7.00004e-22,1,3314,64.5,-5.41735e-06,7.09266e-06,-3.41927e-08,8.92495e-06,109,-144,-153.09,1.0833e+07,1e+06,-5.27576e-08,2.18343e-07,-6.81933e-08,0.00175829,0.0465639,-4.53935e-05,0.0464865,2,2069
12,7.00004e-22,1,3315,64.5,-5.47098e-06,7.02155e-06,-3.45701e-08,8.9014e-06,109,-144,-153.09,1.0833e+07,1e+06,-5.50338e-08,2.23473e-07,-6.91706e-08,0.00152364,0.0476356,4.81058e-05,0.0476304,2,2070
12,7.00004e-22,1,3316,64.5,-5.52741e-06,6.94622e-06,-3.47926e-08,8.87714e-06,109,-144,-153.09,1.0833e+07,1e+06,-5.747e-08,2.26143e-07,-6.96222e-08,0.00110583,0.0479493,4.41825e-05,0.0480087,2,2071
12,7.00004e-22,1,3317,64.5,-5.58592e-06,6.86979e-06,-3.45273e-08,8.85424e-06,109,-144,-153.09,1.0833e+07,1e+06,-5.87906e-08,2.2544e-07,-6.9206e-08,0.000750033,0.0475332,1.92182e-05,0.0476302,2,2072
12,7.00004e-22,1,3318,64.5,-5.645e-06,6.78911e-06,-3.41436e-08,8.82945e-06,109,-144,-153.09,1.0833e+07,1e+06,-5.78426e-08,2.23436e-07,-6.75056e-08,0.000938996,0.0473528,0.000330009,0.0471898,2,2073
12,7.00004e-22,1,3319,64.5,-5.7016e-06,6.69652e-06,-2.98106e-08,8.79503e-06,109,-144,-153.09,1.0833e+07,1e+06,-5.36421e-08,2.16187e-07,-5.97824e-08,0.00193977,0.0469118,0.00208754,0.0455208,2,2074
12,6.13499e-22,1,3320,64.5,-5.75228e-06,6.58761e-06,-3.42205e-08,8.74566e-06,108.5,-144,-153.09,8.24975e+06,875000,-6.29781e-08,2.20692e-07,-6.92291e-08,0.000939728,0.0424462,-0.000344202,0.044173,2,2075
12,4.40157e-22,2,3321,110.45,-5.82756e-06,6.49751e-06,-4.31965e-08,8.72811e-06,111.5,-147.4,-167.14,3.08325e+06,625000,-8.56599e-08,2.56807e-07,-8.66946e-08,0.00138721,0.0360015,-0.000147792,0.0383868,3,1244
12,3.52987e-22,2,3322,155.53,-5.9236e-06,6.49424e-06,-6.30718e-08,8.79023e-06,119,-173.56,119.95,500000,500000,-8.88863e-08,2.97307e-07,-1.25952e-07,0.000791929,0.03238,0.00130029,0.0332821,3,1245
12,3.52654e-22,2,3323,155.53,-6.00533e-06,6.54927e-06,-8.53056e-08,8.88618e-06,123,-173.56,119.95,500000,500000,-8.03292e-08,3.24895e-07,-1.69973e-07,-0.00113363,0.0330825,-0.000768977,0.0352843,3,1246
12,3.52654e-22,2,3324,155.53,-6.08426e-06,6.60794e-06,-9.1107e-08,8.98284e-06,123,-173.56,119.95,500000,500000,-8.30473e-08,3.49813e-07,-1.82364e-07,-0.000472146,0.0360029,-0.000250801,0.0376521,3,1247
12,3.52654e-22,2,3325,155.53,-6.17143e-06,6.68317e-06,-9.69502e-08,9.09729e-06,123,-173.56,119.95,500000,500000,-9.09405e-08,3.73952e-07,-1.9384e-07,-0.000636073,0.0381558,-0.000245698,0.0398121,3,1248
12,3.52654e-22,2,3326,155.53,-6.26614e-06,6.78494e-06,-1.01065e-07,9.23635e-06,123,-173.56,119.95,500000,500000,-9.69777e-08,3.91534e-07,-2.02238e-07,-0.000666834,0.039472,-0.000215823,0.040936,3,1249
12,3.52654e-22,2,3327,155.53,-6.36538e-06,6.91404e-06,-1.02235e-07,9.39853e-06,123,-173.56,119.95,500000,500000,-9.94523e-08,3.96095e-07,-2.0448e-07,-0.000647699,0.0393866,-0.000214707,0.040594,3,1250
12,3.52654e-22,2,3328,155.53,-6.46504e-06,7.06369e-06,-1.00696e-07,9.57615e-06,123,-173.56,119.95,500000,500000,-9.85447e-08,3.90381e-07,-2.01376e-07,-0.000466515,0.0384252,-0.0001461,0.039302,3,1251
12,3.52654e-22,2,3329,155.53,-6.56247e-06,7.22719e-06,-9.73051e-08,9.76257e-06,123,-173.56,119.95,500000,500000,-9.57748e-08,3.77805e-07,-1.94698e-07,-0.000246114,0.0368323,-8.1113e-05,0.0373941,3,1252
12,3.52654e-22,2,3330,155.53,-6.65659e-06,7.39862e-06,-9.26745e-08,9.95281e-06,123,-173.56,119.95,500000,500000,-9.22616e-08,3.60048e-07,-1.85307e-07,-0.000141943,0.034675,-5.66387e-05,0.0350174,3,1253
12,3.52654e-22,2,3331,155.53,-6.74699e-06,7.5736e-06,-8.7305e-08,1.01434e-05,123,-173.56,119.95,500000,500000,-8.83396e-08,3.39925e-07,-1.74586e-07,-8.36109e-05,0.0323044,-3.46844e-05,0.0324897,3,1254
12,3.52654e-22,2,3332,155.53,-6.83327e-06,7.74927e-06,-8.15229e-08,1.03321e-05,123,-173.56,119.95,500000,500000,-8.38883e-08,3.18084e-07,-1.63043e-07,-3.61172e-05,0.0297969,-1.87422e-05,0.0298725,3,1255
12,3.52654e-22,2,3333,155.53,-6.91477e-06,7.92191e-06,-7.583e-08,1.05155e-05,123,-173.56,119.95,500000,500000,-8.02034e-08,2.95306e-07,-1.51662e-07,-0.000307666,0.0270234,-0.000197223,0.0272893,3,1256
12,4.66893e-22,1,3334,71.87,-3.18007e-08,6.38989e-06,-3.38801e-08,6.39006e-06,17.8125,-131.18,-164.33,6.31231e+06,781250,-6.36944e-08,2.23708e-07,-6.94075e-08,0.00355969,0.0356706,0.00220753,0.0349647,2,2076
12,3.79366e-22,2,3335,110.47,-9.55882e-08,6.42198e-06,-5.01859e-08,6.42289e-06,9.9375,-113.15,-163.66,2.43744e+06,593750,-6.49138e-08,2.33792e-07,-9.92999e-08,0.00194147,0.0289179,-0.00091806,0.0303211,3,1257
12,3.35602e-22,2,3336,110.47,-1.61628e-07,6.44294e-06,-5.57792e-08,6.44521e-06,6,-113.15,-163.66,500000,500000,-6.81366e-08,2.4381e-07,-1.11309e-07,0.0017165,0.0250308,0.000157294,0.0245681,3,1258
12,3.35602e-22,2,3337,110.47,-2.31861e-07,6.46996e-06,-5.67665e-08,6.47437e-06,6,-113.15,-163.66,500000,500000,-7.26191e-08,2.49786e-07,-1.12311e-07,0.00148059,0.0254685,0.000160514,0.0250207,3,1259
12,3.79366e-22,2,3338,110.47,-3.06866e-07,6.50543e-06,-4.80269e-08,6.51284e-06,9.9375,-113.15,-163.66,2.43744e+06,593750,-7.44132e-08,2.46932e-07,-9.69636e-08,0.00191958,0.0303942,0.000518474,0.0309986,3,1260
12,4.81481e-22,1,3339,71.87,-3.80688e-07,6.56199e-06,-3.94081e-08,6.57314e-06,19.125,-131.18,-164.33,6.95812e+06,812500,-7.18147e-08,2.3537e-07,-7.99438e-08,0.00263757,0.0365902,-0.000250049,0.0376503,2,2077
12,5.37712e-22,1,3340,71.87,-4.50496e-07,6.63303e-06,-3.71039e-08,6.64842e-06,24.75,-131.18,-164.33,9.54138e+06,937500,-7.11072e-08,2.27588e-07,-7.3465e-08,0.0028981,0.0382227,-0.000794001,0.0379618,2,2078
12,5.18883e-22,1,3341,71.87,-5.22902e-07,6.69191e-06,-3.20111e-08,6.71239e-06,24.1875,-131.18,-164.33,8.89556e+06,906250,-7.45517e-08,2.19592e-07,-6.3677e-08,0.0021557,0.037046,-0.000208756,0.0365649,2,2079
12,5.02174e-22,1,3342,71.87,-5.99599e-07,6.74339e-06,-2.90263e-08,6.77006e-06,23.25,-131.18,-164.33,8.24975e+06,875000,-7.82753e-08,2.12951e-07,-5.72613e-08,0.00107593,0.0355193,-4.90223e-05,0.0356349,2,2080
12,5.18883e-22,1,3343,71.87,-6.79453e-07,6.80013e-06,-2.82897e-08,6.83405e-06,24.1875,-131.18,-164.33,8.89556e+06,906250,-7.97534e-08,2.08788e-07,-5.69531e-08,-0.000126878,0.0346447,5.9109e-05,0.0352224,2,2081
12,5.52299e-22,1,3344,71.87,-7.59106e-07,6.85894e-06,-2.97109e-08,6.90088e-06,26.0625,-131.18,-164.33,1.01872e+07,968750,-7.87321e-08,2.06093e-07,-5.9869e-08,-0.000932633,0.0341661,-9.95811e-05,0.0349636,2,2082
12,5.69008e-22,1,3345,71.87,-8.36917e-07,6.91214e-06,-3.03236e-08,6.96269e-06,27,-131.18,-164.33,1.0833e+07,1e+06,-7.82845e-08,2.0452e-07,-6.03596e-08,-0.00131127,0.0340474,-8.16141e-05,0.0349262,2,2083
12,5.52998e-22,1,3346,71.87,-9.15675e-07,6.94677e-06,-2.89664e-08,7.00692e-06,26.375,-131.18,-164.33,1.01872e+07,968750,-7.90691e-08,2.01346e-07,-5.8057e-08,-0.00156659,0.0326405,0.000355486,0.0337077,2,2084
12,4.80127e-22,1,3347,71.87,-9.95055e-07,6.9733e-06,-3.23422e-08,7.04402e-06,27.5,-131.18,-164.33,6.95813e+06,812500,-7.18044e-08,1.94577e-07,-6.49289e-08,-0.00175498,0.0285557,-0.000154905,0.0302899,2,2085
12,3.82415e-22,2,3348,103.3,-1.05928e-06,7.02711e-06,-3.86246e-08,7.10661e-06,31.625,-73.15,30.56,2.43744e+06,593750,-5.64377e-08,1.87853e-07,-7.72118e-08,-0.00201111,0.0253129,-0.000173034,0.0272578,3,1261
12,3.41565e-22,2,3349,103.3,-1.10793e-06,7.09791e-06,-4.27549e-08,7.18399e-06,34,-73.15,30.56,500000,500000,-4.85226e-08,1.89439e-07,-8.54834e-08,-0.00223522,0.0251955,0.000210831,0.0270606,3,1262
12,3.41565e-22,2,3350,103.3,-1.15633e-06,7.15822e-06,-4.41797e-08,7.25114e-06,34,-73.15,30.56,500000,500000,-4.86791e-08,1.9274e-07,-8.82675e-08,-0.00246445,0.0257153,7.09076e-05,0.02787,3,1263
12,3.41565e-22,2,3351,103.3,-1.20529e-06,7.2083e-06,-4.45673e-08,7.30851e-06,34,-73.15,30.56,500000,500000,-4.90969e-08,1.94055e-07,-8.90321e-08,-0.00263745,0.0260097,4.98133e-06,0.0283863,3,1264
12,3.41565e-22,2,3352,103.3,-1.25452e-06,7.24829e-06,-4.48287e-08,7.35619e-06,34,-73.15,30.56,500000,500000,-4.93912e-08,1.95828e-07,-8.96892e-08,-0.00270363,0.0263924,3.19547e-05,0.0288758,3,1265
12,3.41565e-22,2,3353,103.3,-1.30407e-06,7.28062e-06,-4.48148e-08,7.39663e-06,34,-73.15,30.56,500000,500000,-4.9228e-08,1.95577e-07,-8.97891e-08,-0.00276903,0.0264179,-6.59864e-06,0.0290109,3,1266
12,3.41565e-22,2,3354,103.3,-1.35298e-06,7.30464e-06,-4.42744e-08,7.42901e-06,34,-73.15,30.56,500000,500000,-4.81874e-08,1.91933e-07,-8.88568e-08,-0.00286349,0.0259473,-0.000140022,0.0287202,3,1267
12,3.41565e-22,2,3355,103.3,-1.40045e-06,7.31819e-06,-4.38485e-08,7.45111e-06,34,-73.15,30.56,500000,500000,-4.79526e-08,1.90023e-07,-8.74397e-08,-0.00286972,0.0257877,-8.2451e-05,0.028581,3,1268
12,3.45839e-22,2,3356,103.3,-1.44888e-06,7.32761e-06,-4.22478e-08,7.4696e-06,34.0625,-73.15,30.56,500000,500000,-5.05851e-08,1.87902e-07,-8.44848e-08,-0.002954,0.0255882,-0.000550253,0.0287474,3,1269
12,3.54388e-22,2,3357,103.3,-1.50162e-06,7.32988e-06,-3.86561e-08,7.48222e-06,34.1875,-73.15,30.56,500000,500000,-5.25157e-08,1.86687e-07,-7.71877e-08,-0.00178923,0.0259973,-0.000388924,0.0285102,3,1270
12,3.67211e-22,2,3358,103.3,-1.55392e-06,7.33333e-06,-3.49572e-08,7.49624e-06,34.375,-73.15,30.56,500000,500000,-5.45637e-08,1.89958e-07,-6.93646e-08,0.000495375,0.0273879,-0.000282694,0.0288165,3,1271
12,4.66812e-22,2,3359,117.14,-1.61074e-06,7.33389e-06,-2.91885e-08,7.50875e-06,38.4375,133.75,99.63,2.43744e+06,593750,-5.7108e-08,1.89101e-07,-5.88415e-08,0.00253735,0.0300986,-0.000882315,0.0308106,3,1272
12,6.66443e-22,1,3360,130.6,-1.66813e-06,7.32446e-06,-2.7454e-08,7.51206e-06,47.4375,117.2,-48.36,6.95813e+06,812500,-5.36738e-08,1.91366e-07,-5.50282e-08,0.00389007,0.0350848,-0.000301759,0.034133,2,2086
12,8.01099e-22,1,3361,130.6,-1.71809e-06,7.32553e-06,-3.04699e-08,7.52437e-06,53.75,117.2,-48.36,1.01872e+07,968750,-4.99721e-08,1.97501e-07,-6.07581e-08,0.00396335,0.0384999,0.000111654,0.0367319,2,2087
12,8.27175e-22,1,3362,130.6,-1.76808e-06,7.34119e-06,-3.1131e-08,7.55117e-06,55,117.2,-48.36,1.0833e+07,1e+06,-5.00611e-08,1.98192e-07,-6.24196e-08,0.00365594,0.0388333,-2.49585e-06,0.0372075,2,2088
12,8.27175e-22,1,3363,130.6,-1.81821e-06,7.36613e-06,-3.10703e-08,7.58728e-06,55,117.2,-48.36,1.0833e+07,1e+06,-5.01439e-08,1.97053e-07,-6.21052e-08,0.00354002,0.0385238,-2.67796e-05,0.0369435,2,2089
12,8.27175e-22,1,3364,130.6,-1.86836e-06,7.39598e-06,-3.10887e-08,7.62838e-06,55,117.2,-48.36,1.0833e+07,1e+06,-5.05941e-08,1.97548e-07,-6.2184e-08,0.00346235,0.0385763,-1.85729e-05,0.0370202,2,2090
12,8.27175e-22,1,3365,130.6,-1.9194e-06,7.43111e-06,-3.13055e-08,7.67505e-06,55,117.2,-48.36,1.0833e+07,1e+06,-5.1703e-08,1.99402e-07,-6.26119e-08,0.00331788,0.0388689,-9.41616e-06,0.0373645,2,2091
12,8.27175e-22,1,3366,130.6,-1.97177e-06,7.47137e-06,-3.16426e-08,7.72724e-06,55,117.2,-48.36,1.0833e+07,1e+06,-5.30701e-08,2.02121e-07,-6.32817e-08,0.00317836,0.0393327,4.26515e-06,0.0378768,2,2092
12,8.27175e-22,1,3367,130.6,-2.02554e-06,7.51657e-06,-3.20365e-08,7.78478e-06,55,117.2,-48.36,1.0833e+07,1e+06,-5.42762e-08,2.05162e-07,-6.40674e-08,0.00311712,0.039887,3.12882e-05,0.0384393,2,2093
12,8.27175e-22,1,3368,130.6,-2.08032e-06,7.56621e-06,-3.2408e-08,7.84706e-06,55,117.2,-48.36,1.0833e+07,1e+06,-5.48403e-08,2.07827e-07,-6.48297e-08,0.00320603,0.0404303,6.27089e-05,0.0389276,2,2094
12,8.27175e-22,1,3369,130.6,-2.13522e-06,7.61855e-06,-3.27917e-08,7.91218e-06,55,117.2,-48.36,1.0833e+07,1e+06,-5.45681e-08,2.09984e-07,-6.5542e-08,0.00347934,0.0409918,7.90081e-05,0.0393826,2,2095
12,8.27175e-22,1,3370,130.6,-2.18946e-06,7.67076e-06,-3.33442e-08,7.97718e-06,55,117.2,-48.36,1.0833e+07,1e+06,-5.39577e-08,2.13437e-07,-6.68588e-08,0.00393414,0.0419527,2.46783e-05,0.0402482,2,2096
12,8.27175e-22,1,3371,130.6,-2.24314e-06,7.72145e-06,-3.60541e-08,8.04076e-06,55,117.2,-48.36,1.0833e+07,1e+06,-5.59088e-08,2.22536e-07,-7.16647e-08,0.00397986,0.0437543,-0.00066138,0.0425326,2,2097
12,6.9198e-22,1,3372,130.6,-2.30128e-06,7.78036e-06,-3.80891e-08,8.11365e-06,57.75,117.2,-48.36,8.24975e+06,875000,-6.33385e-08,2.50178e-07,-7.635e-08,0.00394955,0.0464843,0.00200692,0.0447316,2,2098
12,4.16929e-22,2,3373,95.17,-2.36981e-06,7.7641e-06,-4.96399e-08,8.11787e-06,63.75,150.32,151.68,3.08325e+06,625000,-7.30786e-08,2.56603e-07,-9.9793e-08,-4.70996e-05,0.0370112,0.00057984,0.0382489,3,1273
12,2.72414e-22,2,3374,95.17,-2.44743e-06,7.65218e-06,-5.75571e-08,8.03425e-06,67.5,150.32,151.68,500000,500000,-7.94831e-08,2.45217e-07,-1.14923e-07,-0.00384981,0.0269091,-0.00182068,0.0305649,3,1274
12,2.67754e-22,2,3375,95.17,-2.52878e-06,7.53977e-06,-5.15791e-08,7.95271e-06,68,150.32,151.68,500000,500000,-7.96792e-08,2.41097e-07,-1.02986e-07,-0.00344112,0.0273776,0.000488245,0.0295705,3,1275
12,2.67754e-22,2,3376,95.17,-2.60679e-06,7.44393e-06,-4.67909e-08,7.88731e-06,68,150.32,151.68,500000,500000,-7.69972e-08,2.23305e-07,-9.36241e-08,-0.00372728,0.0254662,0.000282998,0.0280636,3,1276
12,2.67754e-22,2,3377,95.17,-2.68278e-06,7.33791e-06,-4.46394e-08,7.81308e-06,68,150.32,151.68,500000,500000,-7.65553e-08,2.15723e-07,-8.86084e-08,-0.00379582,0.0245281,0.000401668,0.02709,3,1277
12,3.22395e-22,2,3378,95.17,-2.7599e-06,7.20284e-06,-3.46653e-08,7.71357e-06,68.1875,150.32,151.68,2.43744e+06,593750,-7.43882e-08,1.96803e-07,-6.87234e-08,-0.0040033,0.0268527,0.000273789,0.0297145,3,1278
12,4.49891e-22,1,3379,53.66,-2.83155e-06,7.11605e-06,-1.24033e-08,7.65872e-06,68.625,-114.01,-136.45,6.95813e+06,812500,-7.05991e-08,1.4825e-07,-2.61171e-08,-0.0052076,0.0284977,0.000466747,0.0318939,2,2099
12,5.4096e-22,1,3380,53.66,-2.9011e-06,7.10584e-06,5.1583e-10,7.67524e-06,68.9375,-114.01,-136.45,1.01872e+07,968750,-7.09607e-08,1.17911e-07,2.14475e-10,-0.00630729,0.0282832,0.00104671,0.0316824,2,2100
12,5.59174e-22,1,3381,53.66,-2.97347e-06,7.10753e-06,1.88953e-09,7.70445e-06,69,-114.01,-136.45,1.0833e+07,1e+06,-7.33585e-08,1.12464e-07,4.07139e-09,-0.00699106,0.02759,0.000803813,0.0313979,2,2101
12,5.59174e-22,1,3382,53.66,-3.04782e-06,7.11314e-06,1.78156e-09,7.7386e-06,69,-114.01,-136.45,1.0833e+07,1e+06,-7.5655e-08,1.12049e-07,4.02232e-09,-0.00752175,0.0271632,0.000392707,0.0315406,2,2102
12,5.59174e-22,1,3383,53.66,-3.12478e-06,7.12739e-06,1.82479e-09,7.78229e-06,69,-114.01,-136.45,1.0833e+07,1e+06,-7.72506e-08,1.12106e-07,3.90533e-09,-0.00785753,0.0269667,0.000104327,0.0317111,2,2103
12,5.59174e-22,1,3384,53.66,-3.20232e-06,7.14493e-06,2.20908e-09,7.82974e-06,69,-114.01,-136.45,1.0833e+07,1e+06,-7.75459e-08,1.10796e-07,4.23413e-09,-0.00797521,0.0265291,2.69311e-05,0.0314224,2,2104
12,5.59174e-22,1,3385,53.66,-3.27987e-06,7.1645e-06,2.2385e-09,7.87957e-06,69,-114.01,-136.45,1.0833e+07,1e+06,-7.74487e-08,1.10465e-07,4.90975e-09,-0.00792952,0.0264975,0.00023204,0.0313041,2,2105
12,5.59174e-22,1,3386,53.66,-3.35722e-06,7.18177e-06,3.30413e-09,7.92772e-06,69,-114.01,-136.45,1.0833e+07,1e+06,-7.69875e-08,1.09143e-07,6.77952e-09,-0.00785788,0.0263248,0.000832791,0.0309166,2,2106
12,5.3393e-22,1,3387,53.66,-3.43385e-06,7.19692e-06,-1.93217e-09,7.97415e-06,70.125,-114.01,-136.45,8.89556e+06,906250,-7.77281e-08,1.16411e-07,-4.95108e-09,-0.00875186,0.0251891,-0.000143933,0.0311618,2,2107
12,4.96911e-22,2,3388,82.04,-3.51267e-06,7.16368e-06,-1.90958e-08,7.97857e-06,73.125,62.56,148.29,5.02069e+06,718750,-8.00227e-08,1.4645e-07,-3.78071e-08,-0.0094398,0.0231033,-0.000942319,0.0301589,3,1279
12,5.42367e-22,2,3389,82.04,-3.59389e-06,7.06172e-06,-3.09964e-08,7.92369e-06,76.5,62.56,148.29,4.37488e+06,687500,-8.33377e-08,1.74697e-07,-6.14066e-08,-0.00826649,0.0217276,-0.000178344,0.0275481,3,1280
12,6.43364e-22,1,3390,91.26,-3.67935e-06,6.96859e-06,-3.34287e-08,7.88036e-06,78.75,-49.63,-179.82,6.95812e+06,812500,-8.7745e-08,1.87173e-07,-6.72298e-08,-0.00688929,0.022174,-0.000137003,0.0267472,2,2108
12,6.87128e-22,1,3391,91.26,-3.76938e-06,6.9015e-06,-3.6409e-08,7.86386e-06,79.5,-49.63,-179.82,8.24975e+06,875000,-9.02905e-08,2.00369e-07,-7.27779e-08,-0.00588454,0.0239634,-0.00024693,0.027745,2,2109
12,6.87128e-22,1,3392,91.26,-3.85993e-06,6.82979e-06,-4.03953e-08,7.84517e-06,79.5,-49.63,-179.82,8.24975e+06,875000,-9.08045e-08,2.16288e-07,-8.1061e-08,-0.00473765,0.0262513,-0.000312555,0.0294097,2,2110
12,7.23225e-22,1,3393,91.26,-3.95099e-06,6.75418e-06,-4.18392e-08,7.82503e-06,80.0625,-49.63,-179.82,8.89556e+06,906250,-9.0069e-08,2.33579e-07,-8.33432e-08,-0.00283577,0.032109,-0.00024714,0.0346784,2,2111
12,8.00157e-22,1,3394,133.1,-4.04007e-06,6.72932e-06,-3.3106e-08,7.84901e-06,81.25,119.51,-49.37,1.01872e+07,968750,-8.7138e-08,2.21653e-07,-6.63852e-08,-0.00261458,0.0356922,0.000343628,0.0378967,2,2112
12,8.45731e-22,1,3395,133.1,-4.12527e-06,6.77601e-06,-2.50316e-08,7.93302e-06,81.9375,119.51,-49.37,1.0833e+07,1e+06,-8.52157e-08,1.97855e-07,-5.05477e-08,-0.00409159,0.0342996,0.000570641,0.0365299,2,2113
12,8.50469e-22,1,3396,133.1,-4.2105e-06,6.84343e-06,-2.50983e-08,8.03501e-06,82,119.51,-49.37,1.0833e+07,1e+06,-8.67284e-08,1.96183e-07,-4.97364e-08,-0.00479931,0.0341571,0.000244242,0.036716,2,2114
12,8.50469e-22,1,3397,133.1,-4.29873e-06,6.9151e-06,-2.53713e-08,8.14238e-06,82,119.51,-49.37,1.0833e+07,1e+06,-8.92595e-08,1.98614e-07,-5.06382e-08,-0.00532506,0.0343807,4.99469e-05,0.0373389,2,2115
12,8.50469e-22,1,3398,133.1,-4.38902e-06,6.99164e-06,-2.54473e-08,8.25513e-06,82,119.51,-49.37,1.0833e+07,1e+06,-9.08198e-08,1.99715e-07,-5.09588e-08,-0.00565056,0.0343598,9.85834e-06,0.0375152,2,2116
12,8.50469e-22,1,3399,133.1,-4.48037e-06,7.07321e-06,-2.55679e-08,8.37285e-06,82,119.51,-49.37,1.0833e+07,1e+06,-9.16721e-08,1.99871e-07,-5.11323e-08,-0.00585592,0.0341407,3.09143e-06,0.0374216,2,2117
12,8.50469e-22,1,3400,133.1,-4.57236e-06,7.16147e-06,-2.56687e-08,8.49669e-06,82,119.51,-49.37,1.0833e+07,1e+06,-9.23485e-08,1.9942e-07,-5.12455e-08,-0.00606082,0.0337244,9.04658e-06,0.0371682,2,2118
12,8.50469e-22,1,3401,133.1,-4.66506e-06,7.25909e-06,-2.5372e-08,8.6289e-06,82,119.51,-49.37,1.0833e+07,1e+06,-9.23257e-08,1.98119e-07,-5.08005e-08,-0.00607801,0.0331303,0.00020753,0.0366251,2,2119
12,8.12457e-22,1,3402,133.1,-4.75701e-06,7.36647e-06,-2.58811e-08,8.76897e-06,82.4375,119.51,-49.37,1.01872e+07,968750,-8.95895e-08,1.92668e-07,-5.16716e-08,-0.00613469,0.0316707,-0.000347746,0.0358777,2,2120
12,6.22396e-22,1,3403,133.1,-4.84424e-06,7.46531e-06,-3.34647e-08,8.89936e-06,84.625,119.51,-49.37,6.95813e+06,812500,-8.00142e-08,2.09498e-07,-6.72782e-08,-0.00477046,0.033797,-0.000532999,0.0382103,2,2121
12,3.56312e-22,2,3404,99.87,-4.91704e-06,7.48821e-06,-5.15456e-08,8.95841e-06,87.6875,165.01,-32.53,2.43744e+06,593750,-6.39696e-08,2.38799e-07,-1.03249e-07,-0.00434283,0.0350565,0.000126707,0.0390835,3,1281
12,2.42275e-22,2,3405,99.87,-4.97218e-06,7.4623e-06,-6.54242e-08,8.96732e-06,89,165.01,-32.53,500000,500000,-5.14708e-08,2.51025e-07,-1.3037e-07,-0.00502395,0.0338993,4.36256e-05,0.038019,3,1282
12,2.42275e-22,2,3406,99.87,-5.01998e-06,7.4551e-06,-6.86187e-08,8.98796e-06,89,165.01,-32.53,500000,500000,-4.68812e-08,2.57049e-07,-1.37241e-07,-0.00451278,0.0350524,-5.64123e-05,0.039032,3,1283
12,2.42275e-22,2,3407,99.87,-5.06594e-06,7.45355e-06,-6.99384e-08,9.01244e-06,89,165.01,-32.53,500000,500000,-4.41639e-08,2.58864e-07,-1.39934e-07,-0.00419294,0.035404,4.10637e-05,0.0391873,3,1284
12,2.42275e-22,2,3408,99.87,-5.10831e-06,7.4521e-06,-7.10162e-08,9.03514e-06,89,165.01,-32.53,500000,500000,-3.9099e-08,2.57081e-07,-1.42161e-07,-0.00358002,0.0352078,6.55849e-05,0.0386072,3,1285
12,2.42275e-22,2,3409,99.87,-5.14414e-06,7.44718e-06,-7.18715e-08,9.0514e-06,89,165.01,-32.53,500000,500000,-3.02584e-08,2.50285e-07,-1.44037e-07,-0.00261614,0.0343337,4.61242e-05,0.0371666,3,1286
12,2.42275e-22,2,3410,99.87,-5.16883e-06,7.44143e-06,-7.35578e-08,9.06074e-06,89,165.01,-32.53,500000,500000,-2.36117e-08,2.39864e-07,-1.46798e-07,-0.00240629,0.0323798,-0.000941614,0.0354915,3,1287
12,3.56707e-22,2,3411,99.87,-5.19137e-06,7.42272e-06,-5.71863e-08,9.05816e-06,94,165.01,-32.53,3.08325e+06,625000,-3.15018e-08,2.27903e-07,-1.1375e-07,-0.000376726,0.0362401,0.000432986,0.0375548,3,1288
12,5.85572e-22,1,3412,64.5,-5.23183e-06,7.41708e-06,-3.71573e-08,9.0767e-06,104,-144,-153.09,8.24975e+06,875000,-4.52178e-08,2.17623e-07,-7.45725e-08,0.00214451,0.0432677,0.000868364,0.042645,2,2122
12,7.00004e-22,1,3413,64.5,-5.2818e-06,7.41157e-06,-3.47333e-08,9.1011e-06,109,-144,-153.09,1.0833e+07,1e+06,-4.76499e-08,2.14044e-07,-6.97898e-08,0.00296176,0.0455604,-0.000635811,0.0449573,2,2123
12,7.00004e-22,1,3414,64.5,-5.32713e-06,7.36934e-06,-3.47872e-08,9.09322e-06,109,-144,-153.09,1.0833e+07,1e+06,-4.49676e-08,2.15373e-07,-6.95365e-08,0.00382842,0.0463446,-0.000172729,0.0452459,2,2124
12,7.00004e-22,1,3415,64.5,-5.37174e-06,7.31142e-06,-3.49935e-08,9.07268e-06,109,-144,-153.09,1.0833e+07,1e+06,-4.50715e-08,2.17807e-07,-6.99975e-08,0.00397867,0.0470019,-5.36798e-05,0.0458499,2,2125
12,7.00004e-22,1,3416,64.5,-5.41727e-06,7.24311e-06,-3.51092e-08,9.04493e-06,109,-144,-153.09,1.0833e+07,1e+06,-4.61478e-08,2.19431e-07,-7.02011e-08,0.00381018,0.0473051,-1.80302e-05,0.0461875,2,2126
12,7.00004e-22,1,3417,64.5,-5.46403e-06,7.16894e-06,-3.50141e-08,9.01391e-06,109,-144,-153.09,1.0833e+07,1e+06,-4.72829e-08,2.19712e-07,-7.00628e-08,0.00356598,0.0471915,-1.46442e-05,0.0460732,2,2127
12,7.00004e-22,1,3418,64.5,-5.51184e-06,7.09197e-06,-3.47579e-08,8.98207e-06,109,-144,-153.09,1.0833e+07,1e+06,-4.8916e-08,2.1901e-07,-6.96e-08,0.00309757,0.0467834,-6.64851e-05,0.0457842,2,2128
12,7.00004e-22,1,3419,64.5,-5.56186e-06,7.0117e-06,-3.35244e-08,8.94983e-06,109,-144,-153.09,1.0833e+07,1e+06,-5.16047e-08,2.20677e-07,-6.63267e-08,0.00263254,0.0474833,0.000814653,0.0462498,2,2129
12,6.78378e-22,1,3420,64.5,-5.61505e-06,6.91289e-06,-3.29562e-08,8.90606e-06,108.875,-144,-153.09,1.01872e+07,968750,-5.56612e-08,2.24369e-07,-6.65639e-08,0.00186311,0.047415,0.000875581,0.0472277,2,2130
12,5.70247e-22,1,3421,64.5,-5.67319e-06,6.80943e-06,-4.20076e-08,8.86314e-06,108.25,-144,-153.09,6.95813e+06,812500,-7.2516e-08,2.43676e-07,-8.45033e-08,0.00059483,0.0423999,-0.00221273,0.0457429,2,2131
12,4.18531e-22,2,3422,110.45,-5.76008e-06,6.76027e-06,-4.96224e-08,8.88156e-06,111.375,-147.4,-167.14,2.43744e+06,593750,-9.37086e-08,2.80348e-07,-9.8476e-08,0.00178856,0.0366986,-0.00040095,0.0389035,3,1289
12,3.52987e-22,2,3423,155.53,-5.8606e-06,6.79856e-06,-6.72628e-08,8.97617e-06,119,-173.56,119.95,500000,500000,-9.10164e-08,3.09934e-07,-1.34766e-07,0.000859624,0.0333336,0.000982305,0.0342201,3,1290
12,3.52654e-22,2,3424,155.53,-5.94211e-06,6.8776e-06,-8.76509e-08,9.08943e-06,123,-173.56,119.95,500000,500000,-8.01754e-08,3.31212e-07,-1.75293e-07,-0.000972206,0.0334688,-0.000835989,0.0354884,3,1291
12,3.52654e-22,2,3425,155.53,-6.02095e-06,6.95924e-06,-9.16338e-08,9.20278e-06,123,-173.56,119.95,500000,500000,-8.36785e-08,3.53228e-07,-1.8319e-07,-0.000268681,0.036319,4.80102e-05,0.0376051,3,1292
12,3.52654e-22,2,3426,155.53,-6.10947e-06,7.05711e-06,-9.56383e-08,9.33475e-06,123,-173.56,119.95,500000,500000,-9.26737e-08,3.7409e-07,-1.91316e-07,-0.000639325,0.038171,0.000130462,0.0395486,3,1293
12,3.52654e-22,2,3427,155.53,-6.2063e-06,7.17428e-06,-9.8283e-08,9.48674e-06,123,-173.56,119.95,500000,500000,-9.91628e-08,3.87535e-07,-1.96653e-07,-0.000914115,0.0391241,0.000128747,0.0405075,3,1294
12,3.52654e-22,2,3428,155.53,-6.3078e-06,7.30761e-06,-9.88099e-08,9.65397e-06,123,-173.56,119.95,500000,500000,-1.01802e-07,3.90392e-07,-1.97676e-07,-0.00102736,0.0389619,6.79083e-05,0.040257,3,1295
12,3.52654e-22,2,3429,155.53,-6.4099e-06,7.45148e-06,-9.72572e-08,9.82959e-06,123,-173.56,119.95,500000,500000,-1.0088e-07,3.837e-07,-1.9449e-07,-0.000962984,0.0378724,1.2864e-05,0.0389751,3,1296
12,3.52654e-22,2,3430,155.53,-6.50956e-06,7.6016e-06,-9.39947e-08,1.00084e-05,123,-173.56,119.95,500000,500000,-9.75437e-08,3.69872e-07,-1.8796e-07,-0.000791349,0.0360863,-2.84698e-05,0.0369369,3,1297
12,3.52654e-22,2,3431,155.53,-6.60499e-06,7.75509e-06,-8.96081e-08,1.0187e-05,123,-173.56,119.95,500000,500000,-9.30306e-08,3.51864e-07,-1.792e-07,-0.000577893,0.0339055,-4.07098e-05,0.0344875,3,1298
12,3.52654e-22,2,3432,155.53,-6.69562e-06,7.9099e-06,-8.46001e-08,1.03636e-05,123,-173.56,119.95,500000,500000,-8.80998e-08,3.31806e-07,-1.69195e-07,-0.000373811,0.03155,-3.04147e-05,0.0318926,3,1299
12,3.52654e-22,2,3433,155.53,-6.78119e-06,8.06388e-06,-7.92545e-08,1.05365e-05,123,-173.56,119.95,500000,500000,-8.2923e-08,3.10466e-07,-1.58518e-07,-0.000209944,0.0290931,-3.04942e-05,0.0292656,3,1300
12,3.52654e-22,2,3434,155.53,-6.86146e-06,8.21449e-06,-7.40987e-08,1.07034e-05,123,-173.56,119.95,500000,500000,-7.89187e-08,2.89081e-07,-1.48167e-07,-0.000370781,0.0264794,-0.000194286,0.0267733,3,1301
12,5.10656e-22,1,3435,71.87,-2.84336e-08,6.59822e-06,-3.63319e-08,6.59838e-06,21.75,-131.18,-164.33,8.24975e+06,875000,-5.76011e-08,2.10623e-07,-7.34129e-08,0.00358021,0.0349428,-0.000222915,0.0349956,2,2132
12,3.93953e-22,2,3436,110.47,-8.67687e-08,6.65031e-06,-5.20706e-08,6.65108e-06,11.25,-113.15,-163.66,3.08325e+06,625000,-6.03316e-08,2.28448e-07,-1.02575e-07,0.00236714,0.0288953,-0.00258891,0.0311222,3,1302
12,3.35602e-22,2,3437,110.47,-1.49097e-07,6.68606e-06,-5.501e-08,6.68795e-06,6,-113.15,-163.66,500000,500000,-6.42369e-08,2.39901e-07,-1.10305e-07,0.00229515,0.0248806,0.000144571,0.0241076,3,1303
12,3.35602e-22,2,3438,110.47,-2.15242e-07,6.71895e-06,-5.62194e-08,6.72263e-06,6,-113.15,-163.66,500000,500000,-6.8945e-08,2.45366e-07,-1.14961e-07,0.00153768,0.0246665,-0.000513826,0.024416,3,1304
12,3.5019e-22,2,3439,110.47,-2.86987e-07,6.75779e-06,-5.82786e-08,6.76413e-06,7.3125,-113.15,-163.66,1.14581e+06,531250,-7.30115e-08,2.56309e-07,-1.15204e-07,0.00182421,0.0278588,-0.00095757,0.0284837,3,1305
12,4.06421e-22,2,3440,110.47,-3.61266e-07,6.8074e-06,-5.03754e-08,6.81717e-06,12.9375,-113.15,-163.66,3.72906e+06,656250,-7.21968e-08,2.54233e-07,-9.82517e-08,0.00307484,0.0349935,-0.00114984,0.0365586,3,1306
12,4.41703e-22,1,3441,71.87,-4.3138e-07,6.86509e-06,-3.61244e-08,6.87873e-06,18.375,-131.18,-164.33,5.6665e+06,750000,-7.41791e-08,2.36155e-07,-7.26387e-08,0.00404379,0.0382581,-0.00158278,0.0391579,2,2133
12,4.01925e-22,2,3442,48.37,-5.09624e-07,6.91412e-06,-2.38563e-08,6.93291e-06,17.625,-65.47,173.71,4.37488e+06,687500,-8.45984e-08,2.25305e-07,-4.85061e-08,0.00471099,0.0369359,-0.000640385,0.0359064,3,1307
12,3.85216e-22,2,3443,48.37,-6.00577e-07,6.96003e-06,-1.84039e-08,6.98592e-06,16.6875,-65.47,173.71,3.72906e+06,656250,-8.80178e-08,2.19178e-07,-3.7858e-08,0.00423836,0.0359288,0.000795622,0.0344159,3,1308
12,4.5205e-22,2,3444,48.37,-6.85659e-07,7.01092e-06,-2.35501e-08,7.04441e-06,20.4375,-65.47,173.71,6.31231e+06,781250,-7.80865e-08,2.11139e-07,-4.74332e-08,0.0027748,0.0356199,0.00105577,0.0347165,3,1309
12,5.35591e-22,1,3445,71.87,-7.5675e-07,7.06515e-06,-3.02234e-08,7.10563e-06,25.125,-131.18,-164.33,9.54138e+06,937500,-6.87056e-08,2.0596e-07,-6.01641e-08,0.00203836,0.0351581,0.00024488,0.0345371,2,2134
12,5.69008e-22,1,3446,71.87,-8.23071e-07,7.11712e-06,-3.21372e-08,7.16463e-06,27,-131.18,-164.33,1.0833e+07,1e+06,-6.9181e-08,2.04887e-07,-6.42889e-08,0.00115959,0.0345873,-0.0003454,0.0343119,2,2135
12,5.36987e-22,1,3447,71.87,-8.95112e-07,7.15731e-06,-3.30369e-08,7.21314e-06,25.75,-131.18,-164.33,9.54138e+06,937500,-7.82484e-08,2.13591e-07,-6.60688e-08,-1.1263e-05,0.0335526,-2.6697e-07,0.034007,2,2136
12,4.46311e-22,2,3448,84.09,-9.79567e-07,7.18523e-06,-3.89804e-08,7.2518e-06,25.4375,154.9,-166.02,5.6665e+06,750000,-8.08592e-08,2.20499e-07,-7.69247e-08,-0.00108638,0.0295744,-0.000213842,0.0311116,3,1310
12,3.62815e-22,2,3449,103.3,-1.05683e-06,7.22312e-06,-4.32525e-08,7.30015e-06,29.375,-73.15,30.56,1.79163e+06,562500,-6.58272e-08,2.0699e-07,-8.68483e-08,-0.00195455,0.0253217,-0.000434129,0.027448,3,1311
12,3.3977e-22,2,3450,103.3,-1.11122e-06,7.28766e-06,-4.53127e-08,7.37203e-06,33.1875,-73.15,30.56,500000,500000,-5.00185e-08,1.94975e-07,-9.09148e-08,-0.00210629,0.0248871,-0.000191143,0.026847,3,1312
12,3.41565e-22,2,3451,103.3,-1.15687e-06,7.35248e-06,-4.64157e-08,7.44308e-06,34,-73.15,30.56,500000,500000,-4.52411e-08,1.95298e-07,-9.27073e-08,-0.00196321,0.0259269,8.56838e-06,0.0277453,3,1313
12,3.41565e-22,2,3452,103.3,-1.2017e-06,7.40311e-06,-4.65112e-08,7.50015e-06,34,-73.15,30.56,500000,500000,-4.49424e-08,1.96143e-07,-9.31136e-08,-0.00205603,0.0263112,2.5172e-05,0.0283099,3,1314
12,3.41565e-22,2,3453,103.3,-1.24675e-06,7.44433e-06,-4.66003e-08,7.54815e-06,34,-73.15,30.56,500000,500000,-4.48758e-08,1.96679e-07,-9.31874e-08,-0.00213224,0.0265787,5.48697e-05,0.0287137,3,1315
12,3.41565e-22,2,3454,103.3,-1.29146e-06,7.47573e-06,-4.63177e-08,7.5866e-06,34,-73.15,30.56,500000,500000,-4.41844e-08,1.95038e-07,-9.26685e-08,-0.00218969,0.0264862,2.5016e-05,0.0287484,3,1316
12,3.41565e-22,2,3455,103.3,-1.33512e-06,7.49696e-06,-4.58263e-08,7.61505e-06,34,-73.15,30.56,500000,500000,-4.34022e-08,1.92257e-07,-9.16244e-08,-0.00224626,0.026194,-2.52728e-05,0.0285688,3,1317
12,3.41565e-22,2,3456,103.3,-1.37826e-06,7.50926e-06,-4.52131e-08,7.63483e-06,34,-73.15,30.56,500000,500000,-4.31985e-08,1.90338e-07,-9.0515e-08,-0.0022792,0.0259867,-3.84952e-05,0.0284128,3,1318
12,3.41565e-22,2,3457,103.3,-1.42152e-06,7.51606e-06,-4.43815e-08,7.64943e-06,34,-73.15,30.56,500000,500000,-4.36219e-08,1.8782e-07,-8.90993e-08,-0.00238885,0.0255323,-0.000112131,0.0280236,3,1319
12,3.41565e-22,2,3458,103.3,-1.4655e-06,7.51863e-06,-4.40451e-08,7.66025e-06,34,-73.15,30.56,500000,500000,-4.57031e-08,1.8844e-07,-8.77637e-08,-0.00245813,0.0254499,-1.27637e-05,0.027828,3,1320
12,3.45839e-22,2,3459,103.3,-1.51292e-06,7.52395e-06,-4.23004e-08,7.67467e-06,34.0625,-73.15,30.56,500000,500000,-4.95951e-08,1.89487e-07,-8.40683e-08,-0.00234335,0.0257484,-7.0539e-05,0.0281643,3,1321
12,4.41166e-22,2,3460,103.3,-1.56469e-06,7.52013e-06,-3.62402e-08,7.68127e-06,38.0625,-73.15,30.56,2.43744e+06,593750,-5.20495e-08,1.8929e-07,-7.21655e-08,-0.000819622,0.0290958,1.23623e-05,0.0310613,3,1322
12,6.49346e-22,1,3461,130.6,-1.61702e-06,7.51207e-06,-3.05604e-08,7.68419e-06,47.1875,117.2,-48.36,6.95813e+06,812500,-5.30745e-08,1.94391e-07,-6.2091e-08,0.00135326,0.0352122,0.000418,0.0354995,2,2137
12,7.96824e-22,1,3462,130.6,-1.67084e-06,7.52184e-06,-2.98597e-08,7.70524e-06,53.6875,117.2,-48.36,1.01872e+07,968750,-5.5026e-08,1.99218e-07,-6.00765e-08,0.00217119,0.0384578,0.00060104,0.0373765,2,2138
12,8.27175e-22,1,3463,130.6,-1.72708e-06,7.54066e-06,-3.05909e-08,7.73597e-06,55,117.2,-48.36,1.0833e+07,1e+06,-5.5863e-08,1.99406e-07,-6.04721e-08,0.0021988,0.0386635,0.000315721,0.0374782,2,2139
12,8.27175e-22,1,3464,130.6,-1.78257e-06,7.56406e-06,-3.06244e-08,7.77133e-06,55,117.2,-48.36,1.0833e+07,1e+06,-5.52149e-08,1.98361e-07,-6.14177e-08,0.00221353,0.0383472,-4.83597e-05,0.0373619,2,2140
12,8.27175e-22,1,3465,130.6,-1.83751e-06,7.59438e-06,-3.08746e-08,7.81358e-06,55,117.2,-48.36,1.0833e+07,1e+06,-5.51972e-08,1.99161e-07,-6.17179e-08,0.00230781,0.0384782,-1.71448e-05,0.0374236,2,2141
12,8.27175e-22,1,3466,130.6,-1.89296e-06,7.63138e-06,-3.11698e-08,7.86271e-06,55,117.2,-48.36,1.0833e+07,1e+06,-5.5966e-08,2.01197e-07,-6.23419e-08,0.00227732,0.0388249,-1.41992e-05,0.0377755,2,2142
12,8.27175e-22,1,3467,130.6,-1.94944e-06,7.67429e-06,-3.15364e-08,7.91808e-06,55,117.2,-48.36,1.0833e+07,1e+06,-5.70473e-08,2.03909e-07,-6.30705e-08,0.00221829,0.0393171,-2.16942e-07,0.0382845,2,2143
12,8.27175e-22,1,3468,130.6,-2.00706e-06,7.72238e-06,-3.19306e-08,7.979e-06,55,117.2,-48.36,1.0833e+07,1e+06,-5.81335e-08,2.06884e-07,-6.38622e-08,0.00218046,0.0398846,1.38167e-05,0.0388635,2,2144
12,8.27175e-22,1,3469,130.6,-2.0657e-06,7.7747e-06,-3.23388e-08,8.04451e-06,55,117.2,-48.36,1.0833e+07,1e+06,-5.91187e-08,2.09922e-07,-6.46808e-08,0.00217274,0.0405017,1.62669e-05,0.039493,2,2145
12,8.27175e-22,1,3470,130.6,-2.1253e-06,7.82994e-06,-3.28462e-08,8.11332e-06,55,117.2,-48.36,1.0833e+07,1e+06,-6.0392e-08,2.13616e-07,-6.57321e-08,0.00212384,0.0412776,-3.18205e-05,0.0403463,2,2146
12,8.27175e-22,1,3471,130.6,-2.18649e-06,7.88724e-06,-3.37886e-08,8.18477e-06,55,117.2,-48.36,1.0833e+07,1e+06,-6.33866e-08,2.19944e-07,-6.75583e-08,0.00177961,0.042514,-0.000177089,0.0418649,2,2147
12,8.27175e-22,1,3472,130.6,-2.25207e-06,7.95017e-06,-3.6066e-08,8.26306e-06,55,117.2,-48.36,1.0833e+07,1e+06,-7.04187e-08,2.32568e-07,-7.25323e-08,0.000692887,0.0445305,-0.000800646,0.0447798,2,2148
12,6.8732e-22,1,3473,130.6,-2.32733e-06,8.03478e-06,-4.00982e-08,8.36515e-06,58.25,117.2,-48.36,8.24975e+06,875000,-7.69937e-08,2.51322e-07,-7.97948e-08,-0.000300482,0.0439891,0.0011803,0.0441912,2,2149
12,4.07609e-22,2,3474,95.17,-2.40606e-06,8.02032e-06,-5.2262e-08,8.37361e-06,64.75,150.32,151.68,3.08325e+06,625000,-7.44445e-08,2.51243e-07,-1.04148e-07,-0.00205929,0.0337743,0.000531897,0.0352501,3,1323
12,2.67754e-22,2,3475,95.17,-2.47621e-06,7.89459e-06,-5.84939e-08,8.27403e-06,68,150.32,151.68,500000,500000,-6.80566e-08,2.39531e-07,-1.17378e-07,-0.00261999,0.0263447,-0.00111259,0.0286704,3,1324
12,2.67754e-22,2,3476,95.17,-2.54217e-06,7.77648e-06,-5.34287e-08,8.18164e-06,68,150.32,151.68,500000,500000,-6.55798e-08,2.33259e-07,-1.06911e-07,-0.00178995,0.0269258,0.00026532,0.028334,3,1325
12,2.67754e-22,2,3477,95.17,-2.60737e-06,7.66554e-06,-5.07463e-08,8.097e-06,68,150.32,151.68,500000,500000,-6.31905e-08,2.22081e-07,-1.01459e-07,-0.0018572,0.0257581,0.000105511,0.027344,3,1326
12,2.67754e-22,2,3478,95.17,-2.66855e-06,7.55224e-06,-4.98223e-08,8.01e-06,68,150.32,151.68,500000,500000,-6.1354e-08,2.16256e-07,-1.00273e-07,-0.00174228,0.0246983,-0.000121261,0.0261993,3,1327
12,2.85968e-22,2,3479,95.17,-2.73008e-06,7.41209e-06,-4.90442e-08,7.89904e-06,68.0625,150.32,151.68,1.14581e+06,531250,-6.27125e-08,2.1962e-07,-9.67959e-08,-0.00157562,0.0268958,-6.37451e-05,0.0283351,3,1328
12,3.58823e-22,2,3480,95.17,-2.79398e-06,7.28419e-06,-3.48702e-08,7.80172e-06,68.3125,150.32,151.68,3.72906e+06,656250,-6.41951e-08,1.95483e-07,-6.81663e-08,-0.00254166,0.0296867,9.51426e-05,0.0318267,3,1329
12,4.49891e-22,1,3481,53.66,-2.85847e-06,7.22894e-06,-1.42007e-08,7.77358e-06,68.625,-114.01,-136.45,6.95813e+06,812500,-6.76388e-08,1.52789e-07,-2.99635e-08,-0.00459883,0.0290723,0.000296703,0.0322829,2,2150
12,5.04533e-22,1,3482,53.66,-2.92925e-06,7.21853e-06,-2.87888e-09,7.79023e-06,68.8125,-114.01,-136.45,8.89556e+06,906250,-7.41976e-08,1.27653e-07,-7.12009e-09,-0.00659697,0.027572,0.000678721,0.0316903,2,2151
12,5.4096e-22,1,3483,53.66,-3.00687e-06,7.22438e-06,1.86556e-09,7.82515e-06,68.9375,-114.01,-136.45,1.01872e+07,968750,-7.73342e-08,1.15458e-07,3.44892e-09,-0.00759337,0.0271492,0.000738822,0.0316158,2,2152
12,5.59174e-22,1,3484,53.66,-3.08392e-06,7.23901e-06,2.7292e-09,7.86853e-06,69,-114.01,-136.45,1.0833e+07,1e+06,-7.65762e-08,1.10571e-07,5.78628e-09,-0.00758551,0.0266922,0.000612483,0.0310686,2,2153
12,5.59174e-22,1,3485,53.66,-3.16002e-06,7.25514e-06,2.27815e-09,7.91346e-06,69,-114.01,-136.45,1.0833e+07,1e+06,-7.64938e-08,1.09948e-07,5.12299e-09,-0.00764801,0.0264336,0.000337015,0.0310131,2,2154
12,5.59174e-22,1,3486,53.66,-3.23691e-06,7.27496e-06,2.07616e-09,7.96258e-06,69,-114.01,-136.45,1.0833e+07,1e+06,-7.70549e-08,1.10456e-07,4.40189e-09,-0.00782176,0.0264744,8.62774e-05,0.0312598,2,2155
12,5.59174e-22,1,3487,53.66,-3.31413e-06,7.29259e-06,2.64058e-09,8.01033e-06,69,-114.01,-136.45,1.0833e+07,1e+06,-7.69396e-08,1.1079e-07,5.40758e-09,-0.00770732,0.0266946,0.000472836,0.0312788,2,2156
12,5.50759e-22,1,3488,53.66,-3.39079e-06,7.3091e-06,8.61619e-10,8.05732e-06,69.375,-114.01,-136.45,1.01872e+07,968750,-7.40297e-08,1.09515e-07,1.85889e-09,-0.0076959,0.0256931,0.000305846,0.0305735,2,2157
12,5.74333e-22,1,3489,53.66,-3.46219e-06,7.29598e-06,-9.38883e-09,8.07578e-06,72.375,-114.01,-136.45,8.89556e+06,906250,-7.15028e-08,1.23307e-07,-1.93283e-08,-0.00773889,0.0235998,-0.000469144,0.029232,2,2158
12,6.68607e-22,1,3490,91.26,-3.53379e-06,7.22827e-06,-2.40366e-08,8.04588e-06,77.625,-49.63,-179.82,8.89556e+06,906250,-7.68357e-08,1.59517e-07,-4.81008e-08,-0.00618286,0.0225266,3.87025e-05,0.0268357,2,2159
12,7.52775e-22,1,3491,91.26,-3.61586e-06,7.15472e-06,-3.16188e-08,8.01658e-06,80.625,-49.63,-179.82,1.01872e+07,968750,-8.65682e-08,1.86839e-07,-6.28696e-08,-0.00502585,0.022742,0.000562291,0.025603,2,2160
12,7.74657e-22,1,3492,91.26,-3.70693e-06,7.10106e-06,-3.44451e-08,8.01046e-06,81,-49.63,-179.82,1.0833e+07,1e+06,-9.4229e-08,2.03804e-07,-6.90472e-08,-0.00512109,0.0247625,0.000447938,0.0275671,2,2161
12,7.74657e-22,1,3493,91.26,-3.80432e-06,7.04768e-06,-3.83415e-08,8.009e-06,81,-49.63,-179.82,1.0833e+07,1e+06,-1.01645e-07,2.23608e-07,-7.69626e-08,-0.0052106,0.0272486,0.000268498,0.0302136,2,2162
12,7.79395e-22,1,3494,91.26,-3.91022e-06,6.99427e-06,-4.20238e-08,8.0132e-06,81.0625,-49.63,-179.82,1.0833e+07,1e+06,-1.08755e-07,2.4626e-07,-8.39543e-08,-0.00500377,0.0313544,0.000194029,0.0344369,2,2163
12,7.98348e-22,1,3495,91.26,-4.02183e-06,6.96069e-06,-3.91545e-08,8.03914e-06,81.3125,-49.63,-179.82,1.0833e+07,1e+06,-1.08141e-07,2.45309e-07,-7.75817e-08,-0.00523732,0.0345252,0.000248732,0.0380104,2,2164
12,8.26778e-22,1,3496,133.1,-4.1265e-06,6.97819e-06,-2.99631e-08,8.10704e-06,81.6875,119.51,-49.37,1.0833e+07,1e+06,-9.94654e-08,2.17255e-07,-6.04898e-08,-0.00601383,0.0342241,0.000193235,0.0380863,2,2165
12,8.45731e-22,1,3497,133.1,-4.22076e-06,7.03973e-06,-2.49332e-08,8.20812e-06,81.9375,119.51,-49.37,1.0833e+07,1e+06,-9.28073e-08,1.99886e-07,-5.04553e-08,-0.00602513,0.0337552,0.000338118,0.0371566,2,2166
12,8.50469e-22,1,3498,133.1,-4.31212e-06,7.11387e-06,-2.49594e-08,8.31878e-06,82,119.51,-49.37,1.0833e+07,1e+06,-9.16351e-08,1.98363e-07,-4.94028e-08,-0.00591561,0.0340414,0.000290197,0.0372251,2,2167
12,8.50469e-22,1,3499,133.1,-4.40403e-06,7.19065e-06,-2.51877e-08,8.43218e-06,82,119.51,-49.37,1.0833e+07,1e+06,-9.18425e-08,1.98777e-07,-5.0276e-08,-0.0060079,0.0340344,5.91804e-05,0.0373877,2,2168
12,8.50469e-22,1,3500,133.1,-4.4958e-06,7.27169e-06,-2.5031e-08,8.54928e-06,82,119.51,-49.37,1.0833e+07,1e+06,-9.13922e-08,1.97046e-07,-5.01028e-08,-0.00604759,0.0335549,2.90911e-05,0.0369487,2,2169
12,8.50469e-22,1,3501,133.1,-4.58681e-06,7.35857e-06,-2.48727e-08,8.67111e-06,82,119.51,-49.37,1.0833e+07,1e+06,-9.054e-08,1.94336e-07,-4.97015e-08,-0.00603795,0.0327936,5.87782e-05,0.0362184,2,2170
12,8.50469e-22,1,3502,133.1,-4.67688e-06,7.45365e-06,-2.46875e-08,8.79948e-06,82,119.51,-49.37,1.0833e+07,1e+06,-8.89197e-08,1.91462e-07,-4.92132e-08,-0.00578153,0.0320244,0.000192221,0.0353512,2,2171
12,8.50469e-22,1,3503,133.1,-4.76465e-06,7.55574e-06,-2.47807e-08,8.93262e-06,82,119.51,-49.37,1.0833e+07,1e+06,-8.65296e-08,1.89364e-07,-4.90888e-08,-0.00520776,0.0314995,0.000350058,0.0344882,2,2172
12,6.98421e-22,1,3504,133.1,-4.84994e-06,7.66547e-06,-2.58292e-08,9.07094e-06,83.75,119.51,-49.37,8.24975e+06,875000,-8.13204e-08,1.96703e-07,-5.2805e-08,-0.00410752,0.0327658,0.000859432,0.0356959,2,2173
12,3.94324e-22,2,3505,99.87,-4.92729e-06,7.71701e-06,-4.15971e-08,9.15599e-06,87.25,165.01,-32.53,3.08325e+06,625000,-7.04895e-08,2.22567e-07,-8.38483e-08,-0.00472029,0.0334891,0.00101099,0.0373094,3,1330
12,2.42275e-22,2,3506,99.87,-4.99092e-06,7.71082e-06,-6.03264e-08,9.18529e-06,89,165.01,-32.53,500000,500000,-5.90512e-08,2.46471e-07,-1.19712e-07,-0.00557469,0.033511,0.000365473,0.0378308,3,1331
12,2.42275e-22,2,3507,99.87,-5.0454e-06,7.71165e-06,-6.57654e-08,9.21574e-06,89,165.01,-32.53,500000,500000,-5.14688e-08,2.55129e-07,-1.31448e-07,-0.00459664,0.0346373,0.000144342,0.0383828,3,1332
12,2.42275e-22,2,3508,99.87,-5.09386e-06,7.71293e-06,-6.88655e-08,9.24345e-06,89,165.01,-32.53,500000,500000,-4.45966e-08,2.57953e-07,-1.37775e-07,-0.00365668,0.0350124,0.000237237,0.0381054,3,1333
12,2.42275e-22,2,3509,99.87,-5.13459e-06,7.7106e-06,-7.16347e-08,9.26404e-06,89,165.01,-32.53,500000,500000,-3.64029e-08,2.56972e-07,-1.4317e-07,-0.00262403,0.0347968,0.000179884,0.0372458,3,1334
12,2.42275e-22,2,3510,99.87,-5.16666e-06,7.69987e-06,-7.33389e-08,9.27296e-06,89,165.01,-32.53,500000,500000,-2.71996e-08,2.52171e-07,-1.46915e-07,-0.001555,0.0340589,0.000124033,0.0358223,3,1335
12,2.73422e-22,2,3511,99.87,-5.18899e-06,7.6827e-06,-7.3519e-08,9.27118e-06,90.5,165.01,-32.53,1.14581e+06,531250,-1.95841e-08,2.36516e-07,-1.46457e-07,-0.000776916,0.0325943,-0.00206052,0.0354243,3,1336
12,4.19001e-22,2,3512,99.87,-5.20583e-06,7.65934e-06,-5.59825e-08,9.26117e-06,97,165.01,-32.53,4.37488e+06,687500,-2.05746e-08,2.28082e-07,-1.11554e-07,0.00373293,0.039868,-0.00027649,0.0401784,3,1337
12,6.16718e-22,1,3513,64.5,-5.23014e-06,7.64317e-06,-3.80358e-08,9.26141e-06,105.5,-144,-153.09,8.89556e+06,906250,-2.748e-08,2.21103e-07,-7.65025e-08,0.00772886,0.0469843,0.00124649,0.0441768,2,2174
12,7.00004e-22,1,3514,64.5,-5.26079e-06,7.62497e-06,-3.64692e-08,9.26377e-06,109,-144,-153.09,1.0833e+07,1e+06,-3.10374e-08,2.10836e-07,-7.29414e-08,0.00749034,0.0461156,-0.000637303,0.0437682,2,2175
12,7.00004e-22,1,3515,64.5,-5.29221e-06,7.58407e-06,-3.56782e-08,9.24807e-06,109,-144,-153.09,1.0833e+07,1e+06,-3.29712e-08,2.13659e-07,-7.15166e-08,0.00724588,0.0468972,-2.71865e-05,0.0442919,2,2176
12,7.00004e-22,1,3516,64.5,-5.32673e-06,7.52828e-06,-3.57843e-08,9.22227e-06,109,-144,-153.09,1.0833e+07,1e+06,-3.50873e-08,2.16218e-07,-7.17135e-08,0.00678885,0.0474437,5.11353e-06,0.0450583,2,2177
12,7.00004e-22,1,3517,64.5,-5.36239e-06,7.46041e-06,-3.55648e-08,9.18772e-06,109,-144,-153.09,1.0833e+07,1e+06,-3.58548e-08,2.14812e-07,-7.12208e-08,0.00643334,0.0470303,-5.88184e-05,0.0448124,2,2178
12,7.00004e-22,1,3518,64.5,-5.39844e-06,7.38565e-06,-3.52173e-08,9.14835e-06,109,-144,-153.09,1.0833e+07,1e+06,-3.67924e-08,2.12909e-07,-7.00168e-08,0.00609467,0.0464549,4.35453e-05,0.0441907,2,2179
12,7.00004e-22,1,3519,64.5,-5.43597e-06,7.30781e-06,-3.47581e-08,9.10797e-06,109,-144,-153.09,1.0833e+07,1e+06,-3.85181e-08,2.12952e-07,-6.89393e-08,0.0057439,0.0463009,0.000248419,0.0438978,2,2180
12,7.00004e-22,1,3520,64.5,-5.47548e-06,7.23046e-06,-3.17889e-08,9.06981e-06,109,-144,-153.09,1.0833e+07,1e+06,-4.16964e-08,2.16562e-07,-6.55127e-08,0.00545739,0.0473322,0.00141612,0.0444014,2,2181
12,6.35125e-22,1,3521,64.5,-5.51937e-06,7.14525e-06,-3.98771e-08,9.02882e-06,108.625,-144,-153.09,8.89556e+06,906250,-5.89406e-08,2.41549e-07,-8.01901e-08,0.00324921,0.0476174,-0.0010767,0.0485368,2,2182
12,4.83742e-22,2,3522,110.45,-5.59336e-06,7.07496e-06,-5.32496e-08,9.01907e-06,107.75,-147.4,-167.14,4.37488e+06,687500,-9.43265e-08,2.89106e-07,-1.04174e-07,0.00209935,0.0417802,-0.00324438,0.0450633,3,1338
12,3.75279e-22,2,3523,110.45,-5.70802e-06,7.05821e-06,-5.52782e-08,9.0776e-06,111.125,-147.4,-167.14,1.14581e+06,531250,-1.09921e-07,3.14845e-07,-1.106e-07,0.003214,0.0360976,0.000307048,0.0364767,3,1339
12,3.52987e-22,2,3524,155.53,-5.8132e-06,7.11411e-06,-7.26092e-08,9.18744e-06,119,-173.56,119.95,500000,500000,-9.08203e-08,3.21314e-07,-1.45924e-07,0.00122205,0.0338057,0.000322307,0.0345984,3,1340
12,3.52654e-22,2,3525,155.53,-5.88966e-06,7.21169e-06,-9.11542e-08,9.31155e-06,123,-173.56,119.95,500000,500000,-7.71329e-08,3.37945e-07,-1.82308e-07,-0.000189365,0.0338526,-0.000848018,0.0352271,3,1341
12,3.52654e-22,2,3526,155.53,-5.96747e-06,7.3144e-06,-9.33882e-08,9.44033e-06,123,-173.56,119.95,500000,500000,-8.35247e-08,3.58374e-07,-1.86792e-07,0.000161936,0.0365301,0.000115728,0.0373421,3,1342
12,3.52654e-22,2,3527,155.53,-6.05671e-06,7.43135e-06,-9.62441e-08,9.58739e-06,123,-173.56,119.95,500000,500000,-9.30619e-08,3.75947e-07,-1.92515e-07,-0.000462495,0.038088,0.000149539,0.0392016,3,1343
12,3.52654e-22,2,3528,155.53,-6.15359e-06,7.56001e-06,-9.77905e-08,9.74833e-06,123,-173.56,119.95,500000,500000,-9.8615e-08,3.85418e-07,-1.95622e-07,-0.000834361,0.03881,0.000138321,0.0400761,3,1344
12,3.52654e-22,2,3529,155.53,-6.25394e-06,7.69482e-06,-9.73463e-08,9.91622e-06,123,-173.56,119.95,500000,500000,-1.00192e-07,3.84807e-07,-1.94707e-07,-0.000998726,0.0384846,9.58697e-05,0.0397626,3,1345
12,3.52654e-22,2,3530,155.53,-6.35398e-06,7.83109e-06,-9.50054e-08,1.0085e-05,123,-173.56,119.95,500000,500000,-9.86395e-08,3.75474e-07,-1.9001e-07,-0.000989773,0.037234,4.84151e-05,0.0383858,3,1346
12,3.52654e-22,2,3531,155.53,-6.45122e-06,7.96693e-06,-9.1296e-08,1.02518e-05,123,-173.56,119.95,500000,500000,-9.52175e-08,3.60307e-07,-1.82583e-07,-0.00086951,0.0353444,1.30843e-05,0.0362726,3,1347
12,3.52654e-22,2,3532,155.53,-6.54441e-06,8.10235e-06,-8.68156e-08,1.04156e-05,123,-173.56,119.95,500000,500000,-9.08625e-08,3.42117e-07,-1.73629e-07,-0.00068632,0.0331365,-2.52756e-06,0.0338014,3,1348
12,3.52654e-22,2,3533,155.53,-6.63294e-06,8.23722e-06,-8.19576e-08,1.05761e-05,123,-173.56,119.95,500000,500000,-8.59583e-08,3.22422e-07,-1.6393e-07,-0.000476075,0.0308029,-7.77556e-06,0.031218,3,1349
12,3.52654e-22,2,3534,155.53,-6.71633e-06,8.37021e-06,-7.68768e-08,1.0732e-05,123,-173.56,119.95,500000,500000,-8.06867e-08,3.0169e-07,-1.53774e-07,-0.000273459,0.0283921,-1.6591e-05,0.0286068,3,1350
12,3.52654e-22,2,3535,155.53,-6.79432e-06,8.50008e-06,-7.20125e-08,1.08821e-05,123,-173.56,119.95,500000,500000,-7.66383e-08,2.81005e-07,-1.43969e-07,-0.0003883,0.0258198,-0.000184946,0.0261207,3,1351
12,5.25244e-22,1,3536,71.87,-2.76486e-08,6.81114e-06,-3.40202e-08,6.81128e-06,23.0625,-131.18,-164.33,8.89556e+06,906250,-5.55635e-08,2.09766e-07,-6.78105e-08,0.00463237,0.0359537,0.00115468,0.0345465,2,2183
12,4.23129e-22,2,3537,110.47,-8.34785e-08,6.87888e-06,-4.31987e-08,6.87952e-06,13.875,-113.15,-163.66,4.37488e+06,687500,-5.71465e-08,2.1935e-07,-8.67859e-08,0.0035208,0.0309232,-0.000725227,0.0317833,3,1352
12,3.5019e-22,2,3538,110.47,-1.41941e-07,6.92275e-06,-5.00224e-08,6.92438e-06,7.3125,-113.15,-163.66,1.14581e+06,531250,-6.03414e-08,2.29162e-07,-1.00025e-07,0.00286475,0.0257503,0.00045619,0.0250063,3,1353
12,3.35602e-22,2,3539,110.47,-2.04161e-07,6.9607e-06,-5.57151e-08,6.96391e-06,6,-113.15,-163.66,500000,500000,-6.59704e-08,2.40414e-07,-1.11451e-07,0.00219258,0.0245263,-0.00038805,0.0239233,3,1354
12,3.5019e-22,2,3540,110.47,-2.73882e-07,7.01805e-06,-5.26591e-08,7.02359e-06,7.3125,-113.15,-163.66,1.14581e+06,531250,-7.26502e-08,2.51679e-07,-1.04745e-07,0.00250469,0.0281795,0.000716094,0.0275399,3,1355
12,3.89713e-22,2,3541,110.47,-3.49462e-07,7.07046e-06,-4.03797e-08,7.0792e-06,12,-113.15,-163.66,3.08325e+06,625000,-7.66267e-08,2.4799e-07,-8.03278e-08,0.00280267,0.0348863,0.00182496,0.0348925,3,1356
12,4.08286e-22,2,3542,48.37,-4.27136e-07,7.10534e-06,-2.90831e-08,7.11823e-06,16.5,-65.47,173.71,4.37488e+06,687500,-8.15107e-08,2.32452e-07,-5.86739e-08,0.00299549,0.0376796,0.000221858,0.0382898,3,1357
12,3.85216e-22,2,3543,48.37,-5.12483e-07,7.14252e-06,-2.14216e-08,7.16092e-06,16.6875,-65.47,173.71,3.72906e+06,656250,-8.76526e-08,2.23794e-07,-4.31155e-08,0.00438794,0.0365274,-9.20797e-05,0.0355143,3,1358
12,4.01925e-22,2,3544,48.37,-6.02441e-07,7.18175e-06,-1.89358e-08,7.20699e-06,17.625,-65.47,173.71,4.37488e+06,687500,-8.31848e-08,2.17688e-07,-3.89816e-08,0.00505408,0.0361195,0.00133051,0.0338653,3,1359
12,4.85466e-22,1,3545,71.87,-6.78853e-07,7.22241e-06,-2.69974e-08,7.25429e-06,22.3125,-131.18,-164.33,7.60394e+06,843750,-6.9002e-08,2.10752e-07,-5.35248e-08,0.00438136,0.0361271,0.00101454,0.034218,2,2184
12,5.52299e-22,1,3546,71.87,-7.40445e-07,7.27086e-06,-3.3291e-08,7.30854e-06,26.0625,-131.18,-164.33,1.01872e+07,968750,-6.17292e-08,2.07014e-07,-6.58391e-08,0.00361599,0.0355528,-0.000237882,0.034235,2,2185
12,5.69008e-22,1,3547,71.87,-8.02311e-07,7.32192e-06,-3.31356e-08,7.36582e-06,27,-131.18,-164.33,1.0833e+07,1e+06,-6.47455e-08,2.06835e-07,-6.63508e-08,0.00262055,0.0351287,-0.000205506,0.0340486,2,2186
12,5.52998e-22,1,3548,71.87,-8.69936e-07,7.37396e-06,-3.28061e-08,7.42517e-06,26.375,-131.18,-164.33,1.01872e+07,968750,-7.25014e-08,2.13198e-07,-6.58979e-08,0.00147302,0.0348343,0.000376694,0.0341242,2,2187
12,4.74742e-22,1,3549,71.87,-9.47314e-07,7.4143e-06,-3.78711e-08,7.47467e-06,25.0625,-131.18,-164.33,6.95813e+06,812500,-8.3158e-08,2.25408e-07,-7.59536e-08,-6.3241e-05,0.0312943,-7.68804e-05,0.0320497,2,2188
12,3.71646e-22,2,3550,84.09,-1.03625e-06,7.44109e-06,-4.49752e-08,7.51303e-06,26.75,154.9,-166.02,2.43744e+06,593750,-7.98054e-08,2.2496e-07,-8.9281e-08,-0.00148604,0.0262134,-0.000396537,0.0281828,3,1360
12,3.3618e-22,2,3551,103.3,-1.10692e-06,7.48786e-06,-4.70617e-08,7.56939e-06,31.5625,-73.15,30.56,500000,500000,-5.7825e-08,2.05693e-07,-9.40834e-08,-0.002038,0.0247495,-0.000229585,0.026747,3,1361
12,3.41565e-22,2,3552,103.3,-1.1519e-06,7.54881e-06,-4.76242e-08,7.63634e-06,34,-73.15,30.56,500000,500000,-4.40318e-08,1.97409e-07,-9.5538e-08,-0.00177268,0.0260427,-9.3167e-05,0.0277383,3,1362
12,3.41565e-22,2,3553,103.3,-1.19499e-06,7.60059e-06,-4.82017e-08,7.69411e-06,34,-73.15,30.56,500000,500000,-4.28872e-08,1.99693e-07,-9.64356e-08,-0.00164737,0.0267855,9.66178e-05,0.0284823,3,1363
12,3.41565e-22,2,3554,103.3,-1.23768e-06,7.64165e-06,-4.81631e-08,7.74138e-06,34,-73.15,30.56,500000,500000,-4.18456e-08,1.98e-07,-9.629e-08,-0.00176403,0.026769,1.8505e-05,0.0286994,3,1364
12,3.41565e-22,2,3555,103.3,-1.27868e-06,7.6707e-06,-4.7762e-08,7.77669e-06,34,-73.15,30.56,500000,500000,-4.01931e-08,1.95294e-07,-9.55509e-08,-0.00174493,0.0266239,1.29549e-05,0.0286597,3,1365
12,3.41565e-22,2,3556,103.3,-1.31806e-06,7.68915e-06,-4.72056e-08,7.80145e-06,34,-73.15,30.56,500000,500000,-3.86552e-08,1.91933e-07,-9.44152e-08,-0.00171026,0.0263167,-1.61713e-06,0.0284119,3,1366
12,3.41565e-22,2,3557,103.3,-1.35599e-06,7.69886e-06,-4.65162e-08,7.8175e-06,34,-73.15,30.56,500000,500000,-3.75438e-08,1.88572e-07,-9.30475e-08,-0.00166423,0.0259106,-1.01703e-05,0.0279962,3,1367
12,3.41565e-22,2,3558,103.3,-1.39315e-06,7.70325e-06,-4.58545e-08,7.82835e-06,34,-73.15,30.56,500000,500000,-3.75523e-08,1.85976e-07,-9.1669e-08,-0.00168713,0.0254539,-4.34302e-05,0.0275067,3,1368
12,3.41565e-22,2,3559,103.3,-1.43109e-06,7.70677e-06,-4.54843e-08,7.83864e-06,34,-73.15,30.56,500000,500000,-3.88848e-08,1.8633e-07,-9.11545e-08,-0.0017225,0.0253172,-6.51985e-05,0.0272979,3,1369
12,3.41565e-22,2,3560,103.3,-1.47092e-06,7.7123e-06,-4.50169e-08,7.85145e-06,34,-73.15,30.56,500000,500000,-4.21567e-08,1.87339e-07,-8.99811e-08,-0.00206063,0.0252004,-6.58029e-05,0.0272833,3,1370
12,3.71915e-22,2,3561,103.3,-1.51541e-06,7.71247e-06,-4.22483e-08,7.86005e-06,35.3125,-73.15,30.56,1.14581e+06,531250,-4.85244e-08,1.96409e-07,-8.4556e-08,-0.00179731,0.027943,0.000613506,0.0297386,3,1371
12,5.23669e-22,2,3562,103.3,-1.56797e-06,7.71324e-06,-3.87256e-08,7.87109e-06,41.875,-73.15,30.56,4.37488e+06,687500,-5.57747e-08,2.06879e-07,-7.70884e-08,-0.000816722,0.033957,-0.000136862,0.0359447,3,1372
12,7.36123e-22,1,3563,130.6,-1.62696e-06,7.72396e-06,-3.26492e-08,7.89352e-06,51.0625,117.2,-48.36,8.89556e+06,906250,-5.97501e-08,2.03388e-07,-6.50818e-08,0.000251733,0.0377913,-0.000249217,0.038668,2,2189
12,8.27175e-22,1,3564,130.6,-1.68747e-06,7.74001e-06,-2.8935e-08,7.92187e-06,55,117.2,-48.36,1.0833e+07,1e+06,-6.01132e-08,1.98505e-07,-5.8297e-08,0.000913119,0.0382932,0.000496659,0.0376982,2,2190
12,8.27175e-22,1,3565,130.6,-1.74718e-06,7.76286e-06,-3.02243e-08,7.9571e-06,55,117.2,-48.36,1.0833e+07,1e+06,-5.9671e-08,1.98768e-07,-6.03985e-08,0.000971365,0.0380889,-4.94488e-05,0.0376993,2,2191
12,8.27175e-22,1,3566,130.6,-1.80681e-06,7.7943e-06,-3.05169e-08,8.00104e-06,55,117.2,-48.36,1.0833e+07,1e+06,-5.98953e-08,2.00437e-07,-6.10515e-08,0.00109068,0.0383318,-1.94967e-05,0.0378469,2,2192
12,8.27175e-22,1,3567,130.6,-1.86697e-06,7.8335e-06,-3.09512e-08,8.05297e-06,55,117.2,-48.36,1.0833e+07,1e+06,-6.06024e-08,2.02936e-07,-6.18994e-08,0.00112197,0.0387657,-1.64834e-05,0.0382533,2,2193
12,8.27175e-22,1,3568,130.6,-1.92802e-06,7.87919e-06,-3.13903e-08,8.11171e-06,55,117.2,-48.36,1.0833e+07,1e+06,-6.1588e-08,2.05922e-07,-6.27816e-08,0.00111503,0.0393183,-8.11243e-06,0.0388018,2,2194
12,8.27175e-22,1,3569,130.6,-1.99015e-06,7.93034e-06,-3.18465e-08,8.17631e-06,55,117.2,-48.36,1.0833e+07,1e+06,-6.27725e-08,2.09216e-07,-6.36961e-08,0.00107541,0.0399475,-5.25269e-06,0.0394513,2,2195
12,8.27175e-22,1,3570,130.6,-2.05356e-06,7.98605e-06,-3.23449e-08,8.24592e-06,55,117.2,-48.36,1.0833e+07,1e+06,-6.42808e-08,2.12959e-07,-6.47003e-08,0.000977535,0.0406697,-1.98034e-05,0.040238,2,2196
12,8.27175e-22,1,3571,130.6,-2.11871e-06,8.04579e-06,-3.30043e-08,8.32014e-06,55,117.2,-48.36,1.0833e+07,1e+06,-6.66724e-08,2.17903e-07,-6.60255e-08,0.000722996,0.0415873,-7.43991e-05,0.0413237,2,2197
12,8.27175e-22,1,3572,130.6,-2.18691e-06,8.11065e-06,-3.40473e-08,8.40038e-06,55,117.2,-48.36,1.0833e+07,1e+06,-7.09012e-08,2.25509e-07,-6.80549e-08,0.000170822,0.0428909,-0.00015779,0.0429515,2,2198
12,8.27175e-22,1,3573,130.6,-2.26051e-06,8.18659e-06,-3.57536e-08,8.49302e-06,55,117.2,-48.36,1.0833e+07,1e+06,-7.63851e-08,2.36346e-07,-7.14069e-08,-0.000480309,0.044644,-0.000267441,0.045093,2,2199
12,6.8732e-22,1,3574,130.6,-2.33968e-06,8.28301e-06,-3.84425e-08,8.60719e-06,58.25,117.2,-48.36,8.24975e+06,875000,-7.77924e-08,2.44193e-07,-7.7067e-08,-0.000984722,0.0421204,0.00132889,0.0424314,2,2200
12,4.07609e-22,2,3575,95.17,-2.4161e-06,8.26659e-06,-5.10914e-08,8.61258e-06,64.75,150.32,151.68,3.08325e+06,625000,-7.15208e-08,2.42421e-07,-1.02185e-07,-0.00212278,0.0321161,0.000363561,0.0336181,3,1373
12,2.67754e-22,2,3576,95.17,-2.48272e-06,8.13125e-06,-5.85201e-08,8.50203e-06,68,150.32,151.68,500000,500000,-6.41583e-08,2.35357e-07,-1.16967e-07,-0.00223977,0.0260183,-0.00110964,0.0281296,3,1374
12,2.67754e-22,2,3577,95.17,-2.54442e-06,8.00629e-06,-5.41265e-08,8.40105e-06,68,150.32,151.68,500000,500000,-6.09453e-08,2.29282e-07,-1.0839e-07,-0.0013354,0.0263244,6.893e-05,0.0275105,3,1375
12,2.67754e-22,2,3578,95.17,-2.60461e-06,7.88809e-06,-5.28807e-08,8.30715e-06,68,150.32,151.68,500000,500000,-5.89371e-08,2.23713e-07,-1.05688e-07,-0.0011663,0.0258271,3.81933e-05,0.0269675,3,1376
12,2.67754e-22,2,3579,95.17,-2.66229e-06,7.77042e-06,-5.27841e-08,8.21401e-06,68,150.32,151.68,500000,500000,-5.81789e-08,2.2117e-07,-1.06167e-07,-0.0011992,0.0251894,-0.000237561,0.026401,3,1377
12,2.67754e-22,2,3580,95.17,-2.72097e-06,7.64208e-06,-5.57723e-08,8.11222e-06,68,150.32,151.68,500000,500000,-5.9593e-08,2.30787e-07,-1.12025e-07,-0.00103615,0.0261738,-0.000404795,0.0273511,3,1378
12,2.85968e-22,2,3581,95.17,-2.78148e-06,7.50701e-06,-5.45963e-08,8.00593e-06,68.0625,150.32,151.68,1.14581e+06,531250,-5.99163e-08,2.33211e-07,-1.07896e-07,-0.000846147,0.0287676,-0.000430372,0.0301074,3,1379
12,3.22395e-22,2,3582,95.17,-2.8408e-06,7.41141e-06,-4.36792e-08,7.93732e-06,68.1875,150.32,151.68,2.43744e+06,593750,-6.04371e-08,2.08948e-07,-8.56903e-08,-0.00182628,0.0287759,-0.000463432,0.0310209,3,1380
12,3.77036e-22,2,3583,95.17,-2.90235e-06,7.36283e-06,-2.74147e-08,7.91427e-06,68.375,150.32,151.68,4.37488e+06,687500,-6.38294e-08,1.74331e-07,-5.47319e-08,-0.00362892,0.0278594,-0.000215592,0.0311004,3,1381
12,4.49891e-22,1,3584,53.66,-2.96846e-06,7.34405e-06,-1.19246e-08,7.9213e-06,68.625,-114.01,-136.45,6.95813e+06,812500,-6.94274e-08,1.45609e-07,-2.52133e-08,-0.00527153,0.0278519,0.000268449,0.0316381,2,2201
12,5.04533e-22,1,3585,53.66,-3.0412e-06,7.34853e-06,-2.08967e-09,7.95298e-06,68.8125,-114.01,-136.45,8.89556e+06,906250,-7.55186e-08,1.25153e-07,-5.42015e-09,-0.0069022,0.0269183,0.000641377,0.0313238,2,2202
12,5.4096e-22,1,3586,53.66,-3.11949e-06,7.36482e-06,2.15187e-09,7.99824e-06,68.9375,-114.01,-136.45,1.01872e+07,968750,-7.72739e-08,1.1395e-07,3.99064e-09,-0.00756964,0.0267148,0.000708554,0.0312418,2,2203
12,5.59174e-22,1,3587,53.66,-3.19575e-06,7.38541e-06,2.71284e-09,8.04718e-06,69,-114.01,-136.45,1.0833e+07,1e+06,-7.52021e-08,1.09713e-07,5.6629e-09,-0.00726259,0.0265395,0.000637118,0.0307211,2,2204
12,5.59174e-22,1,3588,53.66,-3.2699e-06,7.40335e-06,1.77385e-09,8.09332e-06,69,-114.01,-136.45,1.0833e+07,1e+06,-7.28063e-08,1.10486e-07,4.58603e-09,-0.00670673,0.0269683,0.000689572,0.0307754,2,2205
12,5.59174e-22,1,3589,53.66,-3.34136e-06,7.41595e-06,1.43867e-09,8.13395e-06,69,-114.01,-136.45,1.0833e+07,1e+06,-6.74629e-08,1.0819e-07,3.44336e-09,-0.00585074,0.0268021,0.000943907,0.0299709,2,2206
12,6.13045e-22,1,3590,53.66,-3.40482e-06,7.4103e-06,-4.99735e-09,8.15508e-06,72,-114.01,-136.45,1.0833e+07,1e+06,-6.69512e-08,1.15962e-07,-1.11432e-08,-0.0063628,0.0246534,0.000480028,0.0287841,2,2207
12,7.20786e-22,1,3591,91.26,-3.47527e-06,7.38076e-06,-2.10858e-08,8.15803e-06,78,-49.63,-179.82,1.0833e+07,1e+06,-8.05686e-08,1.53784e-07,-4.25742e-08,-0.00704084,0.0221918,3.7972e-05,0.0268812,2,2208
12,7.74657e-22,1,3592,91.26,-3.56596e-06,7.34227e-06,-3.22906e-08,8.16248e-06,81,-49.63,-179.82,1.0833e+07,1e+06,-9.60982e-08,1.91357e-07,-6.40369e-08,-0.00702501,0.0223389,0.000162888,0.0265297,2,2209
12,7.74657e-22,1,3593,91.26,-3.66746e-06,7.3091e-06,-3.63794e-08,8.17769e-06,81,-49.63,-179.82,1.0833e+07,1e+06,-1.04304e-07,2.13743e-07,-7.26722e-08,-0.00700692,0.0252063,2.55234e-05,0.0294396,2,2210
12,7.74657e-22,1,3594,91.26,-3.77457e-06,7.27701e-06,-4.03457e-08,8.19779e-06,81,-49.63,-179.82,1.0833e+07,1e+06,-1.10314e-07,2.33645e-07,-8.07921e-08,-0.0066754,0.0278711,-0.000109223,0.0319238,2,2211
12,7.74657e-22,1,3595,91.26,-3.88809e-06,7.2467e-06,-4.41891e-08,8.22398e-06,81,-49.63,-179.82,1.0833e+07,1e+06,-1.16224e-07,2.52953e-07,-8.86779e-08,-0.00637731,0.0304446,-0.000248307,0.0343067,2,2212
12,7.79395e-22,1,3596,91.26,-4.00702e-06,7.21993e-06,-4.58533e-08,8.25747e-06,81.0625,-49.63,-179.82,1.0833e+07,1e+06,-1.17779e-07,2.6261e-07,-9.0867e-08,-0.00591623,0.0329403,-0.00027422,0.0366276,2,2213
12,7.98348e-22,1,3597,91.26,-4.12365e-06,7.21052e-06,-4.00336e-08,8.30648e-06,81.3125,-49.63,-179.82,1.0833e+07,1e+06,-1.11073e-07,2.47392e-07,-7.93344e-08,-0.00590391,0.0343487,-0.000197915,0.0383595,2,2214
12,8.26778e-22,1,3598,133.1,-4.22916e-06,7.2432e-06,-2.98873e-08,8.38753e-06,81.6875,119.51,-49.37,1.0833e+07,1e+06,-1.00624e-07,2.17532e-07,-6.09069e-08,-0.0063339,0.0340768,1.68993e-05,0.0382369,2,2215
12,8.45731e-22,1,3599,133.1,-4.3249e-06,7.31183e-06,-2.49356e-08,8.49518e-06,81.9375,119.51,-49.37,1.0833e+07,1e+06,-9.43058e-08,2.005e-07,-5.03679e-08,-0.0063743,0.0337004,0.000346729,0.0373145,2,2216
12,8.50469e-22,1,3600,133.1,-4.41778e-06,7.38919e-06,-2.47135e-08,8.60915e-06,82,119.51,-49.37,1.0833e+07,1e+06,-9.25355e-08,1.97581e-07,-4.89663e-08,-0.00623111,0.0337206,0.000308632,0.0370845,2,2217
12,8.50469e-22,1,3601,133.1,-4.50997e-06,7.4673e-06,-2.44729e-08,8.72359e-06,82,119.51,-49.37,1.0833e+07,1e+06,-9.11951e-08,1.94429e-07,-4.88589e-08,-0.00622096,0.0330469,0.000127808,0.0365159,2,2218
12,8.50469e-22,1,3602,133.1,-4.60017e-06,7.55014e-06,-2.39227e-08,8.8412e-06,82,119.51,-49.37,1.0833e+07,1e+06,-8.92402e-08,1.88833e-07,-4.80013e-08,-0.00621105,0.031725,5.96597e-05,0.0352747,2,2219
12,8.50469e-22,1,3603,133.1,-4.68845e-06,7.64202e-06,-2.40669e-08,8.96563e-06,82,119.51,-49.37,1.0833e+07,1e+06,-8.93593e-08,1.85547e-07,-4.82347e-08,-0.00659806,0.0305676,-0.000199123,0.0345886,2,2220
12,8.50469e-22,1,3604,133.1,-4.77888e-06,7.7452e-06,-2.52559e-08,9.10091e-06,82,119.51,-49.37,1.0833e+07,1e+06,-9.30507e-08,1.8929e-07,-5.00737e-08,-0.00731322,0.0306779,-0.000480517,0.035377,2,2221
12,7.29567e-22,1,3605,133.1,-4.87455e-06,7.85871e-06,-2.5062e-08,9.24777e-06,85.25,119.51,-49.37,8.89556e+06,906250,-9.30232e-08,1.89902e-07,-5.0304e-08,-0.0081455,0.0307486,-0.000471962,0.0367892,2,2222
12,4.87764e-22,2,3606,99.87,-4.96493e-06,7.93334e-06,-3.46369e-08,9.35893e-06,91.75,165.01,-32.53,5.02069e+06,718750,-8.28066e-08,2.03171e-07,-6.98782e-08,-0.00850083,0.0313431,-0.000773974,0.0381866,3,1382
12,3.66862e-22,2,3607,99.87,-5.04016e-06,7.95524e-06,-4.91041e-08,9.41762e-06,95,165.01,-32.53,3.08325e+06,625000,-6.8461e-08,2.25937e-07,-9.81177e-08,-0.00688479,0.0333991,-0.00136271,0.0391151,3,1383
12,3.66862e-22,2,3608,99.87,-5.10185e-06,7.96536e-06,-5.52017e-08,9.45933e-06,95,165.01,-32.53,3.08325e+06,625000,-5.55582e-08,2.33691e-07,-1.10218e-07,-0.00424325,0.0347506,-0.00159365,0.0389849,3,1384
12,3.66862e-22,2,3609,99.87,-5.15128e-06,7.96945e-06,-5.9162e-08,9.48954e-06,95,165.01,-32.53,3.08325e+06,625000,-4.31751e-08,2.3549e-07,-1.18265e-07,-0.00195752,0.0352302,-0.00167041,0.0383471,3,1385
12,3.66862e-22,2,3610,99.87,-5.1882e-06,7.96605e-06,-6.23474e-08,9.5068e-06,95,165.01,-32.53,3.08325e+06,625000,-3.02904e-08,2.3369e-07,-1.24615e-07,0.000301919,0.0352127,-0.00179066,0.0374065,3,1386
12,3.66862e-22,2,3611,99.87,-5.21186e-06,7.95153e-06,-6.44169e-08,9.5076e-06,95,165.01,-32.53,3.08325e+06,625000,-1.6002e-08,2.28898e-07,-1.27863e-07,0.00303,0.0350354,-0.00151054,0.0360842,3,1387
12,4.29155e-22,2,3612,99.87,-5.22021e-06,7.91446e-06,-6.07122e-08,9.48119e-06,98,165.01,-32.53,4.37488e+06,687500,-3.6678e-09,2.14352e-07,-1.2079e-07,0.00622329,0.036584,-0.00270538,0.0376571,3,1388
12,5.77272e-22,1,3613,137.15,-5.21919e-06,7.87888e-06,-4.42787e-08,9.45086e-06,104.75,109.19,-42.07,7.60394e+06,843750,-9.10247e-10,2.04794e-07,-9.0058e-08,0.0105292,0.0440329,-0.000582521,0.0423622,2,2223
12,6.84089e-22,1,3614,64.5,-5.22203e-06,7.85928e-06,-3.39701e-08,9.43605e-06,109,-144,-153.09,1.01872e+07,968750,-7.16147e-09,2.04837e-07,-6.79716e-08,0.012757,0.0487607,0.00190151,0.0439962,2,2224
12,7.02542e-22,1,3615,64.5,-5.23352e-06,7.83324e-06,-3.53694e-08,9.42075e-06,109.25,-144,-153.09,1.0833e+07,1e+06,-1.56223e-08,2.04842e-07,-7.06009e-08,0.0115028,0.0468943,0.000401885,0.0426713,2,2225
12,7.00004e-22,1,3616,64.5,-5.25327e-06,7.79665e-06,-3.58179e-08,9.40138e-06,109,-144,-153.09,1.0833e+07,1e+06,-2.27463e-08,2.1165e-07,-7.20786e-08,0.0102679,0.0472388,0.000403085,0.0431256,2,2226
12,7.00004e-22,1,3617,64.5,-5.27901e-06,7.74385e-06,-3.66274e-08,9.37212e-06,109,-144,-153.09,1.0833e+07,1e+06,-2.63782e-08,2.15374e-07,-7.2441e-08,0.0094028,0.0479823,0.000390899,0.0442898,2,2227
12,7.00004e-22,1,3618,64.5,-5.30603e-06,7.67274e-06,-3.57177e-08,9.32878e-06,109,-144,-153.09,1.0833e+07,1e+06,-2.62586e-08,2.10334e-07,-7.14446e-08,0.00891973,0.0468,0.000110946,0.0435197,2,2228
12,7.00004e-22,1,3619,64.5,-5.33153e-06,7.59475e-06,-3.40335e-08,9.27937e-06,109,-144,-153.09,1.0833e+07,1e+06,-2.52674e-08,2.05142e-07,-6.82635e-08,0.0089878,0.0457263,0.000611361,0.0420035,2,2229
12,7.05944e-22,1,3620,64.5,-5.35656e-06,7.51787e-06,-3.56292e-08,9.23106e-06,108.938,-144,-153.09,1.0833e+07,1e+06,-2.8595e-08,2.11765e-07,-7.13251e-08,0.00892231,0.0460404,0.000478178,0.0424077,2,2230
12,7.17824e-22,1,3621,64.5,-5.38872e-06,7.44482e-06,-3.77973e-08,9.19049e-06,108.813,-144,-153.09,1.0833e+07,1e+06,-3.8825e-08,2.30072e-07,-7.61995e-08,0.00859675,0.0473307,0.00110142,0.0435276,2,2231
12,6.58885e-22,1,3622,64.5,-5.43421e-06,7.39599e-06,-4.59364e-08,9.17787e-06,108.375,-144,-153.09,8.89556e+06,906250,-6.52838e-08,2.6767e-07,-9.13166e-08,0.00618837,0.0481616,-0.000176268,0.0474076,2,2232
12,5.01562e-22,2,3623,110.45,-5.51929e-06,7.38764e-06,-5.15367e-08,9.22185e-06,107.562,-147.4,-167.14,4.37488e+06,687500,-1.07158e-07,3.14328e-07,-1.03574e-07,0.00432335,0.0428528,-0.000214864,0.0435228,3,1389
12,3.81219e-22,2,3624,110.45,-5.64853e-06,7.38996e-06,-5.44849e-08,9.30163e-06,111.062,-147.4,-167.14,1.14581e+06,531250,-1.20053e-07,3.29625e-07,-1.09239e-07,0.00376057,0.0366168,0.00208388,0.0358364,3,1390
12,3.52987e-22,2,3625,155.53,-5.75939e-06,7.44118e-06,-7.76642e-08,9.40999e-06,119,-173.56,119.95,500000,500000,-9.37048e-08,3.31284e-07,-1.5419e-07,0.000998251,0.0340113,-0.000153011,0.0350801,3,1391
12,3.52654e-22,2,3626,155.53,-5.83594e-06,7.55349e-06,-9.48777e-08,9.54581e-06,123,-173.56,119.95,500000,500000,-7.7841e-08,3.46932e-07,-1.90024e-07,6.33495e-05,0.0340769,-0.00109014,0.0352085,3,1392
12,3.52654e-22,2,3627,155.53,-5.91507e-06,7.67598e-06,-9.58817e-08,9.69113e-06,123,-173.56,119.95,500000,500000,-8.4729e-08,3.66142e-07,-1.91897e-07,0.000499931,0.0368223,9.56792e-05,0.0372301,3,1393
12,3.52654e-22,2,3628,155.53,-6.0054e-06,7.80901e-06,-9.79798e-08,9.85165e-06,123,-173.56,119.95,500000,500000,-9.32867e-08,3.80783e-07,-1.96029e-07,-0.000159741,0.0382632,0.000130326,0.0390633,3,1394
12,3.52654e-22,2,3629,155.53,-6.10165e-06,7.94512e-06,-9.86038e-08,1.00182e-05,123,-173.56,119.95,500000,500000,-9.69276e-08,3.85889e-07,-1.97221e-07,-0.000530352,0.0387687,0.000109351,0.0398214,3,1395
12,3.52654e-22,2,3630,155.53,-6.19925e-06,8.07722e-06,-9.70389e-08,1.01824e-05,123,-173.56,119.95,500000,500000,-9.66851e-08,3.80488e-07,-1.94064e-07,-0.000699476,0.0381443,6.61988e-05,0.0392865,3,1396
12,3.52654e-22,2,3631,155.53,-6.29502e-06,8.20243e-06,-9.36453e-08,1.034e-05,123,-173.56,119.95,500000,500000,-9.41497e-08,3.67366e-07,-1.87273e-07,-0.000725414,0.0366144,3.54373e-05,0.0376751,3,1397
12,3.52654e-22,2,3632,155.53,-6.38755e-06,8.32221e-06,-8.92271e-08,1.04913e-05,123,-173.56,119.95,500000,500000,-9.07476e-08,3.50379e-07,-1.78451e-07,-0.000670735,0.0345781,2.60701e-05,0.035443,3,1398
12,3.52654e-22,2,3633,155.53,-6.47651e-06,8.43932e-06,-8.44634e-08,1.06384e-05,123,-173.56,119.95,500000,500000,-8.69841e-08,3.32087e-07,-1.68946e-07,-0.000564868,0.0323692,2.9254e-05,0.0329987,3,1399
12,3.52654e-22,2,3634,155.53,-6.56152e-06,8.55474e-06,-7.95833e-08,1.07816e-05,123,-173.56,119.95,500000,500000,-8.26342e-08,3.1289e-07,-1.59199e-07,-0.000418497,0.0300939,2.63559e-05,0.0305009,3,1400
12,3.52654e-22,2,3635,155.53,-6.64178e-06,8.66726e-06,-7.44761e-08,1.09197e-05,123,-173.56,119.95,500000,500000,-7.75689e-08,2.92252e-07,-1.48978e-07,-0.000242667,0.02769,1.74453e-05,0.0278982,3,1401
12,3.52654e-22,2,3636,155.53,-6.71666e-06,8.7765e-06,-6.94527e-08,1.10519e-05,123,-173.56,119.95,500000,500000,-7.34946e-08,2.70701e-07,-1.38833e-07,-0.000386116,0.0249667,-0.000180382,0.0252714,3,1402
12,5.5442e-22,1,3637,71.87,-2.76895e-08,7.01775e-06,-3.11396e-08,7.01787e-06,25.6875,-131.18,-164.33,1.01872e+07,968750,-5.43259e-08,2.026e-07,-6.14068e-08,0.00485013,0.0358896,0.00181139,0.0331701,2,2233
12,4.81481e-22,1,3638,71.87,-8.09623e-08,7.08901e-06,-3.5597e-08,7.08956e-06,19.125,-131.18,-164.33,6.95813e+06,812500,-5.408e-08,2.0346e-07,-7.24746e-08,0.0039673,0.0323782,-0.000564393,0.0327871,2,2234
12,3.79366e-22,2,3639,110.47,-1.35849e-07,7.14438e-06,-4.50364e-08,7.14581e-06,9.9375,-113.15,-163.66,2.43744e+06,593750,-5.97592e-08,2.17607e-07,-9.11823e-08,0.00282684,0.0267738,-0.000790704,0.0274755,3,1403
12,3.35602e-22,2,3640,110.47,-2.00481e-07,7.19978e-06,-5.41002e-08,7.20278e-06,6,-113.15,-163.66,500000,500000,-6.86186e-08,2.36822e-07,-1.06084e-07,0.00216024,0.0242962,-0.000490343,0.0239289,3,1404
12,3.79366e-22,2,3641,110.47,-2.73087e-07,7.26115e-06,-4.46465e-08,7.26642e-06,9.9375,-113.15,-163.66,2.43744e+06,593750,-7.22916e-08,2.33385e-07,-8.86493e-08,0.00185947,0.0289915,0.000577977,0.0294909,3,1405
12,4.64772e-22,1,3642,71.87,-3.45064e-07,7.30338e-06,-3.12978e-08,7.3116e-06,18.1875,-131.18,-164.33,6.31231e+06,781250,-7.2735e-08,2.18098e-07,-6.45965e-08,0.00152907,0.0343499,0.000916807,0.0352302,2,2235
12,5.04295e-22,1,3643,71.87,-4.18557e-07,7.33e-06,-2.97152e-08,7.342e-06,22.875,-131.18,-164.33,8.24975e+06,875000,-7.52899e-08,2.13943e-07,-5.96625e-08,0.00129765,0.0358017,-4.25208e-05,0.0361874,2,2236
12,5.02174e-22,1,3644,71.87,-4.95644e-07,7.3617e-06,-2.93585e-08,7.37843e-06,23.25,-131.18,-164.33,8.24975e+06,875000,-7.58409e-08,2.1269e-07,-5.81756e-08,0.00164556,0.0354893,-6.73129e-05,0.0353178,2,2237
12,5.18883e-22,1,3645,71.87,-5.70238e-07,7.3954e-06,-3.03597e-08,7.41742e-06,24.1875,-131.18,-164.33,8.89556e+06,906250,-7.21193e-08,2.11224e-07,-5.98444e-08,0.00215785,0.0355154,0.000229971,0.0348853,2,2238
12,5.52299e-22,1,3646,71.87,-6.39882e-07,7.43242e-06,-3.29771e-08,7.45999e-06,26.0625,-131.18,-164.33,1.01872e+07,968750,-6.82063e-08,2.11165e-07,-6.59147e-08,0.0023612,0.0356447,-0.000188055,0.0349112,2,2239
12,5.69008e-22,1,3647,71.87,-7.06651e-07,7.47918e-06,-3.4291e-08,7.51256e-06,27,-131.18,-164.33,1.0833e+07,1e+06,-6.71403e-08,2.10282e-07,-6.88518e-08,0.00220675,0.0352647,-0.000646441,0.034642,2,2240
12,5.69008e-22,1,3648,71.87,-7.74163e-07,7.53079e-06,-3.341e-08,7.57055e-06,27,-131.18,-164.33,1.0833e+07,1e+06,-6.82914e-08,2.10319e-07,-6.68298e-08,0.00204869,0.0353321,-0.000105473,0.0344888,2,2241
12,5.69008e-22,1,3649,71.87,-8.43234e-07,7.5837e-06,-3.25589e-08,7.63051e-06,27,-131.18,-164.33,1.0833e+07,1e+06,-7.08253e-08,2.11097e-07,-6.5391e-08,0.00154402,0.0353403,0.000234008,0.0345492,2,2242
12,5.20977e-22,1,3650,71.87,-9.15813e-07,7.63604e-06,-3.51674e-08,7.69084e-06,25.875,-131.18,-164.33,8.89556e+06,906250,-7.99591e-08,2.20219e-07,-7.04929e-08,0.000577313,0.0330979,0.00012552,0.0331956,2,2243
12,4.14291e-22,2,3651,84.09,-1.00315e-06,7.67303e-06,-4.18343e-08,7.73844e-06,25.75,154.9,-166.02,4.37488e+06,687500,-8.43123e-08,2.28892e-07,-8.31685e-08,-0.000669137,0.0283345,1.02832e-06,0.0295726,3,1406
12,3.46805e-22,2,3652,103.3,-1.08444e-06,7.69904e-06,-4.60337e-08,7.77518e-06,29.625,-73.15,30.56,1.14581e+06,531250,-6.82617e-08,2.1621e-07,-9.23728e-08,-0.00183986,0.0254479,-0.000143881,0.0274337,3,1407
12,3.3977e-22,2,3653,103.3,-1.13968e-06,7.7473e-06,-4.84626e-08,7.83083e-06,33.25,-73.15,30.56,500000,500000,-5.01409e-08,2.04491e-07,-9.70066e-08,-0.00200548,0.0261826,-0.000207585,0.0281797,3,1408
12,3.41565e-22,2,3654,103.3,-1.18472e-06,7.8025e-06,-4.96121e-08,7.89208e-06,34,-73.15,30.56,500000,500000,-4.32009e-08,2.03025e-07,-9.90274e-08,-0.00165654,0.0270779,-8.10842e-06,0.0287968,3,1409
12,3.41565e-22,2,3655,103.3,-1.22608e-06,7.84033e-06,-4.92776e-08,7.93577e-06,34,-73.15,30.56,500000,500000,-4.01025e-08,1.99717e-07,-9.86344e-08,-0.00154892,0.0270355,3.26829e-06,0.0288645,3,1410
12,3.41565e-22,2,3656,103.3,-1.26492e-06,7.86632e-06,-4.88794e-08,7.96752e-06,34,-73.15,30.56,500000,500000,-3.76011e-08,1.96137e-07,-9.77528e-08,-0.00145555,0.0268445,1.86168e-05,0.0287512,3,1411
12,3.41565e-22,2,3657,103.3,-1.30128e-06,7.88083e-06,-4.81642e-08,7.98768e-06,34,-73.15,30.56,500000,500000,-3.51953e-08,1.91362e-07,-9.63376e-08,-0.0013739,0.0263873,-4.74872e-06,0.0283493,3,1412
12,3.41565e-22,2,3658,103.3,-1.33532e-06,7.8864e-06,-4.72725e-08,7.99879e-06,34,-73.15,30.56,500000,500000,-3.33583e-08,1.86472e-07,-9.45484e-08,-0.00128102,0.0257845,-2.29491e-05,0.0277157,3,1413
12,3.41565e-22,2,3659,103.3,-1.368e-06,7.88801e-06,-4.65345e-08,8.00589e-06,34,-73.15,30.56,500000,500000,-3.26412e-08,1.83214e-07,-9.30691e-08,-0.00119564,0.025256,-2.38907e-05,0.0270681,3,1414
12,3.41565e-22,2,3660,103.3,-1.4006e-06,7.89129e-06,-4.62048e-08,8.01475e-06,34,-73.15,30.56,500000,500000,-3.32939e-08,1.82679e-07,-9.24741e-08,-0.00116278,0.0249914,-3.98787e-05,0.0266709,3,1415
12,3.41565e-22,2,3661,103.3,-1.43458e-06,7.89863e-06,-4.5602e-08,8.02798e-06,34,-73.15,30.56,500000,500000,-3.68448e-08,1.85457e-07,-9.16987e-08,-0.00138296,0.0251215,5.11516e-05,0.0267342,3,1416
12,3.71915e-22,2,3662,103.3,-1.47429e-06,7.91295e-06,-4.5134e-08,8.04925e-06,35.3125,-73.15,30.56,1.14581e+06,531250,-4.50166e-08,1.96482e-07,-9.04654e-08,-0.00166132,0.0275602,-0.000262868,0.029611,3,1417
12,5.23669e-22,2,3663,103.3,-1.52462e-06,7.92582e-06,-4.23021e-08,8.07124e-06,41.875,-73.15,30.56,4.37488e+06,687500,-5.55047e-08,2.0365e-07,-8.29615e-08,-0.00185501,0.032619,-0.00188662,0.0360611,3,1418
12,7.36123e-22,1,3664,130.6,-1.5853e-06,7.92862e-06,-3.22855e-08,8.08562e-06,51.0625,117.2,-48.36,8.89556e+06,906250,-6.27126e-08,1.99056e-07,-6.45425e-08,-0.0012832,0.0367599,-0.000938111,0.0389694,2,2244
12,8.27175e-22,1,3665,130.6,-1.65004e-06,7.93767e-06,-2.72943e-08,8.1074e-06,55,117.2,-48.36,1.0833e+07,1e+06,-6.44322e-08,1.96464e-07,-5.5701e-08,-0.000539858,0.037789,0.000587968,0.0379969,2,2245
12,8.27175e-22,1,3666,130.6,-1.71416e-06,7.9616e-06,-2.95918e-08,8.1441e-06,55,117.2,-48.36,1.0833e+07,1e+06,-6.40555e-08,1.98307e-07,-5.89404e-08,-0.000322208,0.0376752,-2.14715e-05,0.0379325,2,2246
12,8.27175e-22,1,3667,130.6,-1.77815e-06,7.99526e-06,-3.00804e-08,8.19066e-06,55,117.2,-48.36,1.0833e+07,1e+06,-6.43045e-08,2.01143e-07,-6.0187e-08,-9.88097e-05,0.0381127,-1.801e-05,0.0382166,2,2247
12,8.27175e-22,1,3668,130.6,-1.84277e-06,8.03725e-06,-3.06662e-08,8.24586e-06,55,117.2,-48.36,1.0833e+07,1e+06,-6.50799e-08,2.04354e-07,-6.13294e-08,-1.9795e-05,0.0386727,-1.59992e-05,0.0387195,2,2248
12,8.27175e-22,1,3669,130.6,-1.90831e-06,8.08613e-06,-3.12149e-08,8.30832e-06,55,117.2,-48.36,1.0833e+07,1e+06,-6.61379e-08,2.07861e-07,-6.24314e-08,7.76957e-07,0.0393166,-1.28068e-05,0.039346,2,2249
12,8.27175e-22,1,3670,130.6,-1.97505e-06,8.14081e-06,-3.17617e-08,8.37703e-06,55,117.2,-48.36,1.0833e+07,1e+06,-6.74874e-08,2.11642e-07,-6.35277e-08,-4.1903e-05,0.0400242,-1.583e-05,0.0400772,2,2250
12,8.27175e-22,1,3671,130.6,-2.04329e-06,8.20062e-06,-3.23538e-08,8.4514e-06,55,117.2,-48.36,1.0833e+07,1e+06,-6.93045e-08,2.15944e-07,-6.47148e-08,-0.000176005,0.0408183,-3.23178e-05,0.0409511,2,2251
12,8.27175e-22,1,3672,130.6,-2.11365e-06,8.26574e-06,-3.30852e-08,8.53177e-06,55,117.2,-48.36,1.0833e+07,1e+06,-7.19668e-08,2.21321e-07,-6.6167e-08,-0.000458206,0.0417576,-6.35755e-05,0.042052,2,2252
12,8.27175e-22,1,3673,130.6,-2.18722e-06,8.33826e-06,-3.40137e-08,8.62042e-06,55,117.2,-48.36,1.0833e+07,1e+06,-7.55842e-08,2.28174e-07,-6.79945e-08,-0.000873453,0.0428759,-6.89532e-05,0.0433825,2,2253
12,8.27175e-22,1,3674,130.6,-2.26482e-06,8.42286e-06,-3.52515e-08,8.72211e-06,55,117.2,-48.36,1.0833e+07,1e+06,-7.87793e-08,2.34955e-07,-7.05021e-08,-0.0012173,0.043855,-0.000169814,0.0445905,2,2254
12,6.8732e-22,1,3675,130.6,-2.34478e-06,8.52317e-06,-3.75024e-08,8.8399e-06,58.25,117.2,-48.36,8.24975e+06,875000,-7.74138e-08,2.37483e-07,-7.50502e-08,-0.00140563,0.0405705,0.00124288,0.0411027,2,2255
12,4.07609e-22,2,3676,95.17,-2.41965e-06,8.50516e-06,-5.0086e-08,8.84279e-06,64.75,150.32,151.68,3.08325e+06,625000,-7.00337e-08,2.36187e-07,-1.00204e-07,-0.00218147,0.0310105,0.000268194,0.0325452,3,1419
12,2.67754e-22,2,3677,95.17,-2.48485e-06,8.3653e-06,-5.81443e-08,8.72675e-06,68,150.32,151.68,500000,500000,-6.32199e-08,2.33031e-07,-1.16264e-07,-0.00212949,0.0256166,-0.00110418,0.0276055,3,1420
12,2.67754e-22,2,3678,95.17,-2.54609e-06,8.23505e-06,-5.4438e-08,8.61983e-06,68,150.32,151.68,500000,500000,-6.10512e-08,2.28985e-07,-1.08867e-07,-0.00135649,0.0260368,9.38388e-06,0.0271834,3,1421
12,2.67754e-22,2,3679,95.17,-2.60695e-06,8.11296e-06,-5.35475e-08,8.52169e-06,68,150.32,151.68,500000,500000,-6.03443e-08,2.26019e-07,-1.07143e-07,-0.00130963,0.0258055,-2.94887e-05,0.0269763,3,1422
12,2.67754e-22,2,3680,95.17,-2.66678e-06,7.99458e-06,-5.37867e-08,8.42781e-06,68,150.32,151.68,500000,500000,-6.00804e-08,2.25681e-07,-1.07396e-07,-0.00127848,0.0256716,-6.34934e-05,0.02681,3,1423
12,2.67754e-22,2,3681,95.17,-2.72711e-06,7.87366e-06,-5.52618e-08,8.33275e-06,68,150.32,151.68,500000,500000,-6.17301e-08,2.31671e-07,-1.11255e-07,-0.00140008,0.026191,-0.000260187,0.0274836,3,1424
12,2.67754e-22,2,3682,95.17,-2.79024e-06,7.75061e-06,-5.79632e-08,8.23776e-06,68,150.32,151.68,500000,500000,-6.2931e-08,2.41879e-07,-1.16622e-07,-0.0013286,0.027779,-0.000398005,0.0293206,3,1425
12,2.67754e-22,2,3683,95.17,-2.85297e-06,7.64683e-06,-5.8049e-08,8.16192e-06,68,150.32,151.68,500000,500000,-5.95483e-08,2.3753e-07,-1.15184e-07,-0.00112207,0.0279073,-0.000535411,0.0296662,3,1426
12,2.85968e-22,2,3684,95.17,-2.90934e-06,7.56719e-06,-5.14368e-08,8.10736e-06,68.0625,150.32,151.68,1.14581e+06,531250,-5.48477e-08,2.18784e-07,-1.01817e-07,-0.000989698,0.0277608,-0.000663424,0.0296774,3,1427
12,3.22395e-22,2,3685,95.17,-2.96267e-06,7.5156e-06,-4.0576e-08,8.07857e-06,68.1875,150.32,151.68,2.43744e+06,593750,-5.60079e-08,1.96644e-07,-8.01293e-08,-0.00168136,0.0276607,-0.000445889,0.0300179,3,1428
12,3.77036e-22,2,3686,95.17,-3.02135e-06,7.48931e-06,-2.62318e-08,8.07583e-06,68.375,150.32,151.68,4.37488e+06,687500,-6.16962e-08,1.69202e-07,-5.2237e-08,-0.00341053,0.0273525,-0.000110916,0.0305133,3,1429
12,4.49891e-22,1,3687,53.66,-3.08606e-06,7.48304e-06,-1.18333e-08,8.09443e-06,68.625,-114.01,-136.45,6.95813e+06,812500,-6.79846e-08,1.44195e-07,-2.49586e-08,-0.00500426,0.0276638,0.000312173,0.0312951,2,2256
12,5.04533e-22,1,3688,53.66,-3.15732e-06,7.49439e-06,-2.54015e-09,8.13231e-06,68.8125,-114.01,-136.45,8.89556e+06,906250,-7.33302e-08,1.25436e-07,-6.41618e-09,-0.00640597,0.0270769,0.000681159,0.0311233,2,2257
12,5.4096e-22,1,3689,53.66,-3.23272e-06,7.51357e-06,1.08892e-09,8.1795e-06,68.9375,-114.01,-136.45,1.01872e+07,968750,-7.26319e-08,1.15235e-07,2.37108e-09,-0.00651806,0.0274937,0.00100001,0.0311615,2,2258
12,5.72642e-22,1,3690,53.66,-3.30258e-06,7.52549e-06,-3.76736e-11,8.21827e-06,69.75,-114.01,-136.45,1.0833e+07,1e+06,-6.83598e-08,1.14412e-07,2.23458e-10,-0.00589094,0.027554,0.00127579,0.0307185,2,2259
12,6.3998e-22,1,3691,53.66,-3.36944e-06,7.52791e-06,-9.4227e-09,8.24758e-06,73.5,-114.01,-136.45,1.0833e+07,1e+06,-7.34257e-08,1.30584e-07,-1.91729e-08,-0.00695927,0.0251877,0.00060069,0.0297824,2,2260
12,7.34254e-22,1,3692,91.26,-3.44944e-06,7.53584e-06,-2.45271e-08,8.28783e-06,78.75,-49.63,-179.82,1.0833e+07,1e+06,-8.89579e-08,1.66661e-07,-4.88365e-08,-0.00800791,0.0224397,-0.000122789,0.0278526,2,2261
12,7.74657e-22,1,3693,91.26,-3.54736e-06,7.53744e-06,-3.37097e-08,8.33054e-06,81,-49.63,-179.82,1.0833e+07,1e+06,-1.02625e-07,2.00435e-07,-6.71864e-08,-0.00792622,0.0231199,-1.38272e-05,0.028045,2,2262
12,7.74657e-22,1,3694,91.26,-3.65469e-06,7.52854e-06,-3.77704e-08,8.36882e-06,81,-49.63,-179.82,1.0833e+07,1e+06,-1.09729e-07,2.2245e-07,-7.54634e-08,-0.00762309,0.0261005,-8.90976e-06,0.0308074,2,2263
12,7.74657e-22,1,3695,91.26,-3.76681e-06,7.51497e-06,-4.12086e-08,8.40627e-06,81,-49.63,-179.82,1.0833e+07,1e+06,-1.13841e-07,2.39246e-07,-8.22961e-08,-0.00705324,0.0284789,-5.65965e-05,0.0328157,2,2264
12,7.74657e-22,1,3696,91.26,-3.88237e-06,7.50017e-06,-4.38087e-08,8.44555e-06,81,-49.63,-179.82,1.0833e+07,1e+06,-1.16997e-07,2.5276e-07,-8.79069e-08,-0.00656784,0.0303974,-0.000107402,0.0343984,2,2265
12,7.74657e-22,1,3697,91.26,-4.00081e-06,7.4859e-06,-4.62047e-08,8.48807e-06,81,-49.63,-179.82,1.0833e+07,1e+06,-1.18926e-07,2.63262e-07,-9.28558e-08,-0.00608117,0.0318809,-0.000280673,0.0355264,2,2266
12,7.79395e-22,1,3698,91.26,-4.12022e-06,7.47297e-06,-4.6672e-08,8.53368e-06,81.0625,-49.63,-179.82,1.0833e+07,1e+06,-1.16594e-07,2.64791e-07,-9.23563e-08,-0.00538367,0.0333965,-0.000332702,0.0367293,2,2267
12,7.98348e-22,1,3699,91.26,-4.234e-06,7.4748e-06,-4.01867e-08,8.59075e-06,81.3125,-49.63,-179.82,1.0833e+07,1e+06,-1.07954e-07,2.45663e-07,-7.95534e-08,-0.00523673,0.0343238,-0.000259388,0.0379546,2,2268
12,8.26778e-22,1,3700,133.1,-4.33613e-06,7.51487e-06,-2.99758e-08,8.67619e-06,81.6875,119.51,-49.37,1.0833e+07,1e+06,-9.7981e-08,2.15637e-07,-6.11082e-08,-0.00582004,0.0339133,-6.25604e-05,0.037819,2,2269
12,8.45731e-22,1,3701,133.1,-4.42996e-06,7.58581e-06,-2.50482e-08,8.78463e-06,81.9375,119.51,-49.37,1.0833e+07,1e+06,-9.24809e-08,1.98365e-07,-5.05064e-08,-0.00611127,0.0333211,0.000240633,0.036818,2,2270
12,8.50469e-22,1,3702,133.1,-4.52109e-06,7.66054e-06,-2.4154e-08,8.89521e-06,82,119.51,-49.37,1.0833e+07,1e+06,-9.03435e-08,1.91064e-07,-4.79792e-08,-0.00627953,0.0323013,0.000121963,0.035781,2,2271
12,8.50469e-22,1,3703,133.1,-4.61065e-06,7.73624e-06,-2.33378e-08,9.006e-06,82,119.51,-49.37,1.0833e+07,1e+06,-8.91691e-08,1.83695e-07,-4.66044e-08,-0.00668537,0.030497,-5.6947e-05,0.0344453,2,2272
12,8.43604e-22,1,3704,133.1,-4.69943e-06,7.82475e-06,-2.26906e-08,9.12753e-06,83.9375,119.51,-49.37,1.0833e+07,1e+06,-8.91887e-08,1.77815e-07,-4.51999e-08,-0.00762813,0.0291234,3.08323e-05,0.0339664,2,2273
12,8.29873e-22,1,3705,133.1,-4.78902e-06,7.93432e-06,-2.30468e-08,9.26761e-06,87.8125,119.51,-49.37,1.0833e+07,1e+06,-9.04401e-08,1.81649e-07,-4.62031e-08,-0.00835423,0.0302879,0.000375503,0.0357063,2,2274
12,7.71264e-22,1,3706,133.1,-4.88031e-06,8.04527e-06,-2.31864e-08,9.4098e-06,94.0625,119.51,-49.37,1.01872e+07,968750,-8.65462e-08,1.79723e-07,-4.61387e-08,-0.00857664,0.0312021,0.000432024,0.037179,2,2275
12,6.67778e-22,1,3707,137.15,-4.96212e-06,8.12335e-06,-2.67042e-08,9.51904e-06,102.688,109.19,-42.07,8.89556e+06,906250,-7.39465e-08,1.77343e-07,-5.33107e-08,-0.00768967,0.0318694,-0.000332104,0.0375762,2,2276
12,6.16035e-22,1,3708,137.15,-5.0282e-06,8.16269e-06,-3.22099e-08,9.58715e-06,107,109.19,-42.07,8.24975e+06,875000,-6.06595e-08,1.86945e-07,-6.47265e-08,-0.00499766,0.0344341,-0.000558105,0.0380969,2,2277
12,6.16035e-22,1,3709,137.15,-5.08344e-06,8.17903e-06,-3.49911e-08,9.63012e-06,107,109.19,-42.07,8.24975e+06,875000,-4.95127e-08,1.91545e-07,-7.00805e-08,-0.00204825,0.0360497,-0.000280083,0.0379057,2,2278
12,6.16035e-22,1,3710,137.15,-5.12723e-06,8.18391e-06,-3.73193e-08,9.65744e-06,107,109.19,-42.07,8.24975e+06,875000,-3.7636e-08,1.91835e-07,-7.4583e-08,0.000814398,0.0367623,-0.000249818,0.037203,2,2279
12,6.16035e-22,1,3711,137.15,-5.15871e-06,8.17798e-06,-3.89034e-08,9.66918e-06,107,109.19,-42.07,8.24975e+06,875000,-2.44671e-08,1.89476e-07,-7.78152e-08,0.00390071,0.0372028,-0.000173592,0.0362991,2,2280
12,6.16035e-22,1,3712,137.15,-5.17616e-06,8.15766e-06,-3.99596e-08,9.66135e-06,107,109.19,-42.07,8.24975e+06,875000,-1.00795e-08,1.8504e-07,-7.97916e-08,0.0071493,0.037563,-0.000106721,0.0355995,2,2281
12,6.47181e-22,1,3713,137.15,-5.17887e-06,8.1114e-06,-3.87553e-08,9.62377e-06,108.5,109.19,-42.07,8.89556e+06,906250,-9.38341e-10,1.85631e-07,-7.82696e-08,0.0100689,0.0410113,-0.000328236,0.0385058,2,2282
12,7.06936e-22,1,3714,137.15,-5.17804e-06,8.06893e-06,-3.48827e-08,9.58754e-06,111.25,109.19,-42.07,1.01872e+07,968750,-2.62771e-09,1.88359e-07,-6.96498e-08,0.0110971,0.0454871,0.000342487,0.0421171,2,2283
12,7.27928e-22,1,3715,137.15,-5.18412e-06,8.05284e-06,-3.16649e-08,9.57728e-06,111.75,109.19,-42.07,1.0833e+07,1e+06,-8.56403e-09,1.90817e-07,-6.32308e-08,0.0107167,0.0470998,0.00118242,0.0432467,2,2284
12,7.15235e-22,1,3716,64.5,-5.19517e-06,8.03465e-06,-3.52322e-08,9.568e-06,110.5,-144,-153.09,1.0833e+07,1e+06,-1.20202e-08,1.97656e-07,-7.04596e-08,0.0105858,0.047028,-0.000521329,0.0442974,2,2285
12,7.0762e-22,1,3717,64.5,-5.20816e-06,8.00737e-06,-3.72258e-08,9.55219e-06,109.75,-144,-153.09,1.0833e+07,1e+06,-1.47833e-08,2.07807e-07,-7.36167e-08,0.0112161,0.0483147,-0.000340999,0.0449742,2,2286
12,7.02542e-22,1,3718,64.5,-5.22473e-06,7.95903e-06,-3.55011e-08,9.52078e-06,109.25,-144,-153.09,1.0833e+07,1e+06,-1.728e-08,2.13544e-07,-7.10698e-08,0.0117745,0.0491973,0.00108653,0.0445008,2,2287
12,7.05944e-22,1,3719,64.5,-5.24272e-06,7.88108e-06,-3.71738e-08,9.46567e-06,108.938,-144,-153.09,1.0833e+07,1e+06,-1.83387e-08,2.10611e-07,-7.43491e-08,0.0115285,0.0467942,0.000131326,0.0428433,2,2288
12,7.17824e-22,1,3720,64.5,-5.26141e-06,7.79593e-06,-3.73519e-08,9.40534e-06,108.812,-144,-153.09,1.0833e+07,1e+06,-2.15564e-08,2.12563e-07,-7.56762e-08,0.0116641,0.0450572,0.000447404,0.0409609,2,2289
12,7.35644e-22,1,3721,64.5,-5.28584e-06,7.73134e-06,-4.26301e-08,9.36565e-06,108.625,-144,-153.09,1.0833e+07,1e+06,-3.36379e-08,2.31935e-07,-8.59103e-08,0.0109237,0.0450226,-0.000236492,0.0414985,2,2290
12,7.59404e-22,1,3722,97.4,-5.32869e-06,7.6906e-06,-5.10295e-08,9.35644e-06,108.375,-41.8,1.73,1.0833e+07,1e+06,-5.47715e-08,2.65978e-07,-1.00609e-07,0.00967918,0.0456922,-0.000548796,0.0426453,2,2291
12,7.49657e-22,1,3723,97.4,-5.39538e-06,7.68059e-06,-5.54746e-08,9.38641e-06,108.125,-41.8,1.73,1.01872e+07,968750,-7.66532e-08,2.97264e-07,-1.10228e-07,0.00810319,0.046392,-0.000162166,0.0439663,2,2292
12,6.51273e-22,1,3724,97.4,-5.48199e-06,7.70362e-06,-5.4007e-08,9.45521e-06,107.75,-41.8,1.73,7.60394e+06,843750,-9.80319e-08,3.14198e-07,-1.08274e-07,0.00623682,0.0442265,0.000600934,0.0431533,2,2293
12,4.91483e-22,2,3725,110.45,-5.59144e-06,7.71746e-06,-5.45713e-08,9.53029e-06,111.312,-147.4,-167.14,3.72906e+06,656250,-1.06359e-07,3.21597e-07,-1.10209e-07,0.00471198,0.0395962,0.00222799,0.0386826,3,1430
12,3.80553e-22,2,3726,155.53,-5.69471e-06,7.77667e-06,-7.81402e-08,9.63911e-06,119.062,-173.56,119.95,1.14581e+06,531250,-9.22211e-08,3.35451e-07,-1.56526e-07,0.00149037,0.0350865,0.000112592,0.0356392,3,1431
12,3.52654e-22,2,3727,155.53,-5.77588e-06,7.90556e-06,-9.76675e-08,9.79123e-06,123,-173.56,119.95,500000,500000,-8.20343e-08,3.56788e-07,-1.94473e-07,9.74223e-05,0.0345173,-0.00105727,0.035414,3,1432
12,3.52654e-22,2,3728,155.53,-5.85878e-06,8.04668e-06,-9.8941e-08,9.95411e-06,123,-173.56,119.95,500000,500000,-8.741e-08,3.76306e-07,-1.98106e-07,0.000653418,0.0372884,8.47122e-06,0.0374681,3,1433
12,3.52654e-22,2,3729,155.53,-5.9507e-06,8.19292e-06,-1.00713e-07,1.01264e-05,123,-173.56,119.95,500000,500000,-9.34264e-08,3.88495e-07,-2.01516e-07,0.000209813,0.038787,0.000108363,0.0392886,3,1434
12,3.52654e-22,2,3730,155.53,-6.04563e-06,8.33179e-06,-1.00291e-07,1.02946e-05,123,-173.56,119.95,500000,500000,-9.41347e-08,3.87914e-07,-2.00579e-07,-6.99661e-05,0.0389601,6.78884e-05,0.0397592,3,1435
12,3.52654e-22,2,3731,155.53,-6.13897e-06,8.4558e-06,-9.73737e-08,1.04497e-05,123,-173.56,119.95,500000,500000,-9.16043e-08,3.76481e-07,-1.9468e-07,-0.000197071,0.0378785,2.09517e-05,0.038795,3,1436
12,3.52654e-22,2,3732,155.53,-6.22884e-06,8.56582e-06,-9.28056e-08,1.05915e-05,123,-173.56,119.95,500000,500000,-8.8261e-08,3.59239e-07,-1.85553e-07,-0.000263665,0.0359706,7.33357e-07,0.0368289,3,1437
12,3.52654e-22,2,3733,155.53,-6.3155e-06,8.66769e-06,-8.76991e-08,1.07248e-05,123,-173.56,119.95,500000,500000,-8.54019e-08,3.40973e-07,-1.75409e-07,-0.000307555,0.0337971,1.85904e-05,0.0344923,3,1438
12,3.52654e-22,2,3734,155.53,-6.39965e-06,8.76652e-06,-8.26966e-08,1.08542e-05,123,-173.56,119.95,500000,500000,-8.27122e-08,3.23241e-07,-1.65433e-07,-0.000317515,0.0316569,5.06267e-05,0.032168,3,1439
12,3.52654e-22,2,3735,155.53,-6.48092e-06,8.863e-06,-7.76825e-08,1.098e-05,123,-173.56,119.95,500000,500000,-7.91078e-08,3.04541e-07,-1.55423e-07,-0.000272315,0.0294764,5.99888e-05,0.0298239,3,1440
12,3.52654e-22,2,3736,155.53,-6.55786e-06,8.95471e-06,-7.21748e-08,1.10994e-05,123,-173.56,119.95,500000,500000,-7.40928e-08,2.8283e-07,-1.44374e-07,-0.000155729,0.0269998,6.00504e-05,0.0271729,3,1441
12,3.52654e-22,2,3737,155.53,-6.62911e-06,9.04148e-06,-6.64091e-08,1.12115e-05,123,-173.56,119.95,500000,500000,-6.97021e-08,2.58224e-07,-1.32732e-07,-0.000385629,0.0238929,-0.000187056,0.0242109,3,1442
12,5.69008e-22,1,3738,71.87,-2.66538e-08,7.21634e-06,-3.06942e-08,7.21645e-06,27,-131.18,-164.33,1.0833e+07,1e+06,-5.24863e-08,1.96501e-07,-6.20352e-08,0.00474214,0.0348738,0.00102097,0.0322471,2,2294
12,5.10656e-22,1,3739,71.87,-7.83188e-08,7.2858e-06,-3.74093e-08,7.28632e-06,21.75,-131.18,-164.33,8.24975e+06,875000,-5.30454e-08,1.97931e-07,-7.50355e-08,0.00379303,0.0320009,-0.00226783,0.0331294,2,2295
12,3.93953e-22,2,3740,110.47,-1.32745e-07,7.35796e-06,-4.6198e-08,7.3593e-06,11.25,-113.15,-163.66,3.08325e+06,625000,-5.92498e-08,2.12871e-07,-9.10931e-08,0.00294856,0.0267886,-0.00226412,0.028458,3,1443
12,3.5019e-22,2,3741,110.47,-1.96818e-07,7.43434e-06,-4.64899e-08,7.43709e-06,7.3125,-113.15,-163.66,1.14581e+06,531250,-6.56326e-08,2.22631e-07,-9.22916e-08,0.00262601,0.0246062,0.000121129,0.0241655,3,1444
12,4.23129e-22,2,3742,110.47,-2.6401e-07,7.48482e-06,-3.54277e-08,7.48956e-06,13.875,-113.15,-163.66,4.37488e+06,687500,-6.50524e-08,2.10132e-07,-7.21787e-08,0.0020667,0.0296127,0.000981979,0.0300059,3,1445
12,5.25244e-22,1,3743,71.87,-3.26923e-07,7.50665e-06,-3.09486e-08,7.51383e-06,23.0625,-131.18,-164.33,8.89556e+06,906250,-6.29643e-08,1.9896e-07,-6.22386e-08,0.00191271,0.0334992,-2.79996e-05,0.0338006,2,2296
12,5.69008e-22,1,3744,71.87,-3.89938e-07,7.53323e-06,-3.30109e-08,7.54339e-06,27,-131.18,-164.33,1.0833e+07,1e+06,-6.52469e-08,2.0108e-07,-6.52754e-08,0.00168269,0.0340855,-0.000793148,0.0337018,2,2297
12,5.69008e-22,1,3745,71.87,-4.57417e-07,7.56791e-06,-3.20327e-08,7.58178e-06,27,-131.18,-164.33,1.0833e+07,1e+06,-6.87969e-08,2.04346e-07,-6.42884e-08,0.00128459,0.0343061,-0.000267056,0.0338288,2,2298
12,5.69008e-22,1,3746,71.87,-5.27532e-07,7.6042e-06,-3.29258e-08,7.62254e-06,27,-131.18,-164.33,1.0833e+07,1e+06,-7.06329e-08,2.07959e-07,-6.55667e-08,0.00115879,0.0347154,-0.000303029,0.0343455,2,2299
12,5.69008e-22,1,3747,71.87,-5.98683e-07,7.64474e-06,-3.35034e-08,7.66822e-06,27,-131.18,-164.33,1.0833e+07,1e+06,-7.11825e-08,2.11603e-07,-6.70707e-08,0.00135626,0.0352986,-0.000295497,0.0348631,2,2300
12,5.69008e-22,1,3748,71.87,-6.69897e-07,7.69142e-06,-3.35574e-08,7.72062e-06,27,-131.18,-164.33,1.0833e+07,1e+06,-7.08915e-08,2.12321e-07,-6.73961e-08,0.00153056,0.0353886,-0.000220884,0.0348569,2,2301
12,5.69008e-22,1,3749,71.87,-7.40466e-07,7.74256e-06,-3.35115e-08,7.77796e-06,27,-131.18,-164.33,1.0833e+07,1e+06,-7.0763e-08,2.12311e-07,-6.7055e-08,0.00160752,0.0353952,-7.68237e-05,0.0347651,2,2302
12,5.69008e-22,1,3750,71.87,-8.11423e-07,7.79615e-06,-3.36213e-08,7.83833e-06,27,-131.18,-164.33,1.0833e+07,1e+06,-7.1675e-08,2.13153e-07,-6.67687e-08,0.00148436,0.03546,8.86985e-05,0.0348197,2,2303
12,5.52998e-22,1,3751,71.87,-8.83816e-07,7.85474e-06,-3.30701e-08,7.90438e-06,26.625,-131.18,-164.33,1.01872e+07,968750,-7.50217e-08,2.14865e-07,-6.64205e-08,0.00097698,0.034584,0.000428861,0.0341754,2,2304
12,4.74742e-22,1,3752,71.87,-9.61467e-07,7.89888e-06,-3.73319e-08,7.95726e-06,25.75,-131.18,-164.33,6.95812e+06,812500,-8.343e-08,2.23353e-07,-7.52855e-08,-0.000227707,0.0306878,-7.22019e-05,0.0315044,2,2305
12,3.71646e-22,2,3753,84.09,-1.05068e-06,7.92028e-06,-4.56773e-08,7.9898e-06,27.375,154.9,-166.02,2.43744e+06,593750,-8.12738e-08,2.29557e-07,-9.0743e-08,-0.00144087,0.026747,-0.000263285,0.0286342,3,1446
12,3.3618e-22,2,3754,103.3,-1.12401e-06,7.95779e-06,-4.95633e-08,8.03694e-06,31.75,-73.15,30.56,500000,500000,-5.97334e-08,2.16721e-07,-9.90744e-08,-0.00200448,0.0263145,-0.000102022,0.0283581,3,1447
12,3.41565e-22,2,3755,103.3,-1.17014e-06,8.00664e-06,-5.02243e-08,8.09185e-06,34,-73.15,30.56,500000,500000,-4.36304e-08,2.04922e-07,-1.0062e-07,-0.00177311,0.027265,-0.000131218,0.0291236,3,1448
12,3.41565e-22,2,3756,103.3,-1.21128e-06,8.04108e-06,-5.0108e-08,8.13195e-06,34,-73.15,30.56,500000,500000,-3.97172e-08,2.02278e-07,-1.00168e-07,-0.00144168,0.0274611,6.09844e-05,0.0292359,3,1449
12,3.41565e-22,2,3757,103.3,-1.24958e-06,8.06298e-06,-4.95938e-08,8.15938e-06,34,-73.15,30.56,500000,500000,-3.64539e-08,1.97163e-07,-9.9206e-08,-0.00136853,0.0270769,-8.46064e-08,0.0289999,3,1450
12,3.41565e-22,2,3758,103.3,-1.28418e-06,8.07188e-06,-4.86486e-08,8.17354e-06,34,-73.15,30.56,500000,500000,-3.30941e-08,1.90698e-07,-9.73033e-08,-0.00122196,0.0264437,-1.61619e-05,0.0284032,3,1451
12,3.41565e-22,2,3759,103.3,-1.31577e-06,8.07181e-06,-4.74099e-08,8.17848e-06,34,-73.15,30.56,500000,500000,-3.08103e-08,1.84121e-07,-9.48054e-08,-0.00110865,0.0256043,-4.04549e-05,0.0275145,3,1452
12,3.41565e-22,2,3760,103.3,-1.3458e-06,8.06968e-06,-4.64239e-08,8.18127e-06,34,-73.15,30.56,500000,500000,-3.01481e-08,1.80135e-07,-9.28523e-08,-0.00102742,0.0249475,-3.7893e-05,0.0267184,3,1453
12,3.41565e-22,2,3761,103.3,-1.37606e-06,8.07212e-06,-4.59626e-08,8.1887e-06,34,-73.15,30.56,500000,500000,-3.14913e-08,1.79628e-07,-9.18742e-08,-0.00106531,0.0246441,-6.11851e-05,0.0263074,3,1454
12,3.41565e-22,2,3762,103.3,-1.40879e-06,8.08322e-06,-4.45364e-08,8.20518e-06,34,-73.15,30.56,500000,500000,-3.5175e-08,1.83255e-07,-8.90927e-08,-0.00104388,0.0251608,0.000539819,0.026379,3,1455
12,4.32617e-22,2,3763,103.3,-1.44641e-06,8.10543e-06,-4.17241e-08,8.23358e-06,37.9375,-73.15,30.56,2.43744e+06,593750,-4.28289e-08,1.86405e-07,-8.30324e-08,-0.00126921,0.027926,-0.000689175,0.0302395,3,1456
12,6.45071e-22,1,3764,130.6,-1.49444e-06,8.12054e-06,-3.33596e-08,8.25697e-06,47.125,117.2,-48.36,6.95813e+06,812500,-5.38658e-08,1.85674e-07,-6.71587e-08,-0.00138049,0.032687,-0.00126427,0.0354467,2,2306
12,7.96824e-22,1,3765,130.6,-1.55414e-06,8.12207e-06,-2.63218e-08,8.26947e-06,53.6875,117.2,-48.36,1.01872e+07,968750,-6.24545e-08,1.8821e-07,-5.30496e-08,-0.00116612,0.0362633,0.000570385,0.0373179,2,2307
12,8.27175e-22,1,3766,130.6,-1.61935e-06,8.13294e-06,-2.72015e-08,8.29263e-06,55,117.2,-48.36,1.0833e+07,1e+06,-6.5941e-08,1.93253e-07,-5.39684e-08,-0.00127181,0.0370735,0.000554366,0.0377147,2,2308
12,8.27175e-22,1,3767,130.6,-1.68603e-06,8.15947e-06,-2.87561e-08,8.33189e-06,55,117.2,-48.36,1.0833e+07,1e+06,-6.69777e-08,1.97008e-07,-5.757e-08,-0.00126486,0.0371884,-4.89823e-06,0.0379442,2,2309
12,8.27175e-22,1,3768,130.6,-1.75331e-06,8.19659e-06,-2.9635e-08,8.38206e-06,55,117.2,-48.36,1.0833e+07,1e+06,-6.78004e-08,2.01154e-07,-5.92406e-08,-0.00109188,0.0378352,-5.76414e-06,0.038448,2,2310
12,8.27175e-22,1,3769,130.6,-1.82163e-06,8.24221e-06,-3.03574e-08,8.44117e-06,55,117.2,-48.36,1.0833e+07,1e+06,-6.89339e-08,2.0531e-07,-6.07169e-08,-0.00102678,0.0385431,-1.19948e-05,0.0391031,2,2311
12,8.27175e-22,1,3770,130.6,-1.89118e-06,8.29491e-06,-3.10247e-08,8.50782e-06,55,117.2,-48.36,1.0833e+07,1e+06,-7.02547e-08,2.0949e-07,-6.20495e-08,-0.00101885,0.039292,-1.25029e-05,0.0398395,2,2312
12,8.27175e-22,1,3771,130.6,-1.96214e-06,8.35363e-06,-3.16587e-08,8.58103e-06,55,117.2,-48.36,1.0833e+07,1e+06,-7.17966e-08,2.13757e-07,-6.33202e-08,-0.00107075,0.0400695,-1.72019e-05,0.0406437,2,2313
12,8.27175e-22,1,3772,130.6,-2.03477e-06,8.41794e-06,-3.23074e-08,8.66043e-06,55,117.2,-48.36,1.0833e+07,1e+06,-7.36944e-08,2.1831e-07,-6.46154e-08,-0.00120071,0.0408835,-2.6846e-05,0.0415292,2,2314
12,8.27175e-22,1,3773,130.6,-2.10952e-06,8.48843e-06,-3.30158e-08,8.74669e-06,55,117.2,-48.36,1.0833e+07,1e+06,-7.60624e-08,2.23351e-07,-6.60234e-08,-0.00141832,0.0417348,-3.35738e-05,0.0424946,2,2315
12,8.27175e-22,1,3774,130.6,-2.18689e-06,8.56699e-06,-3.37615e-08,8.84178e-06,55,117.2,-48.36,1.0833e+07,1e+06,-7.8613e-08,2.28516e-07,-6.751e-08,-0.00166945,0.0425316,-2.01541e-05,0.0434135,2,2316
12,8.27175e-22,1,3775,130.6,-2.26675e-06,8.6565e-06,-3.4725e-08,8.94843e-06,55,117.2,-48.36,1.0833e+07,1e+06,-8.00899e-08,2.32276e-07,-6.94625e-08,-0.00180497,0.042983,-0.000171965,0.0440188,2,2317
12,6.8732e-22,1,3776,130.6,-2.34707e-06,8.75797e-06,-3.6739e-08,9.06709e-06,58.25,117.2,-48.36,8.24975e+06,875000,-7.7484e-08,2.32942e-07,-7.34904e-08,-0.0017751,0.0395486,0.00117849,0.0403079,2,2318
12,4.07609e-22,2,3777,95.17,-2.42172e-06,8.73896e-06,-4.9095e-08,9.06844e-06,64.75,150.32,151.68,3.08325e+06,625000,-7.02517e-08,2.322e-07,-9.82067e-08,-0.00239743,0.030289,0.000235437,0.0319317,3,1457
12,2.67754e-22,2,3778,95.17,-2.48758e-06,8.59731e-06,-5.7367e-08,8.95014e-06,68,150.32,151.68,500000,500000,-6.44293e-08,2.3112e-07,-1.14733e-07,-0.00235092,0.0251808,-0.00111147,0.0272369,3,1458
12,2.67754e-22,2,3779,95.17,-2.55058e-06,8.46426e-06,-5.41284e-08,8.84036e-06,68,150.32,151.68,500000,500000,-6.32572e-08,2.29211e-07,-1.08237e-07,-0.00166618,0.0258043,-1.24075e-05,0.0270701,3,1459
12,2.67754e-22,2,3780,95.17,-2.61409e-06,8.34013e-06,-5.34437e-08,8.74037e-06,68,150.32,151.68,500000,500000,-6.32854e-08,2.27753e-07,-1.06855e-07,-0.00167869,0.0257847,-2.3697e-05,0.027107,3,1460
12,2.67754e-22,2,3781,95.17,-2.67715e-06,8.22178e-06,-5.34853e-08,8.64683e-06,68,150.32,151.68,500000,500000,-6.33206e-08,2.27929e-07,-1.06961e-07,-0.00168905,0.0258198,-3.39095e-05,0.0271606,3,1461
12,2.67754e-22,2,3782,95.17,-2.74073e-06,8.10542e-06,-5.43325e-08,8.55642e-06,68,150.32,151.68,500000,500000,-6.41329e-08,2.31503e-07,-1.08659e-07,-0.00168941,0.0262604,-2.98725e-05,0.0276146,3,1462
12,2.67754e-22,2,3783,95.17,-2.80541e-06,7.99077e-06,-5.5944e-08,8.46911e-06,68,150.32,151.68,500000,500000,-6.41088e-08,2.37901e-07,-1.11971e-07,-0.00149284,0.0273334,8.25203e-07,0.0286884,3,1463
12,2.67754e-22,2,3784,95.17,-2.86895e-06,7.88647e-06,-5.65039e-08,8.39229e-06,68,150.32,151.68,500000,500000,-6.22094e-08,2.38605e-07,-1.13722e-07,-0.00139117,0.027796,-0.000207107,0.0293937,3,1464
12,2.67754e-22,2,3785,95.17,-2.92983e-06,7.8004e-06,-5.63299e-08,8.33267e-06,68,150.32,151.68,500000,500000,-5.89664e-08,2.34577e-07,-1.13079e-07,-0.00122463,0.0277956,-0.0004327,0.0296635,3,1465
12,2.67754e-22,2,3786,95.17,-2.98688e-06,7.73734e-06,-5.5334e-08,8.29403e-06,68,150.32,151.68,500000,500000,-5.43642e-08,2.25745e-07,-1.09903e-07,-0.000897158,0.0271559,-0.00056106,0.0290686,3,1466
12,2.85968e-22,2,3787,95.17,-3.03856e-06,7.68694e-06,-4.98981e-08,8.26585e-06,68.0625,150.32,151.68,1.14581e+06,531250,-5.13147e-08,2.1195e-07,-9.88247e-08,-0.000704515,0.0272968,-0.000615109,0.0291679,3,1467
12,3.22395e-22,2,3788,95.17,-3.08951e-06,7.65321e-06,-4.05734e-08,8.25339e-06,68.1875,150.32,151.68,2.43744e+06,593750,-5.42458e-08,1.95628e-07,-8.00959e-08,-0.00138144,0.0276346,-0.000395564,0.0298141,3,1468
12,3.77036e-22,2,3789,95.17,-3.14705e-06,7.63628e-06,-2.74427e-08,8.25939e-06,68.375,150.32,151.68,4.37488e+06,687500,-6.03485e-08,1.72528e-07,-5.46059e-08,-0.00296792,0.0278396,-4.50333e-05,0.0306357,3,1469
12,4.49891e-22,1,3790,53.66,-3.21021e-06,7.63382e-06,-1.3453e-08,8.28136e-06,68.625,-114.01,-136.45,6.95813e+06,812500,-6.57788e-08,1.50357e-07,-2.89464e-08,-0.00427645,0.0287506,0.000450203,0.0316977,2,2319
12,5.44936e-22,1,3791,53.66,-3.27861e-06,7.64478e-06,-1.11244e-08,8.31818e-06,71.0625,-114.01,-136.45,8.89556e+06,906250,-7.54059e-08,1.4408e-07,-2.36019e-08,-0.00660262,0.0271186,0.000376563,0.0317206,2,2320
12,6.75637e-22,1,3792,91.26,-3.36102e-06,7.67146e-06,-2.16023e-08,8.37546e-06,76.4375,-49.63,-179.82,1.01872e+07,968750,-8.95015e-08,1.63924e-07,-4.20395e-08,-0.0084948,0.0242302,-2.77201e-05,0.0303494,2,2321
12,7.61189e-22,1,3793,91.26,-3.45761e-06,7.71408e-06,-3.12463e-08,8.45358e-06,80.25,-49.63,-179.82,1.0833e+07,1e+06,-9.96272e-08,1.90918e-07,-6.19013e-08,-0.00825067,0.023034,-0.000214876,0.0285341,2,2322
12,7.74657e-22,1,3794,91.26,-3.56028e-06,7.74314e-06,-3.56716e-08,8.5225e-06,81,-49.63,-179.82,1.0833e+07,1e+06,-1.04681e-07,2.10074e-07,-7.16074e-08,-0.00752733,0.0244578,-0.000183189,0.0291994,2,2323
12,7.74657e-22,1,3795,91.26,-3.66697e-06,7.754e-06,-3.88329e-08,8.57746e-06,81,-49.63,-179.82,1.0833e+07,1e+06,-1.08848e-07,2.26889e-07,-7.76521e-08,-0.00692047,0.0269416,-6.34189e-07,0.03121,2,2324
12,7.74657e-22,1,3796,91.26,-3.77797e-06,7.7555e-06,-4.14906e-08,8.62685e-06,81,-49.63,-179.82,1.0833e+07,1e+06,-1.12415e-07,2.40431e-07,-8.29961e-08,-0.00652475,0.0288484,-7.04481e-06,0.0329019,2,2325
12,7.74657e-22,1,3797,91.26,-3.8918e-06,7.75222e-06,-4.35635e-08,8.67439e-06,81,-49.63,-179.82,1.0833e+07,1e+06,-1.14429e-07,2.50528e-07,-8.70617e-08,-0.00604651,0.030344,1.05917e-05,0.0340676,2,2326
12,7.74657e-22,1,3798,91.26,-4.00683e-06,7.74646e-06,-4.50913e-08,8.72149e-06,81,-49.63,-179.82,1.0833e+07,1e+06,-1.15126e-07,2.57774e-07,-9.0475e-08,-0.00552979,0.0314507,-5.90409e-05,0.034799,2,2327
12,7.74657e-22,1,3799,91.26,-4.12206e-06,7.7401e-06,-4.66744e-08,8.76942e-06,81,-49.63,-179.82,1.0833e+07,1e+06,-1.14493e-07,2.63061e-07,-9.37607e-08,-0.00487619,0.0323059,-0.000261888,0.0351939,2,2328
12,7.79395e-22,1,3800,91.26,-4.23582e-06,7.73453e-06,-4.65811e-08,8.81857e-06,81.0625,-49.63,-179.82,1.0833e+07,1e+06,-1.09985e-07,2.60971e-07,-9.22309e-08,-0.00395611,0.0334128,-0.000331433,0.0358876,2,2329
12,7.98348e-22,1,3801,91.26,-4.34203e-06,7.7431e-06,-4.04032e-08,8.87752e-06,81.3125,-49.63,-179.82,1.0833e+07,1e+06,-9.98843e-08,2.40813e-07,-7.98986e-08,-0.00356414,0.0342003,-0.000383867,0.0368995,2,2330
12,8.2204e-22,1,3802,133.1,-4.43558e-06,7.78592e-06,-3.08098e-08,8.9608e-06,81.625,119.51,-49.37,1.0833e+07,1e+06,-9.04979e-08,2.14215e-07,-6.23621e-08,-0.00377762,0.0338163,0.000374884,0.0363045,2,2331
12,8.31516e-22,1,3803,133.1,-4.52302e-06,7.84943e-06,-2.60222e-08,9.05936e-06,81.75,119.51,-49.37,1.0833e+07,1e+06,-8.83243e-08,1.98641e-07,-5.26199e-08,-0.00462342,0.0321947,0.00102867,0.0347427,2,2332
12,8.31516e-22,1,3804,133.1,-4.61223e-06,7.91753e-06,-2.43308e-08,9.163e-06,81.75,119.51,-49.37,1.0833e+07,1e+06,-8.99244e-08,1.89019e-07,-4.85723e-08,-0.00595843,0.029928,0.00107425,0.0335356,2,2333
12,8.15658e-22,1,3805,133.1,-4.70287e-06,7.99765e-06,-2.28522e-08,9.27792e-06,87.625,119.51,-49.37,1.0833e+07,1e+06,-8.56784e-08,1.75255e-07,-4.60307e-08,-0.0074242,0.0282892,0.000720458,0.0333268,2,2334
12,7.83941e-22,1,3806,137.15,-4.78359e-06,8.1085e-06,-2.37859e-08,9.41441e-06,99.375,109.19,-42.07,1.0833e+07,1e+06,-7.3516e-08,1.6912e-07,-4.76742e-08,-0.00714022,0.0303255,0.00057363,0.0351565,2,2335
12,7.61218e-22,1,3807,137.15,-4.8499e-06,8.21816e-06,-2.47932e-08,9.54255e-06,107.188,109.19,-42.07,1.0833e+07,1e+06,-6.05788e-08,1.6768e-07,-4.87694e-08,-0.00500732,0.0329591,0.000962957,0.0359899,2,2336
12,7.47487e-22,1,3808,137.15,-4.90475e-06,8.28803e-06,-2.46604e-08,9.6306e-06,111.063,109.19,-42.07,1.0833e+07,1e+06,-5.0436e-08,1.62515e-07,-4.89592e-08,-0.00314396,0.0336285,0.000803683,0.0353209,2,2337
12,7.40621e-22,1,3809,137.15,-4.95077e-06,8.32913e-06,-2.43922e-08,9.68944e-06,113,109.19,-42.07,1.0833e+07,1e+06,-4.38824e-08,1.63148e-07,-4.91602e-08,-0.00143784,0.0350941,0.00109451,0.03544,2,2338
12,7.40621e-22,1,3810,137.15,-4.99251e-06,8.34845e-06,-2.45917e-08,9.7274e-06,113,109.19,-42.07,1.0833e+07,1e+06,-3.86357e-08,1.6524e-07,-4.93386e-08,0.00030386,0.0364383,0.00155829,0.0356531,2,2339
12,7.40621e-22,1,3811,137.15,-5.02805e-06,8.35312e-06,-2.52357e-08,9.74969e-06,113,109.19,-42.07,1.0833e+07,1e+06,-3.16382e-08,1.65372e-07,-5.04867e-08,0.00233449,0.0372382,0.00169267,0.0353889,2,2340
12,7.40621e-22,1,3812,137.15,-5.05579e-06,8.345e-06,-2.56109e-08,9.75708e-06,113,109.19,-42.07,1.0833e+07,1e+06,-2.38268e-08,1.64298e-07,-5.12173e-08,0.00452984,0.0379292,0.00178373,0.0350738,2,2341
12,7.40621e-22,1,3813,137.15,-5.0757e-06,8.32161e-06,-2.59795e-08,9.74744e-06,113,109.19,-42.07,1.0833e+07,1e+06,-1.80326e-08,1.64569e-07,-5.27116e-08,0.00613407,0.0389135,0.00146113,0.0357354,2,2342
12,7.40621e-22,1,3814,137.15,-5.09185e-06,8.28572e-06,-2.8622e-08,9.72528e-06,113,109.19,-42.07,1.0833e+07,1e+06,-1.62908e-08,1.75221e-07,-5.79022e-08,0.00712843,0.0420488,0.000901826,0.0390157,2,2343
12,7.40621e-22,1,3815,137.15,-5.10828e-06,8.2556e-06,-3.25847e-08,9.70827e-06,113,109.19,-42.07,1.0833e+07,1e+06,-1.63743e-08,1.86548e-07,-6.41809e-08,0.00758859,0.0446382,0.000313689,0.0417966,2,2344
12,7.38083e-22,1,3816,137.15,-5.1246e-06,8.24092e-06,-3.26572e-08,9.7044e-06,112.75,109.19,-42.07,1.0833e+07,1e+06,-1.5476e-08,1.88579e-07,-6.51904e-08,0.00799895,0.0452257,0.000267201,0.0423837,2,2345
12,7.33005e-22,1,3817,137.15,-5.13923e-06,8.22855e-06,-3.53844e-08,9.70165e-06,112.25,109.19,-42.07,1.0833e+07,1e+06,-1.30761e-08,1.93118e-07,-7.04375e-08,0.00882334,0.0463334,-0.000825999,0.0442127,2,2346
12,7.2539e-22,1,3818,137.15,-5.15075e-06,8.21227e-06,-3.59528e-08,9.69396e-06,111.5,109.19,-42.07,1.0833e+07,1e+06,-1.13558e-08,2.01839e-07,-7.17925e-08,0.0103324,0.0489414,-0.000439279,0.0463757,2,2347
12,7.18637e-22,1,3819,64.5,-5.16194e-06,8.17094e-06,-3.54024e-08,9.66495e-06,110.188,-144,-153.09,1.0833e+07,1e+06,-1.30771e-08,2.14131e-07,-7.1601e-08,0.0124098,0.0507401,0.00101963,0.0465957,2,2348
12,7.32242e-22,1,3820,64.5,-5.17691e-06,8.09396e-06,-4.28249e-08,9.60804e-06,108.938,-144,-153.09,1.0833e+07,1e+06,-2.15313e-08,2.2593e-07,-8.55647e-08,0.0128137,0.0468646,-0.000772828,0.043728,2,2349
12,7.59404e-22,1,3821,97.4,-5.20501e-06,8.01988e-06,-4.80214e-08,9.56101e-06,108.375,-41.8,1.73,1.0833e+07,1e+06,-3.65878e-08,2.43056e-07,-9.59636e-08,0.0123997,0.0431808,-0.000803486,0.0399866,2,2350
12,7.77223e-22,1,3822,97.4,-5.25008e-06,7.98174e-06,-5.23591e-08,9.55376e-06,108.188,-41.8,1.73,1.0833e+07,1e+06,-5.26253e-08,2.66096e-07,-1.04475e-07,0.0114845,0.0430531,-0.000508778,0.0394647,2,2351
12,7.89103e-22,1,3823,97.4,-5.31026e-06,7.97678e-06,-5.71662e-08,9.58285e-06,108.063,-41.8,1.73,1.0833e+07,1e+06,-6.69038e-08,2.88142e-07,-1.1426e-07,0.0104848,0.0434123,-0.000867997,0.0400822,2,2352
12,7.95043e-22,1,3824,97.4,-5.38389e-06,7.99051e-06,-5.96904e-08,9.63526e-06,108,-41.8,1.73,1.0833e+07,1e+06,-7.64974e-08,3.03324e-07,-1.19214e-07,0.0100182,0.0438648,-0.00053956,0.0402744,2,2353
12,7.67477e-22,1,3825,97.4,-5.46325e-06,8.01604e-06,-5.87011e-08,9.7009e-06,107.938,-41.8,1.73,1.01872e+07,968750,-8.39295e-08,3.07638e-07,-1.17245e-07,0.00861634,0.04389,-0.000252918,0.0411575,2,2354
12,6.29314e-22,1,3826,97.4,-5.55175e-06,8.03315e-06,-6.23503e-08,9.76511e-06,111.625,-41.8,1.73,6.95812e+06,812500,-8.73806e-08,3.18279e-07,-1.25325e-07,0.00680834,0.0417116,0.000567298,0.0398399,2,2355
12,4.35686e-22,2,3827,155.53,-5.63801e-06,8.11209e-06,-8.32452e-08,9.87928e-06,119.188,-173.56,119.95,2.43744e+06,593750,-8.12237e-08,3.37554e-07,-1.66098e-07,0.00339823,0.0360568,-0.000426843,0.0355704,3,1470
12,3.52654e-22,2,3828,155.53,-5.7142e-06,8.26707e-06,-1.00054e-07,1.00502e-05,123,-173.56,119.95,500000,500000,-7.98623e-08,3.63189e-07,-1.99719e-07,0.00117391,0.0347117,-0.000937545,0.0348314,3,1471
12,3.52654e-22,2,3829,155.53,-5.79774e-06,8.42859e-06,-1.0346e-07,1.02306e-05,123,-173.56,119.95,500000,500000,-8.80222e-08,3.88486e-07,-2.07471e-07,0.00110655,0.0379782,-0.000213647,0.0378954,3,1472
12,3.52654e-22,2,3830,155.53,-5.89024e-06,8.586e-06,-1.04976e-07,1.04128e-05,123,-173.56,119.95,500000,500000,-9.22422e-08,3.97898e-07,-2.09834e-07,0.000659745,0.03947,-7.59845e-05,0.0397651,3,1473
12,3.52654e-22,2,3831,155.53,-5.98222e-06,8.72095e-06,-1.02854e-07,1.0576e-05,123,-173.56,119.95,500000,500000,-8.94077e-08,3.90116e-07,-2.05721e-07,0.000529007,0.0392427,-6.63836e-05,0.0398135,3,1474
12,3.52654e-22,2,3832,155.53,-6.06906e-06,8.83018e-06,-9.79613e-08,1.07152e-05,123,-173.56,119.95,500000,500000,-8.4431e-08,3.71017e-07,-1.95884e-07,0.000473674,0.0375138,-7.36844e-05,0.0381611,3,1475
12,3.52654e-22,2,3833,155.53,-6.15108e-06,8.92091e-06,-9.21341e-08,1.08364e-05,123,-173.56,119.95,500000,500000,-8.09072e-08,3.49956e-07,-1.84218e-07,0.000360972,0.035165,-6.6483e-05,0.0357278,3,1476
12,3.52654e-22,2,3834,155.53,-6.23087e-06,9.00416e-06,-8.67177e-08,1.09502e-05,123,-173.56,119.95,500000,500000,-7.95395e-08,3.32326e-07,-1.73455e-07,0.000194303,0.0329804,-1.39687e-05,0.0334037,3,1477
12,3.52654e-22,2,3835,155.53,-6.31016e-06,9.0858e-06,-8.17697e-08,1.10624e-05,123,-173.56,119.95,500000,500000,-7.86108e-08,3.16691e-07,-1.63636e-07,2.29388e-05,0.0310513,4.34474e-05,0.0313748,3,1478
12,3.52654e-22,2,3836,155.53,-6.38809e-06,9.16382e-06,-7.65961e-08,1.11709e-05,123,-173.56,119.95,500000,500000,-7.58382e-08,2.98595e-07,-1.53296e-07,-5.92602e-05,0.0290192,7.49126e-05,0.0292672,3,1479
12,3.52654e-22,2,3837,155.53,-6.46184e-06,9.23292e-06,-7.01959e-08,1.12697e-05,123,-173.56,119.95,500000,500000,-7.04747e-08,2.74046e-07,-1.40378e-07,-2.3511e-05,0.026341,9.74902e-05,0.0264571,3,1480
12,3.52654e-22,2,3838,155.53,-6.52904e-06,9.29295e-06,-6.3001e-08,1.13574e-05,123,-173.56,119.95,500000,500000,-6.53983e-08,2.44006e-07,-1.25922e-07,-0.000387276,0.0226172,-0.000206896,0.0229586,3,1481
12,5.69008e-22,1,3839,71.87,-2.53345e-08,7.41075e-06,-3.06688e-08,7.41086e-06,27,-131.18,-164.33,1.0833e+07,1e+06,-5.0522e-08,1.92811e-07,-6.12711e-08,0.00495304,0.0342441,0.000962979,0.0316281,2,2356
12,5.25244e-22,1,3840,71.87,-7.57095e-08,7.48487e-06,-3.44672e-08,7.48533e-06,23.0625,-131.18,-164.33,8.89556e+06,906250,-5.20131e-08,1.95254e-07,-6.87851e-08,0.00445639,0.032481,-0.00103384,0.032419,2,2357
12,4.37717e-22,2,3841,110.47,-1.29361e-07,7.57012e-06,-3.56952e-08,7.57131e-06,15.1875,-113.15,-163.66,5.02069e+06,718750,-5.59093e-08,1.99624e-07,-7.06219e-08,0.00392706,0.0287891,0.000205884,0.0288084,3,1482
12,4.23129e-22,2,3842,110.47,-1.87528e-07,7.64504e-06,-3.07283e-08,7.6474e-06,13.875,-113.15,-163.66,4.37487e+06,687500,-5.73386e-08,1.92691e-07,-6.25203e-08,0.00326593,0.0270744,0.00190749,0.0260132,3,1483
12,4.96068e-22,1,3843,71.87,-2.44038e-07,7.68141e-06,-2.70767e-08,7.68533e-06,20.4375,-131.18,-164.33,7.60394e+06,843750,-5.65185e-08,1.85321e-07,-5.50427e-08,0.00264972,0.0305008,0.00133626,0.0298968,2,2358
12,5.5442e-22,1,3844,71.87,-3.00565e-07,7.7013e-06,-2.98996e-08,7.70722e-06,25.6875,-131.18,-164.33,1.01872e+07,968750,-5.89402e-08,1.90827e-07,-5.88923e-08,0.00244705,0.0330776,0.000131923,0.0323039,2,2359
12,5.69008e-22,1,3845,71.87,-3.61918e-07,7.73216e-06,-3.13082e-08,7.74069e-06,27,-131.18,-164.33,1.0833e+07,1e+06,-6.30507e-08,1.97035e-07,-6.26036e-08,0.00204377,0.0336385,-0.000298956,0.0328343,2,2360
12,5.69008e-22,1,3846,71.87,-4.26666e-07,7.7704e-06,-3.13804e-08,7.78216e-06,27,-131.18,-164.33,1.0833e+07,1e+06,-6.59753e-08,2.00949e-07,-6.26902e-08,0.00178425,0.0340388,7.81686e-06,0.0331839,2,2361
12,5.69008e-22,1,3847,71.87,-4.93869e-07,7.81132e-06,-3.20532e-08,7.82698e-06,27,-131.18,-164.33,1.0833e+07,1e+06,-6.82782e-08,2.05525e-07,-6.41536e-08,0.0016237,0.0346035,4.8528e-06,0.0338387,2,2362
12,5.69008e-22,1,3848,71.87,-5.63223e-07,7.85563e-06,-3.27573e-08,7.87586e-06,27,-131.18,-164.33,1.0833e+07,1e+06,-7.00663e-08,2.09369e-07,-6.55324e-08,0.00151709,0.0350621,-1.14357e-05,0.0343855,2,2363
12,5.69008e-22,1,3849,71.87,-6.34001e-07,7.90382e-06,-3.32072e-08,7.92928e-06,27,-131.18,-164.33,1.0833e+07,1e+06,-7.11678e-08,2.11509e-07,-6.63801e-08,0.00143216,0.035256,-2.57516e-05,0.0346638,2,2364
12,5.69008e-22,1,3850,71.87,-7.05558e-07,7.95541e-06,-3.34016e-08,7.98671e-06,27,-131.18,-164.33,1.0833e+07,1e+06,-7.18571e-08,2.12649e-07,-6.68217e-08,0.00135981,0.0353369,-2.97272e-05,0.0348137,2,2365
12,5.69008e-22,1,3851,71.87,-7.77716e-07,8.01001e-06,-3.36216e-08,8.04775e-06,27,-131.18,-164.33,1.0833e+07,1e+06,-7.20089e-08,2.13414e-07,-6.70679e-08,0.00139567,0.0354486,4.20052e-06,0.0349082,2,2366
12,5.69008e-22,1,3852,71.87,-8.49576e-07,8.06577e-06,-3.2851e-08,8.11046e-06,27,-131.18,-164.33,1.0833e+07,1e+06,-7.21686e-08,2.1196e-07,-6.59659e-08,0.00127415,0.0351352,0.000185799,0.0345705,2,2367
12,5.20977e-22,1,3853,71.87,-9.22053e-07,8.11974e-06,-3.5406e-08,8.172e-06,26.0625,-131.18,-164.33,8.89556e+06,906250,-7.99503e-08,2.19763e-07,-7.13182e-08,0.00056147,0.032714,-8.12026e-05,0.0329309,2,2368
12,4.14291e-22,2,3854,84.09,-1.00948e-06,8.15816e-06,-4.36213e-08,8.22049e-06,26.25,154.9,-166.02,4.37488e+06,687500,-8.57868e-08,2.35001e-07,-8.68084e-08,-0.000611338,0.0288886,-0.000190311,0.0302075,3,1484
12,3.46805e-22,2,3855,103.3,-1.09363e-06,8.18074e-06,-4.95814e-08,8.25367e-06,30.0625,-73.15,30.56,1.14581e+06,531250,-7.03848e-08,2.27507e-07,-9.86209e-08,-0.00192725,0.0269013,-0.000246268,0.0290824,3,1485
12,3.3977e-22,2,3856,103.3,-1.15025e-06,8.21234e-06,-5.07887e-08,8.29266e-06,33.375,-73.15,30.56,500000,500000,-4.99662e-08,2.10456e-07,-1.01594e-07,-0.00219019,0.027188,-0.000379373,0.0295178,3,1486
12,3.41565e-22,2,3857,103.3,-1.19356e-06,8.24489e-06,-5.05506e-08,8.33098e-06,34,-73.15,30.56,500000,500000,-4.08893e-08,2.04613e-07,-1.01345e-07,-0.00161566,0.0277293,-3.95809e-05,0.0296733,3,1487
12,3.41565e-22,2,3858,103.3,-1.23202e-06,8.26065e-06,-4.9968e-08,8.35216e-06,34,-73.15,30.56,500000,500000,-3.61797e-08,1.98676e-07,-1.00086e-07,-0.00136674,0.0274311,2.31896e-05,0.0294335,3,1488
12,3.41565e-22,2,3859,103.3,-1.26592e-06,8.26222e-06,-4.86934e-08,8.35878e-06,34,-73.15,30.56,500000,500000,-3.19711e-08,1.89566e-07,-9.73334e-08,-0.00121458,0.0264427,-3.86509e-05,0.0285071,3,1489
12,3.41565e-22,2,3860,103.3,-1.29597e-06,8.25464e-06,-4.69598e-08,8.35589e-06,34,-73.15,30.56,500000,500000,-2.94227e-08,1.81096e-07,-9.38978e-08,-0.00108748,0.0253055,-6.76604e-05,0.0272851,3,1490
12,3.41565e-22,2,3861,103.3,-1.32476e-06,8.24828e-06,-4.5693e-08,8.35411e-06,34,-73.15,30.56,500000,500000,-2.95347e-08,1.76991e-07,-9.1391e-08,-0.00105782,0.0245531,-6.00496e-05,0.0263739,3,1491
12,3.41565e-22,2,3862,103.3,-1.35504e-06,8.25055e-06,-4.50316e-08,8.3612e-06,34,-73.15,30.56,500000,500000,-3.21423e-08,1.77407e-07,-9.01076e-08,-0.00118419,0.0243123,-7.25443e-05,0.0260367,3,1492
12,3.41565e-22,2,3863,103.3,-1.38905e-06,8.26514e-06,-4.3121e-08,8.38116e-06,34,-73.15,30.56,500000,500000,-3.62568e-08,1.8031e-07,-8.58423e-08,-0.00119071,0.0248346,0.000688402,0.0260945,3,1493
12,4.62967e-22,2,3864,103.3,-1.42755e-06,8.28576e-06,-3.81449e-08,8.40792e-06,39.25,-73.15,30.56,3.08325e+06,625000,-4.32082e-08,1.78535e-07,-7.61634e-08,-0.00131477,0.0276861,-0.000660652,0.0300739,3,1494
12,7.05772e-22,1,3865,130.6,-1.47546e-06,8.29717e-06,-2.77546e-08,8.42739e-06,49.75,117.2,-48.36,8.24975e+06,875000,-5.31557e-08,1.75817e-07,-5.64194e-08,-0.000880443,0.0326131,-0.000122927,0.034264,2,2369
12,8.27175e-22,1,3866,130.6,-1.53386e-06,8.30504e-06,-2.36862e-08,8.44553e-06,55,117.2,-48.36,1.0833e+07,1e+06,-6.09762e-08,1.81396e-07,-4.73768e-08,-0.000762879,0.0355159,0.00145438,0.0355934,2,2370
12,8.27175e-22,1,3867,130.6,-1.59742e-06,8.32417e-06,-2.71792e-08,8.4761e-06,55,117.2,-48.36,1.0833e+07,1e+06,-6.5203e-08,1.89268e-07,-5.38601e-08,-0.00147551,0.0360723,0.000203728,0.0369693,2,2371
12,8.27175e-22,1,3868,130.6,-1.66427e-06,8.35562e-06,-2.82097e-08,8.5198e-06,55,117.2,-48.36,1.0833e+07,1e+06,-6.79948e-08,1.95147e-07,-5.65126e-08,-0.00171109,0.0367068,2.02221e-05,0.037691,2,2372
12,8.27175e-22,1,3869,130.6,-1.73341e-06,8.39757e-06,-2.92348e-08,8.57465e-06,55,117.2,-48.36,1.0833e+07,1e+06,-7.009e-08,2.00645e-07,-5.84598e-08,-0.00178817,0.0375269,-1.18886e-06,0.0385059,2,2373
12,8.27175e-22,1,3870,130.6,-1.80445e-06,8.44788e-06,-3.0085e-08,8.63849e-06,55,117.2,-48.36,1.0833e+07,1e+06,-7.19272e-08,2.05836e-07,-6.01688e-08,-0.00182757,0.0383867,-6.57646e-06,0.0393651,2,2374
12,8.27175e-22,1,3871,130.6,-1.87726e-06,8.50511e-06,-3.08459e-08,8.70988e-06,55,117.2,-48.36,1.0833e+07,1e+06,-7.36792e-08,2.10722e-07,-6.16922e-08,-0.00187716,0.0392379,-9.80479e-06,0.0402338,2,2375
12,8.27175e-22,1,3872,130.6,-1.95181e-06,8.56833e-06,-3.15414e-08,8.78788e-06,55,117.2,-48.36,1.0833e+07,1e+06,-7.54431e-08,2.15386e-07,-6.3083e-08,-0.00195407,0.0400662,-1.30709e-05,0.0410998,2,2376
12,8.27175e-22,1,3873,130.6,-2.02815e-06,8.63724e-06,-3.21991e-08,8.87222e-06,55,117.2,-48.36,1.0833e+07,1e+06,-7.73036e-08,2.19917e-07,-6.43963e-08,-0.00207081,0.0408576,-1.4627e-05,0.0419508,2,2377
12,8.27175e-22,1,3874,130.6,-2.10641e-06,8.71245e-06,-3.28318e-08,8.96353e-06,55,117.2,-48.36,1.0833e+07,1e+06,-7.92226e-08,2.2424e-07,-6.56586e-08,-0.00221919,0.0415677,-1.05712e-05,0.0427344,2,2378
12,8.27175e-22,1,3875,130.6,-2.18659e-06,8.79529e-06,-3.34079e-08,9.06308e-06,55,117.2,-48.36,1.0833e+07,1e+06,-8.08414e-08,2.2782e-07,-6.68121e-08,-0.0023464,0.0420866,-1.80509e-06,0.0433167,2,2379
12,8.27175e-22,1,3876,130.6,-2.2681e-06,8.88741e-06,-3.42143e-08,9.17232e-06,55,117.2,-48.36,1.0833e+07,1e+06,-8.12221e-08,2.29755e-07,-6.84387e-08,-0.00234854,0.0422499,-0.000198902,0.0435879,2,2380
12,6.8732e-22,1,3877,130.6,-2.34904e-06,8.98905e-06,-3.60083e-08,9.29098e-06,58.25,117.2,-48.36,8.24975e+06,875000,-7.81949e-08,2.29655e-07,-7.20242e-08,-0.00220085,0.0388089,0.00114328,0.0398249,2,2381
12,4.07609e-22,2,3878,95.17,-2.42449e-06,8.96956e-06,-4.8055e-08,9.29158e-06,64.75,150.32,151.68,3.08325e+06,625000,-7.15409e-08,2.29278e-07,-9.61129e-08,-0.00275401,0.0297298,0.000233359,0.0315583,3,1495
12,2.67754e-22,2,3879,95.17,-2.49212e-06,8.82754e-06,-5.63253e-08,9.17275e-06,68,150.32,151.68,500000,500000,-6.65899e-08,2.293e-07,-1.1265e-07,-0.00272635,0.0247656,-0.00111413,0.0269883,3,1496
12,2.67754e-22,2,3880,95.17,-2.55767e-06,8.69347e-06,-5.33478e-08,9.06206e-06,68,150.32,151.68,500000,500000,-6.60995e-08,2.28863e-07,-1.06681e-07,-0.00209269,0.0255493,-1.37794e-05,0.0270141,3,1497
12,2.67754e-22,2,3881,95.17,-2.62432e-06,8.56847e-06,-5.28203e-08,8.9615e-06,68,150.32,151.68,500000,500000,-6.65701e-08,2.28496e-07,-1.05633e-07,-0.00213819,0.0256864,-1.75258e-05,0.0272342,3,1498
12,2.67754e-22,2,3882,95.17,-2.69081e-06,8.45044e-06,-5.28773e-08,8.86866e-06,68,150.32,151.68,500000,500000,-6.65587e-08,2.29012e-07,-1.05732e-07,-0.00212543,0.0258405,-5.57048e-06,0.0274057,3,1499
12,2.67754e-22,2,3883,95.17,-2.75743e-06,8.33667e-06,-5.33872e-08,8.78102e-06,68,150.32,151.68,500000,500000,-6.68374e-08,2.31252e-07,-1.06738e-07,-0.00209029,0.0261816,1.76253e-05,0.0277425,3,1500
12,2.67754e-22,2,3884,95.17,-2.82448e-06,8.22641e-06,-5.42451e-08,8.69796e-06,68,150.32,151.68,500000,500000,-6.69183e-08,2.34907e-07,-1.08595e-07,-0.00200177,0.0267995,2.88547e-05,0.0283783,3,1501
12,2.67754e-22,2,3885,95.17,-2.89127e-06,8.12404e-06,-5.49543e-08,8.62337e-06,68,150.32,151.68,500000,500000,-6.56977e-08,2.36777e-07,-1.09938e-07,-0.00182556,0.0273677,1.49899e-05,0.0289894,3,1502
12,2.67754e-22,2,3886,95.17,-2.95588e-06,8.03635e-06,-5.51839e-08,8.56289e-06,68,150.32,151.68,500000,500000,-6.24526e-08,2.35385e-07,-1.10322e-07,-0.00149314,0.027685,-2.06008e-05,0.0293292,3,1503
12,2.67754e-22,2,3887,95.17,-3.01618e-06,7.96709e-06,-5.46653e-08,8.51908e-06,68,150.32,151.68,500000,500000,-5.87764e-08,2.30695e-07,-1.10027e-07,-0.00129903,0.0274254,-0.00025577,0.0292397,3,1504
12,2.67754e-22,2,3888,95.17,-3.07343e-06,7.91321e-06,-5.48717e-08,8.48928e-06,68,150.32,151.68,500000,500000,-5.63397e-08,2.2842e-07,-1.1023e-07,-0.0011168,0.0274254,-0.000455153,0.0294002,3,1505
12,2.67754e-22,2,3889,95.17,-3.12886e-06,7.8743e-06,-5.5127e-08,8.47333e-06,68,150.32,151.68,500000,500000,-5.4398e-08,2.25393e-07,-1.09537e-07,-0.000931662,0.0272004,-0.000579213,0.029195,3,1506
12,2.85968e-22,2,3890,95.17,-3.18222e-06,7.83944e-06,-5.10719e-08,8.46085e-06,68.0625,150.32,151.68,1.14581e+06,531250,-5.539e-08,2.18621e-07,-1.0104e-07,-0.00111674,0.027904,-0.00065331,0.0299636,3,1507
12,3.22395e-22,2,3891,95.17,-3.23964e-06,7.81428e-06,-4.18706e-08,8.45931e-06,68.1875,150.32,151.68,2.43744e+06,593750,-6.35584e-08,2.09103e-07,-8.36706e-08,-0.00244858,0.0289604,-0.000475235,0.0316831,3,1508
12,4.49121e-22,2,3892,95.17,-3.30934e-06,7.81365e-06,-3.49132e-08,8.48564e-06,71.4375,150.32,151.68,5.02069e+06,718750,-7.85091e-08,1.95384e-07,-7.02259e-08,-0.00545669,0.0264503,-0.00093692,0.0312485,3,1509
12,6.66145e-22,1,3893,91.26,-3.39665e-06,7.85576e-06,-3.44855e-08,8.5587e-06,77.8125,-49.63,-179.82,8.89556e+06,906250,-9.26608e-08,1.96581e-07,-6.87387e-08,-0.00677326,0.0242134,-0.000811429,0.0293552,2,2382
12,7.74657e-22,1,3894,91.26,-3.49466e-06,7.91768e-06,-3.59919e-08,8.65468e-06,81,-49.63,-179.82,1.0833e+07,1e+06,-9.88146e-08,2.08079e-07,-7.21486e-08,-0.00612049,0.0247091,-0.000190299,0.0285411,2,2383
12,7.74657e-22,1,3895,91.26,-3.59428e-06,7.95758e-06,-3.77136e-08,8.73175e-06,81,-49.63,-179.82,1.0833e+07,1e+06,-1.01343e-07,2.17862e-07,-7.57603e-08,-0.00579597,0.0261306,-0.000130639,0.0296224,2,2384
12,7.74657e-22,1,3896,91.26,-3.69735e-06,7.98232e-06,-3.99167e-08,8.79713e-06,81,-49.63,-179.82,1.0833e+07,1e+06,-1.05148e-07,2.29994e-07,-7.98667e-08,-0.00557628,0.027851,2.17962e-05,0.0312605,2,2385
12,7.74657e-22,1,3897,91.26,-3.80458e-06,7.99584e-06,-4.18442e-08,8.85494e-06,81,-49.63,-179.82,1.0833e+07,1e+06,-1.08367e-07,2.401e-07,-8.36879e-08,-0.0054326,0.0292224,2.57178e-05,0.0326506,2,2386
12,7.74657e-22,1,3898,91.26,-3.91408e-06,8.00123e-06,-4.33208e-08,8.90739e-06,81,-49.63,-179.82,1.0833e+07,1e+06,-1.09777e-07,2.47182e-07,-8.66424e-08,-0.00510326,0.0302585,7.42569e-06,0.0335128,2,2387
12,7.74657e-22,1,3899,91.26,-4.02413e-06,8.00145e-06,-4.44331e-08,8.9565e-06,81,-49.63,-179.82,1.0833e+07,1e+06,-1.09737e-07,2.51971e-07,-8.87946e-08,-0.00460092,0.0310699,2.06054e-05,0.0339487,2,2388
12,7.74657e-22,1,3900,91.26,-4.13356e-06,7.99909e-06,-4.52457e-08,9.0041e-06,81,-49.63,-179.82,1.0833e+07,1e+06,-1.08808e-07,2.55246e-07,-9.07836e-08,-0.00404067,0.0316761,-4.74574e-05,0.034131,2,2389
12,7.74657e-22,1,3901,91.26,-4.24175e-06,7.99674e-06,-4.63629e-08,9.05221e-06,81,-49.63,-179.82,1.0833e+07,1e+06,-1.0677e-07,2.5781e-07,-9.31954e-08,-0.00328426,0.0322128,-0.000255003,0.0341572,2,2390
12,7.79395e-22,1,3902,91.26,-4.3471e-06,7.9965e-06,-4.64878e-08,9.10183e-06,81.0625,-49.63,-179.82,1.0833e+07,1e+06,-1.01604e-07,2.54832e-07,-9.22672e-08,-0.00236046,0.033114,-0.000535416,0.0347818,2,2391
12,7.88872e-22,1,3903,91.26,-4.44496e-06,8.01424e-06,-4.17603e-08,9.16447e-06,81.1875,-49.63,-179.82,1.0833e+07,1e+06,-9.45667e-08,2.39547e-07,-8.3113e-08,-0.00205061,0.0328857,-0.000167421,0.0344861,2,2392
12,7.9361e-22,1,3904,91.26,-4.53623e-06,8.05783e-06,-3.66707e-08,9.24702e-06,81.25,-49.63,-179.82,1.0833e+07,1e+06,-9.0431e-08,2.2124e-07,-7.35965e-08,-0.00268159,0.0307937,0.000247899,0.0327408,2,2393
12,7.9361e-22,1,3905,91.26,-4.62582e-06,8.11428e-06,-3.30907e-08,9.34028e-06,81.25,-49.63,-179.82,1.0833e+07,1e+06,-8.78364e-08,2.05745e-07,-6.62684e-08,-0.00338736,0.0284046,0.000580475,0.0309208,2,2394
12,7.80363e-22,1,3906,91.26,-4.7119e-06,8.17526e-06,-3.04815e-08,9.43599e-06,89.1875,-49.63,-179.82,1.0833e+07,1e+06,-7.56009e-08,1.83869e-07,-6.1155e-08,-0.00408747,0.0277029,-0.000261426,0.031223,2,2395
12,7.53869e-22,1,3907,137.15,-4.77702e-06,8.27256e-06,-2.90829e-08,9.5528e-06,105.062,109.19,-42.07,1.0833e+07,1e+06,-5.52802e-08,1.66741e-07,-5.79873e-08,-0.0035904,0.0308595,-0.000762613,0.033901,2,2396
12,7.40621e-22,1,3908,137.15,-4.82246e-06,8.38063e-06,-2.72285e-08,9.66912e-06,113,109.19,-42.07,1.0833e+07,1e+06,-4.37857e-08,1.62002e-07,-5.43677e-08,-0.00212777,0.0338699,-9.2805e-05,0.0352393,2,2397
12,7.40621e-22,1,3909,137.15,-4.86459e-06,8.44838e-06,-2.62518e-08,9.74885e-06,113,109.19,-42.07,1.0833e+07,1e+06,-4.00926e-08,1.599e-07,-5.26709e-08,-0.00105688,0.0344722,-0.000136084,0.0351974,2,2398
12,7.40621e-22,1,3910,137.15,-4.90265e-06,8.48899e-06,-2.59088e-08,9.80304e-06,113,109.19,-42.07,1.0833e+07,1e+06,-3.56894e-08,1.59403e-07,-5.18626e-08,0.000280046,0.0353199,1.61787e-05,0.0353457,2,2399
12,7.40621e-22,1,3911,137.15,-4.93597e-06,8.50951e-06,-2.62194e-08,9.8375e-06,113,109.19,-42.07,1.0833e+07,1e+06,-3.10912e-08,1.60185e-07,-5.23747e-08,0.00168293,0.0362658,8.08519e-05,0.0356889,2,2400
12,7.40621e-22,1,3912,137.15,-4.96483e-06,8.51465e-06,-2.663e-08,9.85645e-06,113,109.19,-42.07,1.0833e+07,1e+06,-2.65321e-08,1.60852e-07,-5.32757e-08,0.00303996,0.0370728,6.06577e-05,0.036029,2,2401
12,7.40621e-22,1,3913,137.15,-4.98904e-06,8.50657e-06,-2.71245e-08,9.86169e-06,113,109.19,-42.07,1.0833e+07,1e+06,-2.22482e-08,1.61943e-07,-5.43231e-08,0.00434142,0.037981,-4.04277e-06,0.036601,2,2402
12,7.40621e-22,1,3914,137.15,-5.00933e-06,8.4868e-06,-2.81697e-08,9.85494e-06,113,109.19,-42.07,1.0833e+07,1e+06,-1.92524e-08,1.66481e-07,-5.61953e-08,0.00551255,0.0396534,-4.10706e-05,0.0380177,2,2403
12,7.40621e-22,1,3915,137.15,-5.02754e-06,8.46184e-06,-3.00023e-08,9.84275e-06,113,109.19,-42.07,1.0833e+07,1e+06,-1.78696e-08,1.76109e-07,-5.98478e-08,0.00652909,0.0422534,-1.00554e-05,0.0402926,2,2404
12,7.40621e-22,1,3916,137.15,-5.04507e-06,8.44202e-06,-3.18776e-08,9.83471e-06,113,109.19,-42.07,1.0833e+07,1e+06,-1.69391e-08,1.84727e-07,-6.41236e-08,0.00727001,0.0442131,-9.71002e-05,0.0419637,2,2405
12,7.40621e-22,1,3917,137.15,-5.06142e-06,8.43e-06,-3.32258e-08,9.8328e-06,113,109.19,-42.07,1.0833e+07,1e+06,-1.51024e-08,1.88274e-07,-6.5986e-08,0.00805196,0.0450244,5.5054e-05,0.0422811,2,2406
12,7.40621e-22,1,3918,137.15,-5.07527e-06,8.42089e-06,-3.40902e-08,9.83214e-06,113,109.19,-42.07,1.0833e+07,1e+06,-1.27702e-08,1.92457e-07,-6.82434e-08,0.00897669,0.0461656,9.98006e-05,0.0430388,2,2407
12,7.38083e-22,1,3919,137.15,-5.08696e-06,8.41104e-06,-3.48608e-08,9.82975e-06,112.75,109.19,-42.07,1.0833e+07,1e+06,-1.13426e-08,1.99485e-07,-7.04879e-08,0.00980227,0.0484977,2.07141e-05,0.045466,2,2408
12,7.4321e-22,1,3920,137.15,-5.09796e-06,8.38729e-06,-3.80166e-08,9.81515e-06,111.312,109.19,-42.07,1.0833e+07,1e+06,-1.92257e-08,2.21179e-07,-7.59683e-08,0.0111788,0.0506006,0.00067111,0.0471942,2,2409
12,7.67019e-22,1,3921,97.4,-5.12541e-06,8.33294e-06,-4.73518e-08,9.78315e-06,109.125,-41.8,1.73,1.0833e+07,1e+06,-3.92778e-08,2.48538e-07,-9.45462e-08,0.0115512,0.0458136,-0.000501477,0.0430513,2,2410
12,7.89103e-22,1,3922,97.4,-5.17651e-06,8.28205e-06,-5.44101e-08,9.76686e-06,108.062,-41.8,1.73,1.0833e+07,1e+06,-5.64606e-08,2.67436e-07,-1.08217e-07,0.0111708,0.0408473,-0.00108073,0.0379389,2,2411
12,7.95043e-22,1,3923,97.4,-5.23833e-06,8.26353e-06,-5.52836e-08,9.78412e-06,108,-41.8,1.73,1.0833e+07,1e+06,-6.40086e-08,2.80398e-07,-1.10372e-07,0.01113,0.0415563,-0.000133755,0.037498,2,2412
12,7.95043e-22,1,3924,97.4,-5.30453e-06,8.26689e-06,-5.59192e-08,9.82256e-06,108,-41.8,1.73,1.0833e+07,1e+06,-6.69972e-08,2.85934e-07,-1.1212e-07,0.0109326,0.0421595,-0.000142979,0.0380841,2,2413
12,7.95043e-22,1,3925,97.4,-5.37233e-06,8.28724e-06,-5.65255e-08,9.87641e-06,108,-41.8,1.73,1.0833e+07,1e+06,-6.83449e-08,2.90128e-07,-1.13428e-07,0.0110699,0.0427092,-6.80429e-05,0.0387078,2,2414
12,7.95043e-22,1,3926,97.4,-5.44122e-06,8.3189e-06,-5.73532e-08,9.94053e-06,108,-41.8,1.73,1.0833e+07,1e+06,-7.03637e-08,2.9615e-07,-1.1597e-07,0.0111549,0.0434212,-0.000140917,0.0398122,2,2415
12,7.12095e-22,1,3927,97.4,-5.51305e-06,8.35401e-06,-6.66854e-08,1.00094e-05,110.812,-41.8,1.73,8.89556e+06,906250,-7.00293e-08,3.17433e-07,-1.32236e-07,0.011367,0.043909,-6.63825e-05,0.0408358,2,2416
12,5.1855e-22,2,3928,155.53,-5.58128e-06,8.45178e-06,-8.25068e-08,1.01287e-05,117.375,-173.56,119.95,4.37488e+06,687500,-6.87111e-08,3.32706e-07,-1.6455e-07,0.00757821,0.0381841,-0.00104588,0.0370356,3,1510
12,3.80304e-22,2,3929,155.53,-5.65048e-06,8.63193e-06,-9.73357e-08,1.03173e-05,122.062,-173.56,119.95,1.14581e+06,531250,-7.53282e-08,3.57825e-07,-1.95806e-07,0.00306897,0.0348043,-0.00125162,0.0346283,3,1511
12,3.52654e-22,2,3930,155.53,-5.73194e-06,8.82366e-06,-1.06722e-07,1.05225e-05,123,-173.56,119.95,500000,500000,-8.47141e-08,3.91881e-07,-2.12681e-07,0.00203399,0.0379853,-0.000524124,0.037586,3,1512
12,3.52654e-22,2,3931,155.53,-5.8199e-06,8.98872e-06,-1.07424e-07,1.07089e-05,123,-173.56,119.95,500000,500000,-8.76095e-08,3.97767e-07,-2.14205e-07,0.00137517,0.039249,-0.000515751,0.039437,3,1513
12,3.52654e-22,2,3932,155.53,-5.90715e-06,9.11202e-06,-1.0399e-07,1.08598e-05,123,-173.56,119.95,500000,500000,-8.34637e-08,3.86289e-07,-2.0724e-07,0.00126537,0.0389923,-0.000302549,0.0393977,3,1514
12,3.52654e-22,2,3933,155.53,-5.98683e-06,9.19783e-06,-9.7411e-08,1.09751e-05,123,-173.56,119.95,500000,500000,-7.59883e-08,3.6127e-07,-1.9518e-07,0.00122802,0.0367369,-0.000302305,0.0371868,3,1515
12,3.52654e-22,2,3934,155.53,-6.05913e-06,9.26573e-06,-9.09243e-08,1.10714e-05,123,-173.56,119.95,500000,500000,-7.17957e-08,3.37864e-07,-1.8252e-07,0.00112552,0.0340537,-0.00025589,0.0343238,3,1516
12,3.52654e-22,2,3935,155.53,-6.13042e-06,9.33234e-06,-8.62034e-08,1.11661e-05,123,-173.56,119.95,500000,500000,-7.23795e-08,3.23029e-07,-1.72322e-07,0.000868951,0.0320015,-0.000129619,0.0320781,3,1517
12,3.52654e-22,2,3936,155.53,-6.20389e-06,9.3999e-06,-8.21617e-08,1.12629e-05,123,-173.56,119.95,500000,500000,-7.36699e-08,3.12305e-07,-1.64562e-07,0.000535674,0.0305141,-8.69794e-05,0.0305963,3,1518
12,3.52654e-22,2,3937,155.53,-6.27776e-06,9.46019e-06,-7.6905e-08,1.13539e-05,123,-173.56,119.95,500000,500000,-7.19244e-08,2.95151e-07,-1.53881e-07,0.000299061,0.0286905,-2.7677e-06,0.0287968,3,1519
12,3.52654e-22,2,3938,155.53,-6.34774e-06,9.5028e-06,-6.88606e-08,1.14281e-05,123,-173.56,119.95,500000,500000,-6.63036e-08,2.6602e-07,-1.37614e-07,0.000205132,0.02566,9.36142e-05,0.0256829,3,1520
12,3.52654e-22,2,3939,155.53,-6.41037e-06,9.52949e-06,-5.95926e-08,1.14851e-05,123,-173.56,119.95,500000,500000,-6.04638e-08,2.29637e-07,-1.19228e-07,-0.000257518,0.0213201,-0.000185091,0.0216038,3,1521
12,5.69008e-22,1,3940,71.87,-2.62062e-08,7.60196e-06,-3.02327e-08,7.60206e-06,27,-131.18,-164.33,1.0833e+07,1e+06,-5.21696e-08,1.89695e-07,-6.01516e-08,0.00418378,0.0334105,0.000759462,0.0312409,2,2417
12,5.5442e-22,1,3941,71.87,-7.81331e-08,7.67631e-06,-3.16469e-08,7.67677e-06,25.6875,-131.18,-164.33,1.01872e+07,968750,-5.12072e-08,1.87016e-07,-6.25301e-08,0.00429706,0.0319541,-0.000419387,0.0307905,2,2418
12,5.25244e-22,1,3942,71.87,-1.28621e-07,7.75721e-06,-2.70416e-08,7.75832e-06,23.0625,-131.18,-164.33,8.89556e+06,906250,-4.95129e-08,1.7774e-07,-5.52982e-08,0.00418227,0.0296895,0.000733833,0.0284809,2,2419
12,5.25244e-22,1,3943,71.87,-1.77159e-07,7.81972e-06,-2.46913e-08,7.82177e-06,23.0625,-131.18,-164.33,8.89556e+06,906250,-4.84848e-08,1.68511e-07,-5.0466e-08,0.00357999,0.0284551,0.00098079,0.0272357,2,2420
12,5.5442e-22,1,3944,71.87,-2.2559e-07,7.85546e-06,-2.78166e-08,7.85875e-06,25.6875,-131.18,-164.33,1.01872e+07,968750,-5.06717e-08,1.73632e-07,-5.45338e-08,0.00317028,0.0302973,3.90161e-05,0.0291554,2,2421
12,5.69008e-22,1,3945,71.87,-2.78502e-07,7.88831e-06,-3.01933e-08,7.89328e-06,27,-131.18,-164.33,1.0833e+07,1e+06,-5.58442e-08,1.85699e-07,-6.0041e-08,0.00285506,0.0321208,-0.000369439,0.0309593,2,2422
12,5.69008e-22,1,3946,71.87,-3.37279e-07,7.9273e-06,-3.04558e-08,7.93453e-06,27,-131.18,-164.33,1.0833e+07,1e+06,-6.05144e-08,1.93101e-07,-6.12209e-08,0.00243685,0.0330528,-0.000113896,0.0319719,2,2423
12,5.69008e-22,1,3947,71.87,-3.99531e-07,7.9698e-06,-3.11888e-08,7.97987e-06,27,-131.18,-164.33,1.0833e+07,1e+06,-6.34569e-08,1.97883e-07,-6.22783e-08,0.00216842,0.0336053,-1.0387e-05,0.0325913,2,2424
12,5.69008e-22,1,3948,71.87,-4.64192e-07,8.01524e-06,-3.18173e-08,8.02874e-06,27,-131.18,-164.33,1.0833e+07,1e+06,-6.58343e-08,2.02434e-07,-6.36413e-08,0.00198448,0.0341681,1.25188e-05,0.0332441,2,2425
12,5.69008e-22,1,3949,71.87,-5.312e-07,8.06348e-06,-3.24466e-08,8.08102e-06,27,-131.18,-164.33,1.0833e+07,1e+06,-6.80297e-08,2.06434e-07,-6.49041e-08,0.00178856,0.0346353,1.01827e-05,0.0338335,2,2426
12,5.69008e-22,1,3950,71.87,-6.00252e-07,8.11444e-06,-3.29491e-08,8.13668e-06,27,-131.18,-164.33,1.0833e+07,1e+06,-6.98635e-08,2.0952e-07,-6.59116e-08,0.0015973,0.0349611,-3.31507e-06,0.0342935,2,2427
12,5.69008e-22,1,3951,71.87,-6.70927e-07,8.16785e-06,-3.33145e-08,8.19543e-06,27,-131.18,-164.33,1.0833e+07,1e+06,-7.11891e-08,2.11708e-07,-6.65814e-08,0.00145725,0.0351908,2.54252e-06,0.0346204,2,2428
12,5.69008e-22,1,3952,71.87,-7.4263e-07,8.22298e-06,-3.34273e-08,8.25651e-06,27,-131.18,-164.33,1.0833e+07,1e+06,-7.20351e-08,2.12847e-07,-6.70122e-08,0.00133364,0.0352792,-3.06536e-05,0.0348046,2,2429
12,5.69008e-22,1,3953,71.87,-8.14997e-07,8.27866e-06,-3.36218e-08,8.31875e-06,27,-131.18,-164.33,1.0833e+07,1e+06,-7.27005e-08,2.13749e-07,-6.68348e-08,0.00128767,0.0353775,0.000122089,0.034864,2,2430
12,5.52998e-22,1,3954,71.87,-8.88031e-07,8.3384e-06,-3.35431e-08,8.38562e-06,26.6875,-131.18,-164.33,1.01872e+07,968750,-7.51668e-08,2.1532e-07,-6.72739e-08,0.000984899,0.034437,0.000296608,0.0340994,2,2431
12,4.90752e-22,1,3955,71.87,-9.6533e-07,8.39029e-06,-3.66517e-08,8.44571e-06,26.4375,-131.18,-164.33,7.60394e+06,843750,-8.1462e-08,2.23121e-07,-7.37016e-08,-3.23486e-05,0.0318101,0.00024961,0.0323568,2,2432
12,4.03666e-22,2,3956,84.09,-1.05095e-06,8.41281e-06,-4.31831e-08,8.47831e-06,28.5625,154.9,-166.02,3.72906e+06,656250,-7.84794e-08,2.26916e-07,-8.58523e-08,-0.00156255,0.0290691,4.86759e-05,0.0309277,3,1522
12,3.5219e-22,2,3957,103.3,-1.12229e-06,8.42755e-06,-4.77687e-08,8.50208e-06,32.3125,-73.15,30.56,1.14581e+06,531250,-5.99228e-08,2.15818e-07,-9.57442e-08,-0.00246165,0.0278921,-0.000167438,0.030439,3,1523
12,3.41565e-22,2,3958,103.3,-1.1708e-06,8.45031e-06,-5.01065e-08,8.53117e-06,34,-73.15,30.56,500000,500000,-4.47438e-08,2.07661e-07,-1.0043e-07,-0.00210173,0.0282488,-2.73851e-05,0.0305934,3,1524
12,3.41565e-22,2,3959,103.3,-1.21178e-06,8.46033e-06,-5.02012e-08,8.54682e-06,34,-73.15,30.56,500000,500000,-3.74831e-08,2.00555e-07,-1.00264e-07,-0.00161154,0.0278473,1.80014e-05,0.0301321,3,1525
12,3.41565e-22,2,3960,103.3,-1.24577e-06,8.45101e-06,-4.81406e-08,8.54247e-06,34,-73.15,30.56,500000,500000,-3.15535e-08,1.87021e-07,-9.62207e-08,-0.00138021,0.0262549,-0.000109356,0.0285771,3,1526
12,3.41565e-22,2,3961,103.3,-1.27488e-06,8.434e-06,-4.58828e-08,8.52994e-06,34,-73.15,30.56,500000,500000,-2.87954e-08,1.7702e-07,-9.17338e-08,-0.00116109,0.0248581,-8.38743e-05,0.0269542,3,1527
12,3.41565e-22,2,3962,103.3,-1.30336e-06,8.42366e-06,-4.44801e-08,8.52401e-06,34,-73.15,30.56,500000,500000,-2.96651e-08,1.73527e-07,-8.90295e-08,-0.00112271,0.0240978,-5.52215e-05,0.0259511,3,1528
12,3.41565e-22,2,3963,103.3,-1.33421e-06,8.42694e-06,-4.37239e-08,8.53202e-06,34,-73.15,30.56,500000,500000,-3.3214e-08,1.74696e-07,-8.72866e-08,-0.00127909,0.02393,3.03264e-06,0.0256352,3,1529
12,3.41565e-22,2,3964,103.3,-1.36979e-06,8.44384e-06,-4.10784e-08,8.55432e-06,34,-73.15,30.56,500000,500000,-3.79872e-08,1.77201e-07,-8.24041e-08,-0.00137156,0.0244114,0.000706635,0.0257175,3,1530
12,4.62967e-22,2,3965,103.3,-1.41019e-06,8.4625e-06,-3.68855e-08,8.57928e-06,39.25,-73.15,30.56,3.08325e+06,625000,-4.46969e-08,1.75814e-07,-7.37922e-08,-0.00159158,0.027282,-0.000795355,0.0298415,3,1531
12,7.05772e-22,1,3966,130.6,-1.45918e-06,8.47217e-06,-2.84272e-08,8.59696e-06,49.75,117.2,-48.36,8.24975e+06,875000,-5.38022e-08,1.73976e-07,-5.644e-08,-0.00122553,0.0321175,-0.000505176,0.0341385,2,2433
12,8.27175e-22,1,3967,130.6,-1.51779e-06,8.48487e-06,-2.4004e-08,8.61958e-06,55,117.2,-48.36,1.0833e+07,1e+06,-6.09958e-08,1.78538e-07,-4.81752e-08,-0.00113669,0.0345972,0.000924513,0.035111,2,2434
12,8.27175e-22,1,3968,130.6,-1.58117e-06,8.51147e-06,-2.67519e-08,8.65713e-06,55,117.2,-48.36,1.0833e+07,1e+06,-6.522e-08,1.86096e-07,-5.35942e-08,-0.00179753,0.0351764,-2.73508e-05,0.0363045,2,2435
12,8.27175e-22,1,3969,130.6,-1.64823e-06,8.54976e-06,-2.78866e-08,8.70723e-06,55,117.2,-48.36,1.0833e+07,1e+06,-6.87e-08,1.93374e-07,-5.57625e-08,-0.00206444,0.0362049,1.8844e-05,0.0373617,2,2436
12,8.27175e-22,1,3970,130.6,-1.71857e-06,8.59788e-06,-2.89408e-08,8.768e-06,55,117.2,-48.36,1.0833e+07,1e+06,-7.16736e-08,2.00016e-07,-5.78925e-08,-0.00229104,0.0372157,-3.02917e-06,0.0384587,2,2437
12,8.27175e-22,1,3971,130.6,-1.79158e-06,8.65388e-06,-2.98804e-08,8.83744e-06,55,117.2,-48.36,1.0833e+07,1e+06,-7.41588e-08,2.06092e-07,-5.97602e-08,-0.00243476,0.0382166,-5.73177e-06,0.0395174,2,2438
12,8.27175e-22,1,3972,130.6,-1.86689e-06,8.71635e-06,-3.07063e-08,8.91409e-06,55,117.2,-48.36,1.0833e+07,1e+06,-7.63384e-08,2.11585e-07,-6.14125e-08,-0.00255035,0.0391585,-8.69822e-06,0.0405134,2,2439
12,8.27175e-22,1,3973,130.6,-1.94426e-06,8.7844e-06,-3.14319e-08,8.99704e-06,55,117.2,-48.36,1.0833e+07,1e+06,-7.83215e-08,2.16523e-07,-6.28625e-08,-0.00266296,0.0400179,-9.59305e-06,0.041429,2,2440
12,8.27175e-22,1,3974,130.6,-2.02353e-06,8.85778e-06,-3.20653e-08,9.08603e-06,55,117.2,-48.36,1.0833e+07,1e+06,-8.01425e-08,2.20891e-07,-6.41284e-08,-0.00278013,0.040766,-5.45577e-06,0.042235,2,2441
12,8.27175e-22,1,3975,130.6,-2.10454e-06,8.93691e-06,-3.26035e-08,9.18142e-06,55,117.2,-48.36,1.0833e+07,1e+06,-8.16994e-08,2.24488e-07,-6.52064e-08,-0.00288871,0.0413435,2.39931e-06,0.0428648,2,2442
12,8.27175e-22,1,3976,130.6,-2.18693e-06,9.02263e-06,-3.30317e-08,9.28395e-06,55,117.2,-48.36,1.0833e+07,1e+06,-8.26763e-08,2.26873e-07,-6.60662e-08,-0.00294364,0.0416676,5.18975e-06,0.0432189,2,2443
12,8.27175e-22,1,3977,130.6,-2.26989e-06,9.11601e-06,-3.37327e-08,9.39442e-06,55,117.2,-48.36,1.0833e+07,1e+06,-8.23941e-08,2.27654e-07,-6.74721e-08,-0.00287499,0.0416606,-0.000226517,0.0432958,2,2444
12,6.8732e-22,1,3978,130.6,-2.35172e-06,9.21728e-06,-3.52775e-08,9.51263e-06,58.25,117.2,-48.36,8.24975e+06,875000,-7.93084e-08,2.26978e-07,-7.05598e-08,-0.00267659,0.0382037,0.00112662,0.0395025,2,2445
12,4.07609e-22,2,3979,95.17,-2.42851e-06,9.19752e-06,-4.69252e-08,9.51285e-06,64.75,150.32,151.68,3.08325e+06,625000,-7.33619e-08,2.26662e-07,-9.38498e-08,-0.00319671,0.0292225,0.000243947,0.0312928,3,1532
12,2.67754e-22,2,3980,95.17,-2.49844e-06,9.05591e-06,-5.50803e-08,9.3944e-06,68,150.32,151.68,500000,500000,-6.91772e-08,2.2731e-07,-1.10156e-07,-0.00318294,0.0243539,-0.00111643,0.0268057,3,1533
12,2.67754e-22,2,3981,95.17,-2.56687e-06,8.92198e-06,-5.22516e-08,9.28404e-06,68,150.32,151.68,500000,500000,-6.92181e-08,2.27908e-07,-1.04496e-07,-0.00258981,0.0252556,-1.25517e-05,0.0269783,3,1534
12,2.67754e-22,2,3982,95.17,-2.63688e-06,8.79712e-06,-5.18899e-08,9.18396e-06,68,150.32,151.68,500000,500000,-7.00791e-08,2.28541e-07,-1.03772e-07,-0.00265868,0.0255272,-8.11525e-06,0.0273499,3,1535
12,2.67754e-22,2,3983,95.17,-2.70702e-06,8.67981e-06,-5.20354e-08,9.09229e-06,68,150.32,151.68,500000,500000,-7.02478e-08,2.29612e-07,-1.04059e-07,-0.00265864,0.025772,4.01908e-06,0.0276293,3,1536
12,2.67754e-22,2,3984,95.17,-2.77737e-06,8.56792e-06,-5.24594e-08,9.00699e-06,68,150.32,151.68,500000,500000,-7.05424e-08,2.31557e-07,-1.04918e-07,-0.00264424,0.0260769,1.60634e-05,0.0279482,3,1537
12,2.67754e-22,2,3985,95.17,-2.84811e-06,8.46058e-06,-5.31054e-08,8.92726e-06,68,150.32,151.68,500000,500000,-7.06421e-08,2.34214e-07,-1.06221e-07,-0.00257827,0.0265163,3.47197e-05,0.0283861,3,1538
12,2.67754e-22,2,3986,95.17,-2.91866e-06,8.36003e-06,-5.36672e-08,8.85503e-06,68,150.32,151.68,500000,500000,-6.9752e-08,2.35883e-07,-1.07325e-07,-0.00242422,0.0269604,4.51075e-05,0.0288245,3,1539
12,2.67754e-22,2,3987,95.17,-2.98761e-06,8.27117e-06,-5.37699e-08,8.79437e-06,68,150.32,151.68,500000,500000,-6.75428e-08,2.34943e-07,-1.07606e-07,-0.00221185,0.0271945,1.14766e-05,0.029085,3,1540
12,2.67754e-22,2,3988,95.17,-3.05374e-06,8.19873e-06,-5.35663e-08,8.74914e-06,68,150.32,151.68,500000,500000,-6.45552e-08,2.32001e-07,-1.07124e-07,-0.0019697,0.0272268,-4.24544e-05,0.0291566,3,1541
12,2.67754e-22,2,3989,95.17,-3.11672e-06,8.14378e-06,-5.36777e-08,8.71997e-06,68,150.32,151.68,500000,500000,-6.16338e-08,2.30339e-07,-1.07309e-07,-0.00168372,0.0274303,-8.28194e-05,0.0293906,3,1542
12,2.67754e-22,2,3990,95.17,-3.17701e-06,8.104e-06,-5.38856e-08,8.70466e-06,68,150.32,151.68,500000,500000,-6.07246e-08,2.30058e-07,-1.08425e-07,-0.00174423,0.0275232,-0.000319322,0.0297596,3,1543
12,2.67754e-22,2,3991,95.17,-3.23817e-06,8.07353e-06,-5.50118e-08,8.69889e-06,68,150.32,151.68,500000,500000,-6.34395e-08,2.34556e-07,-1.10485e-07,-0.00215797,0.0280809,-0.000579024,0.0308011,3,1544
12,2.67754e-22,2,3992,95.17,-3.30389e-06,8.05203e-06,-5.55352e-08,8.70367e-06,68,150.32,151.68,500000,500000,-6.74986e-08,2.3888e-07,-1.09527e-07,-0.00259141,0.0288448,-0.000398174,0.0318993,3,1545
12,3.9448e-22,2,3993,95.17,-3.37317e-06,8.03555e-06,-4.94511e-08,8.71497e-06,71.25,150.32,151.68,3.08325e+06,625000,-7.46334e-08,2.30341e-07,-9.80864e-08,-0.00277607,0.0281441,-0.000387854,0.0310719,3,1546
12,6.47931e-22,1,3994,91.26,-3.45316e-06,8.06463e-06,-4.04241e-08,8.77292e-06,77.75,-49.63,-179.82,8.24975e+06,875000,-8.53328e-08,2.17245e-07,-8.18805e-08,-0.0030517,0.0268775,-0.000198629,0.0291995,2,2446
12,7.74657e-22,1,3995,91.26,-3.54383e-06,8.13024e-06,-3.79572e-08,8.8691e-06,81,-49.63,-179.82,1.0833e+07,1e+06,-9.2934e-08,2.16652e-07,-7.62394e-08,-0.00355107,0.0269084,0.0001776,0.0288824,2,2447
12,7.74657e-22,1,3996,91.26,-3.63903e-06,8.17887e-06,-3.9821e-08,8.95198e-06,81,-49.63,-179.82,1.0833e+07,1e+06,-9.78729e-08,2.25993e-07,-7.95428e-08,-0.00397157,0.0279477,0.000103564,0.0301849,2,2448
12,7.74657e-22,1,3997,91.26,-3.73958e-06,8.21399e-06,-4.12477e-08,9.02529e-06,81,-49.63,-179.82,1.0833e+07,1e+06,-1.01759e-07,2.34085e-07,-8.25098e-08,-0.00422415,0.0288863,3.17619e-05,0.0314825,2,2449
12,7.74657e-22,1,3998,91.26,-3.84254e-06,8.2357e-06,-4.2361e-08,9.0881e-06,81,-49.63,-179.82,1.0833e+07,1e+06,-1.03295e-07,2.39512e-07,-8.47026e-08,-0.0040971,0.0296313,1.33846e-06,0.0323336,2,2450
12,7.74657e-22,1,3999,91.26,-3.94617e-06,8.24659e-06,-4.31621e-08,9.14223e-06,81,-49.63,-179.82,1.0833e+07,1e+06,-1.03638e-07,2.4321e-07,-8.63148e-08,-0.0038136,0.0302161,-3.2403e-06,0.0328105,2,2451
12,7.74657e-22,1,4000,91.26,-4.04982e-06,8.2504e-06,-4.37728e-08,9.19087e-06,81,-49.63,-179.82,1.0833e+07,1e+06,-1.03507e-07,2.45859e-07,-8.75594e-08,-0.00350805,0.0306721,-3.65036e-06,0.03303,2,2452
12,7.74657e-22,1,4001,91.26,-4.15318e-06,8.2506e-06,-4.43009e-08,9.23706e-06,81,-49.63,-179.82,1.0833e+07,1e+06,-1.03065e-07,2.47908e-07,-8.85546e-08,-0.00317573,0.0310647,1.30063e-05,0.0330978,2,2453
12,7.74657e-22,1,4002,91.26,-4.25595e-06,8.25015e-06,-4.47767e-08,9.28332e-06,81,-49.63,-179.82,1.0833e+07,1e+06,-1.02655e-07,2.49632e-07,-8.97948e-08,-0.0029249,0.0313464,-7.62525e-05,0.0331249,2,2454
12,7.74657e-22,1,4003,91.26,-4.35849e-06,8.25276e-06,-4.55964e-08,9.3331e-06,81,-49.63,-179.82,1.0833e+07,1e+06,-1.02199e-07,2.51599e-07,-9.17244e-08,-0.00268165,0.0315956,-0.000324558,0.0332318,2,2455
12,7.74657e-22,1,4004,91.26,-4.46035e-06,8.26502e-06,-4.57943e-08,9.39187e-06,81,-49.63,-179.82,1.0833e+07,1e+06,-9.93749e-08,2.47102e-07,-9.11935e-08,-0.00241565,0.0310114,-0.000571888,0.0326293,2,2456
12,7.74657e-22,1,4005,91.26,-4.55724e-06,8.29191e-06,-4.37234e-08,9.46182e-06,81,-49.63,-179.82,1.0833e+07,1e+06,-9.26749e-08,2.32552e-07,-8.69174e-08,-0.00207321,0.0291473,-0.000822005,0.0308624,2,2457
12,7.74657e-22,1,4006,91.26,-4.6457e-06,8.32902e-06,-3.95355e-08,9.53712e-06,81,-49.63,-179.82,1.0833e+07,1e+06,-8.33066e-08,2.13307e-07,-7.90364e-08,-0.00131021,0.0270496,-0.000476847,0.0284007,2,2458
12,7.66148e-22,1,4007,91.26,-4.72386e-06,8.36538e-06,-3.63806e-08,9.60707e-06,89,-49.63,-179.82,1.0833e+07,1e+06,-6.58541e-08,1.90864e-07,-7.24261e-08,-0.000713378,0.0279117,-0.00113265,0.0294379,2,2459
12,7.4913e-22,1,4008,137.15,-4.7774e-06,8.44198e-06,-3.16984e-08,9.70009e-06,105,109.19,-42.07,1.0833e+07,1e+06,-4.36447e-08,1.71992e-07,-6.36248e-08,0.000218464,0.0326886,-0.000824614,0.033385,2,2460
12,7.40621e-22,1,4009,137.15,-4.81115e-06,8.54216e-06,-2.74595e-08,9.8039e-06,113,109.19,-42.07,1.0833e+07,1e+06,-3.26298e-08,1.6298e-07,-5.53262e-08,0.00125883,0.0355875,0.000342991,0.0349083,2,2461
12,7.40621e-22,1,4010,137.15,-4.84266e-06,8.60783e-06,-2.68309e-08,9.87658e-06,113,109.19,-42.07,1.0833e+07,1e+06,-3.03913e-08,1.59935e-07,-5.36013e-08,0.00177518,0.0357858,8.33441e-05,0.0350445,2,2462
12,7.40621e-22,1,4011,137.15,-4.87193e-06,8.64794e-06,-2.62668e-08,9.92588e-06,113,109.19,-42.07,1.0833e+07,1e+06,-2.79869e-08,1.5895e-07,-5.25128e-08,0.00247289,0.036328,8.64829e-05,0.0354233,2,2463
12,7.40621e-22,1,4012,137.15,-4.89864e-06,8.66882e-06,-2.6183e-08,9.9572e-06,113,109.19,-42.07,1.0833e+07,1e+06,-2.52595e-08,1.59034e-07,-5.23741e-08,0.00329225,0.0369956,6.18601e-05,0.0359337,2,2464
12,7.40621e-22,1,4013,137.15,-4.92245e-06,8.67483e-06,-2.63676e-08,9.97416e-06,113,109.19,-42.07,1.0833e+07,1e+06,-2.24405e-08,1.59949e-07,-5.27516e-08,0.00418447,0.0377867,4.25601e-05,0.0365597,2,2465
12,7.40621e-22,1,4014,137.15,-4.94352e-06,8.66888e-06,-2.68636e-08,9.97941e-06,113,109.19,-42.07,1.0833e+07,1e+06,-2.00608e-08,1.6243e-07,-5.37322e-08,0.00504755,0.0388762,1.30992e-05,0.0375178,2,2466
12,7.40621e-22,1,4015,137.15,-4.96257e-06,8.65457e-06,-2.78755e-08,9.97644e-06,113,109.19,-42.07,1.0833e+07,1e+06,-1.85505e-08,1.67791e-07,-5.57266e-08,0.00584207,0.0405146,-2.08504e-06,0.0390057,2,2467
12,7.40621e-22,1,4016,137.15,-4.98062e-06,8.63794e-06,-2.93408e-08,9.97103e-06,113,109.19,-42.07,1.0833e+07,1e+06,-1.76571e-08,1.75255e-07,-5.867e-08,0.00657961,0.0424445,1.41965e-05,0.0406823,2,2468
12,7.40621e-22,1,4017,137.15,-4.99788e-06,8.62506e-06,-3.08259e-08,9.96852e-06,113,109.19,-42.07,1.0833e+07,1e+06,-1.65071e-08,1.81649e-07,-6.1689e-08,0.00729619,0.0439622,2.30415e-05,0.0418662,2,2469
12,7.40621e-22,1,4018,137.15,-5.01363e-06,8.61746e-06,-3.21999e-08,9.96987e-06,113,109.19,-42.07,1.0833e+07,1e+06,-1.48234e-08,1.86426e-07,-6.44538e-08,0.00804308,0.0450917,-2.15875e-05,0.0426899,2,2470
12,7.40621e-22,1,4019,137.15,-5.02753e-06,8.61347e-06,-3.36761e-08,9.97341e-06,113,109.19,-42.07,1.0833e+07,1e+06,-1.29815e-08,1.92116e-07,-6.74834e-08,0.00889802,0.0465452,-9.80011e-05,0.0438948,2,2471
12,7.40621e-22,1,4020,137.15,-5.0396e-06,8.61124e-06,-3.66194e-08,9.97759e-06,113,109.19,-42.07,1.0833e+07,1e+06,-1.30401e-08,2.02006e-07,-7.2964e-08,0.00932226,0.0487925,-0.000613288,0.0463548,2,2472
12,7.54227e-22,1,4021,137.15,-5.05361e-06,8.6133e-06,-3.93214e-08,9.98646e-06,111.75,109.19,-42.07,1.0833e+07,1e+06,-2.72846e-08,2.26783e-07,-7.86406e-08,0.00958414,0.0497946,0.000529979,0.0467365,2,2473
12,7.81438e-22,1,4022,97.4,-5.09417e-06,8.59104e-06,-4.69285e-08,9.98793e-06,109.25,-41.8,1.73,1.0833e+07,1e+06,-5.31458e-08,2.55584e-07,-9.39285e-08,0.00939319,0.0439618,0.000432745,0.0409254,2,2474
12,7.95043e-22,1,4023,97.4,-5.1599e-06,8.55475e-06,-5.34674e-08,9.99056e-06,108,-41.8,1.73,1.0833e+07,1e+06,-6.71323e-08,2.70017e-07,-1.06773e-07,0.00905671,0.0392669,-0.000681291,0.0364858,2,2475
12,7.95043e-22,1,4024,97.4,-5.22843e-06,8.54254e-06,-5.33249e-08,1.00157e-05,108,-41.8,1.73,1.0833e+07,1e+06,-6.9266e-08,2.7598e-07,-1.06762e-07,0.0092479,0.0403219,-2.40762e-05,0.0367076,2,2476
12,7.95043e-22,1,4025,97.4,-5.29843e-06,8.54865e-06,-5.38017e-08,1.00576e-05,108,-41.8,1.73,1.0833e+07,1e+06,-6.97773e-08,2.78714e-07,-1.07592e-07,0.00944915,0.0407254,6.19455e-05,0.0369549,2,2477
12,7.95043e-22,1,4026,97.4,-5.36798e-06,8.57077e-06,-5.4253e-08,1.01132e-05,108,-41.8,1.73,1.0833e+07,1e+06,-6.87745e-08,2.81117e-07,-1.08672e-07,0.0100425,0.0412243,0.000121949,0.0373769,2,2478
12,7.95043e-22,1,4027,97.4,-5.43598e-06,8.60834e-06,-5.56443e-08,1.01812e-05,108,-41.8,1.73,1.0833e+07,1e+06,-6.76055e-08,2.87198e-07,-1.10999e-07,0.0111159,0.0423992,0.000314512,0.0385203,2,2479
12,7.67394e-22,1,4028,97.4,-5.5032e-06,8.66802e-06,-5.92932e-08,1.02676e-05,108.938,-41.8,1.73,1.01872e+07,968750,-6.61889e-08,3.04329e-07,-1.18693e-07,0.0128152,0.0446527,0.000959623,0.0408028,2,2480
12,6.53395e-22,1,4029,97.4,-5.56836e-06,8.7775e-06,-6.77543e-08,1.0395e-05,113,-41.8,1.73,7.60394e+06,843750,-6.06073e-08,3.07649e-07,-1.37197e-07,0.0108246,0.0416189,-0.000731741,0.0401804,2,2481
12,5.08346e-22,2,4030,155.53,-5.62441e-06,8.98272e-06,-8.20272e-08,1.05986e-05,118.312,-173.56,119.95,4.37487e+06,687500,-5.55787e-08,3.18115e-07,-1.63653e-07,0.00694188,0.0383864,-0.00198638,0.038337,3,1547
12,4.49646e-22,2,4031,155.53,-5.67952e-06,9.21236e-06,-8.97435e-08,1.08228e-05,120.5,-173.56,119.95,3.08325e+06,625000,-5.99763e-08,3.40466e-07,-1.78105e-07,0.00484211,0.0400633,-0.00153068,0.0396254,3,1548
12,4.49646e-22,2,4032,155.53,-5.74436e-06,9.38154e-06,-8.80885e-08,1.10008e-05,120.5,-173.56,119.95,3.08325e+06,625000,-6.78102e-08,3.42371e-07,-1.76182e-07,0.00275182,0.0406997,-0.00201781,0.0413849,3,1549
12,4.25398e-22,2,4033,155.53,-5.81514e-06,9.49352e-06,-8.69405e-08,1.11333e-05,121.125,-173.56,119.95,2.43744e+06,593750,-7.20992e-08,3.40907e-07,-1.73415e-07,0.00155478,0.0401522,-0.00150578,0.0413917,3,1550
12,3.76902e-22,2,4034,155.53,-5.88856e-06,9.55272e-06,-8.81922e-08,1.12222e-05,122.375,-173.56,119.95,1.14581e+06,531250,-7.07745e-08,3.35054e-07,-1.76182e-07,0.00110423,0.036717,-0.000768961,0.0378248,3,1551
12,3.52654e-22,2,4035,155.53,-5.95669e-06,9.59663e-06,-8.7698e-08,1.12954e-05,123,-173.56,119.95,500000,500000,-6.46069e-08,3.20257e-07,-1.75682e-07,0.00134726,0.0325964,-0.000516521,0.0330592,3,1552
12,3.52654e-22,2,4036,155.53,-6.01778e-06,9.65022e-06,-8.4957e-08,1.13731e-05,123,-173.56,119.95,500000,500000,-6.17147e-08,3.08347e-07,-1.70753e-07,0.00166446,0.030545,-0.000492107,0.0304226,3,1553
12,3.52654e-22,2,4037,155.53,-6.08012e-06,9.71041e-06,-8.378e-08,1.14572e-05,123,-173.56,119.95,500000,500000,-6.32507e-08,3.05179e-07,-1.67467e-07,0.00159954,0.0298702,-0.000344872,0.0295502,3,1554
12,3.52654e-22,2,4038,155.53,-6.14428e-06,9.75413e-06,-7.84908e-08,1.15283e-05,123,-173.56,119.95,500000,500000,-6.26498e-08,2.87406e-07,-1.56436e-07,0.00107987,0.0278284,-0.000350298,0.0276984,3,1555
12,3.52654e-22,2,4039,155.53,-6.20542e-06,9.76496e-06,-6.82861e-08,1.15701e-05,123,-173.56,119.95,500000,500000,-5.91629e-08,2.55005e-07,-1.3665e-07,0.000618261,0.0243226,-0.000198557,0.024267,3,1556
12,3.52654e-22,2,4040,155.53,-6.2626e-06,9.75222e-06,-5.72837e-08,1.15901e-05,123,-173.56,119.95,500000,500000,-5.63286e-08,2.17874e-07,-1.14839e-07,-0.000149296,0.0199316,-0.00025898,0.0202634,3,1557
12,5.69008e-22,1,4041,71.87,-2.61951e-08,7.79014e-06,-2.94104e-08,7.79024e-06,27,-131.18,-164.33,1.0833e+07,1e+06,-5.1918e-08,1.85468e-07,-5.88579e-08,0.0037639,0.0326349,0.000625989,0.0307419,2,2482
12,5.69008e-22,1,4042,71.87,-7.76409e-08,7.8589e-06,-3.09507e-08,7.85934e-06,27,-131.18,-164.33,1.0833e+07,1e+06,-4.95978e-08,1.80016e-07,-6.21818e-08,0.00393642,0.0307913,-0.000903178,0.0295822,2,2483
12,5.69008e-22,1,4043,71.87,-1.25391e-07,7.9256e-06,-2.91317e-08,7.92665e-06,27,-131.18,-164.33,1.0833e+07,1e+06,-4.55194e-08,1.69685e-07,-5.80554e-08,0.00419731,0.029193,-0.000619653,0.0277781,2,2484
12,5.69008e-22,1,4044,71.87,-1.6868e-07,7.98206e-06,-2.82972e-08,7.9839e-06,27,-131.18,-164.33,1.0833e+07,1e+06,-4.38093e-08,1.65925e-07,-5.60769e-08,0.00429263,0.0288819,-0.000439474,0.0273126,2,2485
12,5.69008e-22,1,4045,71.87,-2.13009e-07,8.02867e-06,-2.84321e-08,8.03155e-06,27,-131.18,-164.33,1.0833e+07,1e+06,-4.71235e-08,1.7391e-07,-5.71291e-08,0.00418917,0.0304831,-0.000143231,0.0286884,2,2486
12,5.69008e-22,1,4046,71.87,-2.62927e-07,8.0727e-06,-2.93907e-08,8.07703e-06,27,-131.18,-164.33,1.0833e+07,1e+06,-5.23418e-08,1.82992e-07,-5.90286e-08,0.00369097,0.0318533,-4.15279e-05,0.0302073,2,2487
12,5.69008e-22,1,4047,71.87,-3.17693e-07,8.11836e-06,-3.02995e-08,8.12463e-06,27,-131.18,-164.33,1.0833e+07,1e+06,-5.65936e-08,1.89365e-07,-6.04921e-08,0.00319667,0.0326186,1.34466e-05,0.031143,2,2488
12,5.69008e-22,1,4048,71.87,-3.76114e-07,8.16616e-06,-3.10108e-08,8.17488e-06,27,-131.18,-164.33,1.0833e+07,1e+06,-5.99363e-08,1.94688e-07,-6.20346e-08,0.00281897,0.0332281,-1.48102e-06,0.0319353,2,2489
12,5.69008e-22,1,4049,71.87,-4.37565e-07,8.21619e-06,-3.17072e-08,8.22789e-06,27,-131.18,-164.33,1.0833e+07,1e+06,-6.27772e-08,1.99399e-07,-6.33997e-08,0.00251906,0.0337749,2.24674e-06,0.0326382,2,2490
12,5.69008e-22,1,4050,71.87,-5.01668e-07,8.2685e-06,-3.23205e-08,8.28376e-06,27,-131.18,-164.33,1.0833e+07,1e+06,-6.53149e-08,2.03597e-07,-6.46441e-08,0.00224844,0.0342528,8.69441e-07,0.0332748,2,2491
12,5.69008e-22,1,4051,71.87,-5.68195e-07,8.32286e-06,-3.28475e-08,8.3423e-06,27,-131.18,-164.33,1.0833e+07,1e+06,-6.76044e-08,2.07208e-07,-6.56912e-08,0.00198731,0.0346506,3.69386e-08,0.0338332,2,2492
12,5.69008e-22,1,4052,71.87,-6.36877e-07,8.37883e-06,-3.3248e-08,8.40307e-06,27,-131.18,-164.33,1.0833e+07,1e+06,-6.96585e-08,2.10142e-07,-6.65004e-08,0.00172109,0.0349577,-5.67589e-06,0.0343029,2,2493
12,5.69008e-22,1,4053,71.87,-7.07512e-07,8.4357e-06,-3.34987e-08,8.46539e-06,27,-131.18,-164.33,1.0833e+07,1e+06,-7.16797e-08,2.12489e-07,-6.69857e-08,0.00140624,0.0351854,2.45901e-06,0.0346981,2,2494
12,5.69008e-22,1,4054,71.87,-7.80237e-07,8.49327e-06,-3.36426e-08,8.5291e-06,27,-131.18,-164.33,1.0833e+07,1e+06,-7.34318e-08,2.14376e-07,-6.71858e-08,0.0011197,0.0353999,4.217e-05,0.0350321,2,2495
12,5.69008e-22,1,4055,71.87,-8.54376e-07,8.55038e-06,-3.31848e-08,8.59302e-06,27,-131.18,-164.33,1.0833e+07,1e+06,-7.42497e-08,2.13066e-07,-6.59367e-08,0.000811006,0.0351086,0.000206825,0.0347777,2,2496
12,5.52998e-22,1,4056,71.87,-9.28736e-07,8.6044e-06,-3.19395e-08,8.65444e-06,26.8125,-131.18,-164.33,1.01872e+07,968750,-7.69873e-08,2.12547e-07,-6.43904e-08,0.000275209,0.0341023,0.000553465,0.0339787,2,2497
12,4.78332e-22,1,4057,71.87,-1.00835e-06,8.63457e-06,-3.66101e-08,8.69333e-06,27.8125,-131.18,-164.33,6.95813e+06,812500,-7.8919e-08,2.20229e-07,-7.39501e-08,-0.000694504,0.0319024,0.000150355,0.0329145,2,2498
12,3.78825e-22,2,4058,103.3,-1.08657e-06,8.64398e-06,-4.62527e-08,8.71213e-06,30.9375,-73.15,30.56,2.43744e+06,593750,-6.93907e-08,2.24545e-07,-9.20193e-08,-0.00200266,0.0294511,-0.000244007,0.0318066,3,1558
12,3.3977e-22,2,4059,103.3,-1.14713e-06,8.66021e-06,-5.11904e-08,8.736e-06,33.4375,-73.15,30.56,500000,500000,-5.17802e-08,2.16662e-07,-1.02137e-07,-0.00246049,0.0287976,-0.000109575,0.03157,3,1559
12,3.41565e-22,2,4060,103.3,-1.19013e-06,8.66175e-06,-5.02499e-08,8.74328e-06,34,-73.15,30.56,500000,500000,-3.7992e-08,2.00374e-07,-1.00598e-07,-0.00196711,0.0279669,-0.00017407,0.0307274,3,1560
12,3.41565e-22,2,4061,103.3,-1.22312e-06,8.63626e-06,-4.68009e-08,8.72257e-06,34,-73.15,30.56,500000,500000,-3.09816e-08,1.82256e-07,-9.35319e-08,-0.00155797,0.0258407,-0.000146377,0.0284476,3,1561
12,3.41565e-22,2,4062,103.3,-1.2521e-06,8.60868e-06,-4.39014e-08,8.69937e-06,34,-73.15,30.56,500000,500000,-2.93807e-08,1.71503e-07,-8.7811e-08,-0.00137925,0.0241795,-9.80041e-05,0.0264579,3,1562
12,3.41565e-22,2,4063,103.3,-1.28188e-06,8.59533e-06,-4.25002e-08,8.6905e-06,34,-73.15,30.56,500000,500000,-3.12934e-08,1.69625e-07,-8.51133e-08,-0.00133026,0.0235854,-9.96028e-06,0.025524,3,1563
12,3.41565e-22,2,4064,103.3,-1.31468e-06,8.59994e-06,-4.12319e-08,8.69994e-06,34,-73.15,30.56,500000,500000,-3.47424e-08,1.70786e-07,-8.248e-08,-0.00136935,0.0235259,0.000233292,0.0251434,3,1564
12,3.71915e-22,2,4065,103.3,-1.35136e-06,8.61954e-06,-3.87244e-08,8.72491e-06,35.3125,-73.15,30.56,1.14581e+06,531250,-3.93967e-08,1.70216e-07,-7.74441e-08,-0.00162799,0.0240897,-3.44914e-05,0.0260112,3,1565
12,5.23669e-22,2,4066,103.3,-1.39348e-06,8.63739e-06,-3.42084e-08,8.74914e-06,41.875,-73.15,30.56,4.37488e+06,687500,-4.66145e-08,1.6798e-07,-6.79532e-08,-0.00197662,0.0270983,-0.00149782,0.0302753,3,1566
12,7.36123e-22,1,4067,130.6,-1.44459e-06,8.64513e-06,-2.64062e-08,8.76503e-06,51.0625,117.2,-48.36,8.89556e+06,906250,-5.54562e-08,1.69196e-07,-5.28298e-08,-0.00172847,0.0315608,-0.000553486,0.0338006,2,2499
12,8.27175e-22,1,4068,130.6,-1.50439e-06,8.66211e-06,-2.36674e-08,8.79181e-06,55,117.2,-48.36,1.0833e+07,1e+06,-6.21561e-08,1.7583e-07,-4.77263e-08,-0.00176019,0.0337602,0.000689824,0.0346866,2,2500
12,8.27175e-22,1,4069,130.6,-1.5689e-06,8.69637e-06,-2.63721e-08,8.83679e-06,55,117.2,-48.36,1.0833e+07,1e+06,-6.63192e-08,1.84004e-07,-5.26544e-08,-0.00227389,0.034516,-6.61602e-06,0.0358479,2,2501
12,8.27175e-22,1,4070,130.6,-1.63703e-06,8.74237e-06,-2.75898e-08,8.89436e-06,55,117.2,-48.36,1.0833e+07,1e+06,-6.98264e-08,1.92065e-07,-5.51977e-08,-0.00249594,0.0357302,-2.40901e-06,0.0371081,2,2502
12,8.27175e-22,1,4071,130.6,-1.70856e-06,8.7976e-06,-2.87369e-08,8.96202e-06,55,117.2,-48.36,1.0833e+07,1e+06,-7.30128e-08,1.99498e-07,-5.7473e-08,-0.00271137,0.0369266,-6.03676e-06,0.0383894,2,2503
12,8.27175e-22,1,4072,130.6,-1.78305e-06,8.86006e-06,-2.97422e-08,9.03775e-06,55,117.2,-48.36,1.0833e+07,1e+06,-7.57868e-08,2.062e-07,-5.94861e-08,-0.00288246,0.0380497,-8.88848e-06,0.0395912,2,2504
12,8.27175e-22,1,4073,130.6,-1.86013e-06,8.92828e-06,-3.06145e-08,9.12005e-06,55,117.2,-48.36,1.0833e+07,1e+06,-7.82061e-08,2.12098e-07,-6.12276e-08,-0.00302962,0.0390606,-1.13214e-05,0.0406757,2,2505
12,8.27175e-22,1,4074,130.6,-1.93947e-06,9.00137e-06,-3.1353e-08,9.208e-06,55,117.2,-48.36,1.0833e+07,1e+06,-8.03383e-08,2.17178e-07,-6.27034e-08,-0.0031707,0.039932,-1.19564e-05,0.04162,2,2506
12,8.27175e-22,1,4075,130.6,-2.02081e-06,9.07902e-06,-3.19552e-08,9.30125e-06,55,117.2,-48.36,1.0833e+07,1e+06,-8.2185e-08,2.21379e-07,-6.39069e-08,-0.00330873,0.0406351,-6.59761e-06,0.0423934,2,2507
12,8.27175e-22,1,4076,130.6,-2.10384e-06,9.16142e-06,-3.24089e-08,9.39994e-06,55,117.2,-48.36,1.0833e+07,1e+06,-8.36049e-08,2.24475e-07,-6.48169e-08,-0.00342321,0.0411197,3.12779e-06,0.042935,2,2508
12,8.27175e-22,1,4077,130.6,-2.18802e-06,9.24904e-06,-3.27033e-08,9.50438e-06,55,117.2,-48.36,1.0833e+07,1e+06,-8.42702e-08,2.26095e-07,-6.5417e-08,-0.0034615,0.0413281,8.44489e-06,0.0431648,2,2509
12,8.27175e-22,1,4078,130.6,-2.27238e-06,9.34272e-06,-3.32898e-08,9.61515e-06,55,117.2,-48.36,1.0833e+07,1e+06,-8.36208e-08,2.26006e-07,-6.6603e-08,-0.00337988,0.0411929,-0.0002481,0.0431142,2,2510
12,6.8732e-22,1,4079,130.6,-2.35526e-06,9.44301e-06,-3.45225e-08,9.73236e-06,58.25,117.2,-48.36,8.24975e+06,875000,-8.06471e-08,2.24495e-07,-6.90457e-08,-0.00319241,0.037646,0.00111664,0.039255,2,2511
12,4.07609e-22,2,4080,95.17,-2.43367e-06,9.42288e-06,-4.56704e-08,9.73219e-06,64.75,150.32,151.68,3.08325e+06,625000,-7.54729e-08,2.23875e-07,-9.13149e-08,-0.00370675,0.0287003,0.000255213,0.0310642,3,1567
12,2.67754e-22,2,4081,95.17,-2.5062e-06,9.28216e-06,-5.36144e-08,9.6147e-06,68,150.32,151.68,500000,500000,-7.20734e-08,2.25002e-07,-1.07218e-07,-0.00370602,0.0239316,-0.00111849,0.026668,3,1568
12,2.67754e-22,2,4082,95.17,-2.57782e-06,9.14929e-06,-5.08789e-08,9.50564e-06,68,150.32,151.68,500000,500000,-7.26896e-08,2.26548e-07,-1.01757e-07,-0.00316064,0.0249433,-3.94692e-06,0.0269832,3,1569
12,2.67754e-22,2,4083,95.17,-2.65158e-06,9.02555e-06,-5.06861e-08,9.40713e-06,68,150.32,151.68,500000,500000,-7.40719e-08,2.28262e-07,-1.01371e-07,-0.00326883,0.0253398,7.5796e-06,0.027503,3,1570
12,2.67754e-22,2,4084,95.17,-2.72596e-06,8.90967e-06,-5.0983e-08,9.31749e-06,68,150.32,151.68,500000,500000,-7.46196e-08,2.30158e-07,-1.01966e-07,-0.00330068,0.0256773,1.65991e-05,0.027898,3,1571
12,2.67754e-22,2,4085,95.17,-2.80082e-06,8.79978e-06,-5.14749e-08,9.2349e-06,68,150.32,151.68,500000,500000,-7.5093e-08,2.32402e-07,-1.02946e-07,-0.00330445,0.0260047,2.34666e-05,0.0282501,3,1572
12,2.67754e-22,2,4086,95.17,-2.87615e-06,8.69484e-06,-5.20724e-08,9.15834e-06,68,150.32,151.68,500000,500000,-7.53432e-08,2.34821e-07,-1.04146e-07,-0.00326623,0.0263614,3.3489e-05,0.0286064,3,1573
12,2.67754e-22,2,4087,95.17,-2.95151e-06,8.59581e-06,-5.25663e-08,9.08857e-06,68,150.32,151.68,500000,500000,-7.48373e-08,2.36371e-07,-1.05144e-07,-0.00315801,0.0266885,4.02746e-05,0.028915,3,1574
12,2.67754e-22,2,4088,95.17,-3.02582e-06,8.50623e-06,-5.27002e-08,9.02853e-06,68,150.32,151.68,500000,500000,-7.30479e-08,2.35703e-07,-1.054e-07,-0.00296345,0.0268642,3.21161e-05,0.0290652,3,1575
12,2.67754e-22,2,4089,95.17,-3.0976e-06,8.43109e-06,-5.24405e-08,8.98227e-06,68,150.32,151.68,500000,500000,-7.0087e-08,2.32767e-07,-1.04852e-07,-0.00270844,0.0268785,1.97576e-06,0.0290743,3,1576
12,2.67754e-22,2,4090,95.17,-3.166e-06,8.37389e-06,-5.21565e-08,8.95256e-06,68,150.32,151.68,500000,500000,-6.7e-08,2.2997e-07,-1.04362e-07,-0.00245097,0.0269824,-3.32239e-05,0.0292202,3,1577
12,2.67754e-22,2,4091,95.17,-3.2316e-06,8.33441e-06,-5.23919e-08,8.93915e-06,68,150.32,151.68,500000,500000,-6.4803e-08,2.29732e-07,-1.04782e-07,-0.00221557,0.0273945,-3.71748e-05,0.0296899,3,1578
12,2.67754e-22,2,4092,95.17,-3.2956e-06,8.30855e-06,-5.3544e-08,8.93845e-06,68,150.32,151.68,500000,500000,-6.31448e-08,2.33216e-07,-1.07142e-07,-0.00189848,0.0282574,-5.46672e-05,0.0306,3,1579
12,2.67754e-22,2,4093,95.17,-3.35789e-06,8.29204e-06,-5.49411e-08,8.94631e-06,68,150.32,151.68,500000,500000,-6.26914e-08,2.37913e-07,-1.09871e-07,-0.00171429,0.0291001,-6.8907e-05,0.0315159,3,1580
12,3.62798e-22,2,4094,95.17,-3.42098e-06,8.27433e-06,-5.32251e-08,8.9538e-06,70.4375,150.32,151.68,2.43744e+06,593750,-7.04237e-08,2.44011e-07,-1.06003e-07,-0.00140033,0.0304057,7.41968e-06,0.0325366,3,1581
12,5.84568e-22,1,4095,91.26,-3.49874e-06,8.29025e-06,-4.56198e-08,8.99841e-06,76.125,-49.63,-179.82,6.95813e+06,812500,-8.57833e-08,2.3539e-07,-9.159e-08,-0.00258424,0.0293842,-0.000269638,0.0318062,2,2512
12,7.42976e-22,1,4096,91.26,-3.59255e-06,8.35098e-06,-4.09418e-08,9.09104e-06,80.1875,-49.63,-179.82,1.01872e+07,968750,-9.62363e-08,2.28979e-07,-8.22629e-08,-0.00364375,0.0284521,-8.82401e-05,0.0307692,2,2513
12,7.74657e-22,1,4097,91.26,-3.69121e-06,8.40957e-06,-4.21096e-08,9.1841e-06,81,-49.63,-179.82,1.0833e+07,1e+06,-9.88633e-08,2.36661e-07,-8.39161e-08,-0.00315246,0.0296696,0.000191724,0.0314262,2,2514
12,7.74657e-22,1,4098,91.26,-3.79028e-06,8.45049e-06,-4.2715e-08,9.26169e-06,81,-49.63,-179.82,1.0833e+07,1e+06,-9.81328e-08,2.37878e-07,-8.53847e-08,-0.00285738,0.0298548,-5.08453e-05,0.0317546,2,2515
12,7.74657e-22,1,4099,91.26,-3.88748e-06,8.47486e-06,-4.28541e-08,9.32403e-06,81,-49.63,-179.82,1.0833e+07,1e+06,-9.6772e-08,2.37974e-07,-8.56914e-08,-0.00246084,0.0300202,-4.28206e-05,0.0318725,2,2516
12,7.74657e-22,1,4100,91.26,-3.98382e-06,8.48765e-06,-4.29747e-08,9.37619e-06,81,-49.63,-179.82,1.0833e+07,1e+06,-9.64078e-08,2.38546e-07,-8.59618e-08,-0.00229566,0.0301642,-2.19329e-05,0.0319614,2,2517
12,7.74657e-22,1,4101,91.26,-4.08029e-06,8.49317e-06,-4.3154e-08,9.42256e-06,81,-49.63,-179.82,1.0833e+07,1e+06,-9.67578e-08,2.3962e-07,-8.6316e-08,-0.00228035,0.0303148,-4.75493e-06,0.0320279,2,2518
12,7.74657e-22,1,4102,91.26,-4.17734e-06,8.49491e-06,-4.33582e-08,9.46655e-06,81,-49.63,-179.82,1.0833e+07,1e+06,-9.74022e-08,2.40804e-07,-8.67272e-08,-0.00234137,0.0304426,-7.933e-06,0.032055,2,2519
12,7.74657e-22,1,4103,91.26,-4.2751e-06,8.49601e-06,-4.35305e-08,9.51107e-06,81,-49.63,-179.82,1.0833e+07,1e+06,-9.80082e-08,2.4175e-07,-8.69929e-08,-0.00241353,0.0305396,4.05332e-06,0.0320236,2,2520
12,7.74657e-22,1,4104,91.26,-4.37335e-06,8.49969e-06,-4.34519e-08,9.55892e-06,81,-49.63,-179.82,1.0833e+07,1e+06,-9.77254e-08,2.41476e-07,-8.68777e-08,-0.00236359,0.0305265,2.90553e-05,0.0318302,2,2521
12,7.74657e-22,1,4105,91.26,-4.47055e-06,8.50845e-06,-4.27286e-08,9.61152e-06,81,-49.63,-179.82,1.0833e+07,1e+06,-9.49748e-08,2.37074e-07,-8.55457e-08,-0.00205758,0.030061,3.02042e-05,0.0311563,2,2522
12,7.74657e-22,1,4106,91.26,-4.5633e-06,8.52293e-06,-4.09906e-08,9.66777e-06,81,-49.63,-179.82,1.0833e+07,1e+06,-8.85568e-08,2.25831e-07,-8.19836e-08,-0.00142615,0.0288206,1.27662e-05,0.0296702,2,2523
12,7.74657e-22,1,4107,91.26,-4.64766e-06,8.54089e-06,-3.77437e-08,9.72363e-06,81,-49.63,-179.82,1.0833e+07,1e+06,-7.90412e-08,2.09267e-07,-7.55438e-08,-0.000378179,0.0271664,0.000317355,0.0274432,2,2524
12,7.66148e-22,1,4108,91.26,-4.72139e-06,8.55699e-06,-3.58684e-08,9.77317e-06,89,-49.63,-179.82,1.0833e+07,1e+06,-6.1852e-08,1.91902e-07,-7.17899e-08,0.000563697,0.0289066,-0.000590703,0.0292962,2,2525
12,7.4913e-22,1,4109,137.15,-4.77137e-06,8.61654e-06,-3.24083e-08,9.84946e-06,105,109.19,-42.07,1.0833e+07,1e+06,-3.99884e-08,1.76795e-07,-6.4724e-08,0.0016958,0.0344973,-0.000462027,0.0341538,2,2526
12,7.40621e-22,1,4110,137.15,-4.80136e-06,8.70659e-06,-2.84668e-08,9.94277e-06,113,109.19,-42.07,1.0833e+07,1e+06,-2.84004e-08,1.66739e-07,-5.6888e-08,0.00275183,0.0371733,0.000449697,0.0357304,2,2527
12,7.40621e-22,1,4111,137.15,-4.82817e-06,8.76825e-06,-2.7611e-08,1.00097e-05,113,109.19,-42.07,1.0833e+07,1e+06,-2.5579e-08,1.6197e-07,-5.52308e-08,0.00328171,0.0369186,3.03804e-05,0.0356108,2,2528
12,7.40621e-22,1,4112,137.15,-4.85252e-06,8.80688e-06,-2.67352e-08,1.00553e-05,113,109.19,-42.07,1.0833e+07,1e+06,-2.33568e-08,1.59825e-07,-5.34696e-08,0.00386629,0.0372241,5.19422e-05,0.0358841,2,2529
12,7.40621e-22,1,4113,137.15,-4.87488e-06,8.82758e-06,-2.63336e-08,1.00842e-05,113,109.19,-42.07,1.0833e+07,1e+06,-2.14536e-08,1.59246e-07,-5.26749e-08,0.00442475,0.0377232,4.47251e-05,0.0364066,2,2530
12,7.40621e-22,1,4114,137.15,-4.89543e-06,8.83455e-06,-2.63048e-08,1.01003e-05,113,109.19,-42.07,1.0833e+07,1e+06,-1.98068e-08,1.60121e-07,-5.26209e-08,0.00499106,0.0384434,3.45747e-05,0.037144,2,2531
12,7.40621e-22,1,4115,137.15,-4.9145e-06,8.83143e-06,-2.66836e-08,1.01068e-05,113,109.19,-42.07,1.0833e+07,1e+06,-1.86328e-08,1.62923e-07,-5.33664e-08,0.00553853,0.0395061,2.59586e-05,0.0382001,2,2532
12,7.40621e-22,1,4116,137.15,-4.93269e-06,8.82238e-06,-2.75031e-08,1.01078e-05,113,109.19,-42.07,1.0833e+07,1e+06,-1.80087e-08,1.67879e-07,-5.49972e-08,0.00605776,0.0409392,3.1101e-05,0.0395593,2,2533
12,7.40621e-22,1,4117,137.15,-4.95051e-06,8.81235e-06,-2.86373e-08,1.01077e-05,113,109.19,-42.07,1.0833e+07,1e+06,-1.76e-08,1.73943e-07,-5.72803e-08,0.00657076,0.0424864,4.78676e-05,0.0409335,2,2534
12,7.40621e-22,1,4118,137.15,-4.96789e-06,8.80532e-06,-2.98617e-08,1.01101e-05,113,109.19,-42.07,1.0833e+07,1e+06,-1.69359e-08,1.79591e-07,-5.97256e-08,0.00711568,0.043847,5.90329e-05,0.0420509,2,2535
12,7.40621e-22,1,4119,137.15,-4.98438e-06,8.80285e-06,-3.10932e-08,1.01161e-05,113,109.19,-42.07,1.0833e+07,1e+06,-1.59465e-08,1.84908e-07,-6.21985e-08,0.00773052,0.045134,5.78116e-05,0.0430773,2,2536
12,7.40621e-22,1,4120,137.15,-4.99979e-06,8.80512e-06,-3.25801e-08,1.01257e-05,113,109.19,-42.07,1.0833e+07,1e+06,-1.53183e-08,1.91642e-07,-6.52383e-08,0.00831519,0.0467312,1.82118e-05,0.0444429,2,2537
12,7.40621e-22,1,4121,137.15,-5.01502e-06,8.81505e-06,-3.60451e-08,1.01418e-05,113,109.19,-42.07,1.0833e+07,1e+06,-1.73e-08,2.0374e-07,-7.20764e-08,0.00824132,0.0491014,-0.000652971,0.0471556,2,2538
12,7.54227e-22,1,4122,137.15,-5.03439e-06,8.84085e-06,-3.88405e-08,1.01739e-05,111.75,109.19,-42.07,1.0833e+07,1e+06,-3.22329e-08,2.25669e-07,-7.74736e-08,0.00801259,0.0490922,0.00037773,0.0466287,2,2539
12,7.81438e-22,1,4123,97.4,-5.07949e-06,8.84411e-06,-4.52846e-08,1.01991e-05,109.25,-41.8,1.73,1.0833e+07,1e+06,-5.74451e-08,2.49701e-07,-9.06417e-08,0.00763531,0.0423285,0.000406175,0.0397329,2,2540
12,7.95043e-22,1,4124,97.4,-5.14928e-06,8.82208e-06,-5.1297e-08,1.0215e-05,108,-41.8,1.73,1.0833e+07,1e+06,-7.15015e-08,2.63713e-07,-1.0271e-07,0.00720258,0.0377716,-0.00060847,0.0354276,2,2541
12,7.95043e-22,1,4125,97.4,-5.22249e-06,8.81549e-06,-5.14273e-08,1.02465e-05,108,-41.8,1.73,1.0833e+07,1e+06,-7.37133e-08,2.69295e-07,-1.02774e-07,0.00730316,0.0387253,-2.40766e-05,0.0357496,2,2542
12,7.95043e-22,1,4126,97.4,-5.2967e-06,8.82432e-06,-5.21331e-08,1.02921e-05,108,-41.8,1.73,1.0833e+07,1e+06,-7.48655e-08,2.73256e-07,-1.04268e-07,0.0074366,0.0392338,-1.42982e-05,0.0361719,2,2543
12,7.95043e-22,1,4127,97.4,-5.37222e-06,8.84948e-06,-5.29077e-08,1.03526e-05,108,-41.8,1.73,1.0833e+07,1e+06,-7.68676e-08,2.78381e-07,-1.05829e-07,0.00747366,0.0398971,5.98776e-05,0.0368756,2,2544
12,7.95043e-22,1,4128,97.4,-5.45044e-06,8.89329e-06,-5.40095e-08,1.04308e-05,108,-41.8,1.73,1.0833e+07,1e+06,-8.01978e-08,2.85098e-07,-1.07596e-07,0.00733351,0.0407217,0.000177921,0.0379245,2,2545
12,7.95043e-22,1,4129,97.4,-5.53262e-06,8.96267e-06,-5.34428e-08,1.05329e-05,108,-41.8,1.73,1.0833e+07,1e+06,-8.08399e-08,2.90412e-07,-1.06856e-07,0.00802231,0.0418736,0.00102006,0.039006,2,2546
12,7.5719e-22,1,4130,97.4,-5.61212e-06,9.06708e-06,-5.51545e-08,1.06635e-05,109.875,-41.8,1.73,1.01872e+07,968750,-6.42685e-08,2.79821e-07,-1.10009e-07,0.00858924,0.0430027,-3.86333e-05,0.0415881,2,2547
12,6.81483e-22,1,4131,137.15,-5.66115e-06,9.26816e-06,-5.59764e-08,1.08605e-05,113.625,109.19,-42.07,8.89556e+06,906250,-3.78761e-08,2.60057e-07,-1.11786e-07,0.0084229,0.0439665,-0.000298742,0.0424677,2,2548
12,6.4363e-22,1,4132,137.15,-5.68787e-06,9.50459e-06,-5.23387e-08,1.10766e-05,115.5,109.19,-42.07,8.24975e+06,875000,-2.98583e-08,2.4999e-07,-1.05391e-07,0.00767724,0.0445591,0.000936649,0.0415296,2,2549
12,6.4363e-22,1,4133,137.15,-5.72087e-06,9.67346e-06,-4.97021e-08,1.12386e-05,115.5,109.19,-42.07,8.24975e+06,875000,-3.62374e-08,2.46118e-07,-1.00321e-07,0.00592062,0.0443698,0.000383111,0.0420738,2,2550
12,5.95134e-22,1,4134,137.15,-5.76034e-06,9.79383e-06,-5.21791e-08,1.13624e-05,116.75,109.19,-42.07,6.95812e+06,812500,-4.51679e-08,2.55767e-07,-1.0558e-07,0.00428087,0.0434836,0.000264834,0.0422347,2,2551
12,4.73894e-22,2,4135,155.53,-5.81121e-06,9.86794e-06,-6.63302e-08,1.14521e-05,119.875,-173.56,119.95,3.72906e+06,656250,-5.28896e-08,2.79256e-07,-1.31297e-07,0.00291885,0.0389182,-7.08123e-05,0.0390059,3,1582
12,3.76902e-22,2,4136,155.53,-5.86612e-06,9.90624e-06,-7.85155e-08,1.15131e-05,122.375,-173.56,119.95,1.14581e+06,531250,-5.1622e-08,2.87318e-07,-1.5655e-07,0.00207202,0.0319921,-0.000744881,0.0327317,3,1583
12,3.52654e-22,2,4137,155.53,-5.91445e-06,9.94903e-06,-8.21569e-08,1.15746e-05,123,-173.56,119.95,500000,500000,-4.56665e-08,2.86391e-07,-1.65082e-07,0.00292085,0.0292415,-0.000543843,0.0289017,3,1584
12,3.50114e-22,2,4138,155.53,-5.95746e-06,1.00103e-05,-8.15323e-08,1.16492e-05,122.938,-173.56,119.95,500000,500000,-3.84669e-08,2.83006e-07,-1.6189e-07,0.00451808,0.0297762,0.000253287,0.0282239,3,1585
12,3.45033e-22,2,4139,155.53,-5.99138e-06,1.0035e-05,-7.46405e-08,1.16877e-05,122.813,-173.56,119.95,500000,500000,-3.3008e-08,2.57054e-07,-1.48883e-07,0.00388371,0.0276402,-0.000105469,0.0266681,3,1586
12,3.42493e-22,2,4140,155.53,-6.02347e-06,1.00128e-05,-6.50701e-08,1.16852e-05,122.75,-173.56,119.95,500000,500000,-3.60306e-08,2.27417e-07,-1.3029e-07,0.00198951,0.0240077,-0.000459089,0.023877,3,1587
12,3.42493e-22,2,4141,155.53,-6.06344e-06,9.96524e-06,-5.4508e-08,1.16651e-05,122.75,-173.56,119.95,500000,500000,-4.16227e-08,1.99857e-07,-1.09591e-07,0.000357944,0.0203937,-0.000418965,0.0209067,3,1588
12,5.69008e-22,1,4142,71.87,-2.42039e-08,7.97289e-06,-2.88163e-08,7.97298e-06,27,-131.18,-164.33,1.0833e+07,1e+06,-4.7717e-08,1.79707e-07,-5.7601e-08,0.00434122,0.0319183,0.000614692,0.0297876,2,2552
12,5.69008e-22,1,4143,71.87,-7.12302e-08,8.03634e-06,-3.01862e-08,8.03671e-06,27,-131.18,-164.33,1.0833e+07,1e+06,-4.58122e-08,1.75355e-07,-6.03736e-08,0.00452376,0.0304013,-0.000638098,0.0288557,2,2553
12,5.69008e-22,1,4144,71.87,-1.15828e-07,8.09658e-06,-2.86143e-08,8.09746e-06,27,-131.18,-164.33,1.0833e+07,1e+06,-4.39268e-08,1.70981e-07,-5.72973e-08,0.00482346,0.0298581,-0.000103296,0.0278837,2,2554
12,5.69008e-22,1,4145,71.87,-1.59084e-07,8.15157e-06,-2.84197e-08,8.15317e-06,27,-131.18,-164.33,1.0833e+07,1e+06,-4.36654e-08,1.70659e-07,-5.68365e-08,0.00488223,0.0299473,-5.29425e-05,0.02789,2,2555
12,5.69008e-22,1,4146,71.87,-2.03159e-07,8.20328e-06,-2.88283e-08,8.20585e-06,27,-131.18,-164.33,1.0833e+07,1e+06,-4.5613e-08,1.74925e-07,-5.76063e-08,0.00477366,0.0307449,2.58476e-05,0.0286511,2,2556
12,5.69008e-22,1,4147,71.87,-2.5031e-07,8.25429e-06,-2.95136e-08,8.25814e-06,27,-131.18,-164.33,1.0833e+07,1e+06,-4.9072e-08,1.80748e-07,-5.90329e-08,0.00440237,0.0315761,3.04947e-05,0.0296143,2,2557
12,5.69008e-22,1,4148,71.87,-3.01303e-07,8.30603e-06,-3.02356e-08,8.31155e-06,27,-131.18,-164.33,1.0833e+07,1e+06,-5.27681e-08,1.86303e-07,-6.0488e-08,0.0039446,0.0322504,1.43058e-05,0.0304847,2,2558
12,5.69008e-22,1,4149,71.87,-3.55846e-07,8.35918e-06,-3.09471e-08,8.36681e-06,27,-131.18,-164.33,1.0833e+07,1e+06,-5.61373e-08,1.91466e-07,-6.18871e-08,0.00354296,0.0328508,1.09796e-05,0.0312712,2,2559
12,5.69008e-22,1,4150,71.87,-4.13578e-07,8.41404e-06,-3.16286e-08,8.42426e-06,27,-131.18,-164.33,1.0833e+07,1e+06,-5.91889e-08,1.9627e-07,-6.32572e-08,0.0031912,0.0334002,3.16595e-06,0.032007,2,2560
12,5.69008e-22,1,4151,71.87,-4.74224e-07,8.47067e-06,-3.22606e-08,8.484e-06,27,-131.18,-164.33,1.0833e+07,1e+06,-6.1995e-08,2.00682e-07,-6.45188e-08,0.00286801,0.0338977,-8.24204e-07,0.0326903,2,2561
12,5.69008e-22,1,4152,71.87,-5.37568e-07,8.52886e-06,-3.28214e-08,8.54585e-06,27,-131.18,-164.33,1.0833e+07,1e+06,-6.46168e-08,2.04692e-07,-6.56434e-08,0.00255499,0.0343449,-4.07012e-06,0.0333248,2,2562
12,5.69008e-22,1,4153,71.87,-6.03457e-07,8.58814e-06,-3.32963e-08,8.60938e-06,27,-131.18,-164.33,1.0833e+07,1e+06,-6.71231e-08,2.08301e-07,-6.66012e-08,0.00223248,0.0347427,-7.85072e-06,0.0339125,2,2563
12,5.69008e-22,1,4154,71.87,-6.71814e-07,8.64795e-06,-3.36896e-08,8.67408e-06,27,-131.18,-164.33,1.0833e+07,1e+06,-6.94533e-08,2.11493e-07,-6.73571e-08,0.00191579,0.0351064,-2.44565e-06,0.0344478,2,2564
12,5.69008e-22,1,4155,71.87,-7.42364e-07,8.70741e-06,-3.38814e-08,8.73907e-06,27,-131.18,-164.33,1.0833e+07,1e+06,-7.13592e-08,2.13729e-07,-6.78288e-08,0.00161523,0.0353487,-1.4245e-05,0.0348439,2,2565
12,5.69008e-22,1,4156,71.87,-8.14532e-07,8.76454e-06,-3.39372e-08,8.80237e-06,27,-131.18,-164.33,1.0833e+07,1e+06,-7.24767e-08,2.14461e-07,-6.76413e-08,0.00138144,0.0354552,1.51225e-05,0.0350093,2,2566
12,5.69008e-22,1,4157,71.87,-8.87317e-07,8.81538e-06,-3.26936e-08,8.85998e-06,27,-131.18,-164.33,1.0833e+07,1e+06,-7.35215e-08,2.13503e-07,-6.57251e-08,0.00106911,0.0354343,0.000305222,0.0349319,2,2567
12,5.22772e-22,1,4158,71.87,-9.61575e-07,8.85327e-06,-3.57685e-08,8.9054e-06,27.1875,-131.18,-164.33,8.89556e+06,906250,-7.93012e-08,2.22689e-07,-7.20904e-08,0.000287671,0.0341688,-3.99507e-05,0.0344897,2,2568
12,4.19676e-22,2,4159,84.09,-1.04592e-06,8.87664e-06,-4.48948e-08,8.93816e-06,29.125,154.9,-166.02,4.37488e+06,687500,-7.89111e-08,2.35197e-07,-8.92056e-08,-0.00128954,0.0315364,-0.000307649,0.0334548,3,1589
12,3.5219e-22,2,4160,103.3,-1.1194e-06,8.88363e-06,-5.07475e-08,8.95402e-06,32.4375,-73.15,30.56,1.14581e+06,531250,-5.91795e-08,2.24898e-07,-1.0118e-07,-0.00252974,0.0298446,-0.000170767,0.0328866,3,1590
12,3.41565e-22,2,4161,103.3,-1.16428e-06,8.86108e-06,-4.90412e-08,8.93737e-06,34,-73.15,30.56,500000,500000,-3.86505e-08,1.97609e-07,-9.81829e-08,-0.00232486,0.0279838,-0.000254798,0.0312606,3,1591
12,3.41565e-22,2,4162,103.3,-1.1967e-06,8.81552e-06,-4.36867e-08,8.89648e-06,34,-73.15,30.56,500000,500000,-3.11921e-08,1.73655e-07,-8.74135e-08,-0.00182154,0.0249799,-0.00014746,0.0279224,3,1592
12,3.41565e-22,2,4163,103.3,-1.22666e-06,8.77701e-06,-4.01878e-08,8.8624e-06,34,-73.15,30.56,500000,500000,-3.18543e-08,1.63256e-07,-8.01775e-08,-0.00174179,0.0231652,-1.15633e-05,0.0256486,3,1593
12,3.41565e-22,2,4164,103.3,-1.26041e-06,8.76291e-06,-3.87648e-08,8.85318e-06,34,-73.15,30.56,500000,500000,-3.61348e-08,1.65295e-07,-7.73271e-08,-0.00173678,0.0231202,0.000282898,0.0251404,3,1594
12,3.41565e-22,2,4165,103.3,-1.29893e-06,8.76851e-06,-3.6058e-08,8.86427e-06,34,-73.15,30.56,500000,500000,-3.92655e-08,1.66483e-07,-7.2577e-08,-0.00153304,0.0234347,0.000938349,0.0248776,3,1595
12,4.32617e-22,2,4166,103.3,-1.33894e-06,8.78427e-06,-3.26334e-08,8.88579e-06,37.9375,-73.15,30.56,2.43744e+06,593750,-4.1886e-08,1.58362e-07,-6.51728e-08,-0.00179439,0.024011,-0.000232178,0.0263295,3,1596
12,6.45071e-22,1,4167,130.6,-1.3827e-06,8.79846e-06,-2.6776e-08,8.90649e-06,47.125,117.2,-48.36,6.95813e+06,812500,-4.83147e-08,1.53957e-07,-5.36489e-08,-0.00200625,0.0271607,-0.000957995,0.0299362,2,2569
12,7.96824e-22,1,4168,130.6,-1.43557e-06,8.81057e-06,-2.23205e-08,8.92678e-06,53.6875,117.2,-48.36,1.01872e+07,968750,-5.6812e-08,1.61964e-07,-4.48714e-08,-0.00190297,0.031055,0.00041715,0.0325698,2,2570
12,8.27175e-22,1,4169,130.6,-1.49633e-06,8.83653e-06,-2.3818e-08,8.96235e-06,55,117.2,-48.36,1.0833e+07,1e+06,-6.31678e-08,1.72894e-07,-4.73607e-08,-0.00234177,0.0328246,0.000431585,0.0341264,2,2571
12,8.27175e-22,1,4170,130.6,-1.5619e-06,8.87948e-06,-2.58996e-08,9.01584e-06,55,117.2,-48.36,1.0833e+07,1e+06,-6.73834e-08,1.82196e-07,-5.18393e-08,-0.00271633,0.0339301,1.83721e-06,0.0354714,2,2572
12,8.27175e-22,1,4171,130.6,-1.6311e-06,8.93389e-06,-2.73396e-08,9.08161e-06,55,117.2,-48.36,1.0833e+07,1e+06,-7.08627e-08,1.90997e-07,-5.4668e-08,-0.00287729,0.035333,-4.15879e-06,0.0369051,2,2573
12,8.27175e-22,1,4172,130.6,-1.70363e-06,8.99687e-06,-2.85746e-08,9.15679e-06,55,117.2,-48.36,1.0833e+07,1e+06,-7.40072e-08,1.99028e-07,-5.71533e-08,-0.00302968,0.0366804,-8.75106e-06,0.0383117,2,2574
12,8.27175e-22,1,4173,130.6,-1.77911e-06,9.06628e-06,-2.96471e-08,9.23924e-06,55,117.2,-48.36,1.0833e+07,1e+06,-7.67553e-08,2.06109e-07,-5.92932e-08,-0.00316084,0.0379005,-1.07144e-05,0.0395922,2,2575
12,8.27175e-22,1,4174,130.6,-1.85714e-06,9.14055e-06,-3.05539e-08,9.32735e-06,55,117.2,-48.36,1.0833e+07,1e+06,-7.91411e-08,2.12162e-07,-6.1106e-08,-0.00328501,0.0389486,-1.53383e-05,0.0407039,2,2576
12,8.27175e-22,1,4175,130.6,-1.93739e-06,9.21875e-06,-3.13046e-08,9.42019e-06,55,117.2,-48.36,1.0833e+07,1e+06,-8.12573e-08,2.17227e-07,-6.26055e-08,-0.00342223,0.0398083,-1.9701e-05,0.041637,2,2577
12,8.27175e-22,1,4176,130.6,-2.01965e-06,9.30053e-06,-3.18958e-08,9.51735e-06,55,117.2,-48.36,1.0833e+07,1e+06,-8.31585e-08,2.21302e-07,-6.37874e-08,-0.00358654,0.0404653,-2.08425e-05,0.0423832,2,2578
12,8.27175e-22,1,4177,130.6,-2.10371e-06,9.38586e-06,-3.2314e-08,9.61878e-06,55,117.2,-48.36,1.0833e+07,1e+06,-8.47481e-08,2.24227e-07,-6.46175e-08,-0.00376572,0.0408925,-1.83673e-05,0.0429094,2,2579
12,8.27175e-22,1,4178,130.6,-2.18915e-06,9.47482e-06,-3.25302e-08,9.72449e-06,55,117.2,-48.36,1.0833e+07,1e+06,-8.56052e-08,2.25658e-07,-6.50639e-08,-0.00387928,0.0410638,-1.28123e-05,0.0431461,2,2580
12,8.27175e-22,1,4179,130.6,-2.27492e-06,9.56802e-06,-3.29741e-08,9.8348e-06,55,117.2,-48.36,1.0833e+07,1e+06,-8.49141e-08,2.2506e-07,-6.60054e-08,-0.00384091,0.0408643,-0.000272175,0.043052,2,2581
12,6.8732e-22,1,4180,130.6,-2.35898e-06,9.66627e-06,-3.36799e-08,9.95001e-06,58.25,117.2,-48.36,8.24975e+06,875000,-8.21076e-08,2.22032e-07,-6.73184e-08,-0.00371964,0.0371235,0.001143,0.0390415,2,2582
12,4.07609e-22,2,4181,95.17,-2.43913e-06,9.64527e-06,-4.41078e-08,9.949e-06,64.75,150.32,151.68,3.08325e+06,625000,-7.78516e-08,2.20679e-07,-8.81583e-08,-0.00426494,0.0281591,0.000307721,0.0308475,3,1597
12,2.67754e-22,2,4182,95.17,-2.51468e-06,9.50591e-06,-5.18278e-08,9.83304e-06,68,150.32,151.68,500000,500000,-7.55398e-08,2.22751e-07,-1.03672e-07,-0.00428615,0.0235668,-0.00108107,0.0266285,3,1598
12,2.67754e-22,2,4183,95.17,-2.59021e-06,9.37508e-06,-4.92613e-08,9.72645e-06,68,150.32,151.68,500000,500000,-7.69878e-08,2.25546e-07,-9.85316e-08,-0.00382334,0.0246937,4.0649e-05,0.0271078,3,1599
12,2.67754e-22,2,4184,95.17,-2.66866e-06,9.25364e-06,-4.93219e-08,9.63089e-06,68,150.32,151.68,500000,500000,-7.89852e-08,2.28493e-07,-9.86689e-08,-0.00398513,0.0251991,3.69585e-05,0.0277724,3,1600
12,2.67754e-22,2,4185,95.17,-2.74818e-06,9.14013e-06,-4.98661e-08,9.54447e-06,68,150.32,151.68,500000,500000,-7.98622e-08,2.31311e-07,-9.97353e-08,-0.00403738,0.0256207,3.30185e-05,0.0282656,3,1601
12,2.67754e-22,2,4186,95.17,-2.82838e-06,9.03273e-06,-5.05191e-08,9.46533e-06,68,150.32,151.68,500000,500000,-8.04612e-08,2.34067e-07,-1.01037e-07,-0.00404329,0.0259881,2.88909e-05,0.0286583,3,1602
12,2.67754e-22,2,4187,95.17,-2.90911e-06,8.93023e-06,-5.11878e-08,9.39226e-06,68,150.32,151.68,500000,500000,-8.08159e-08,2.36651e-07,-1.02376e-07,-0.00400995,0.0263244,3.15832e-05,0.0289863,3,1603
12,2.67754e-22,2,4188,95.17,-2.99001e-06,8.83277e-06,-5.17243e-08,9.32527e-06,68,150.32,151.68,500000,500000,-8.05346e-08,2.38362e-07,-1.03447e-07,-0.00391029,0.0265987,4.29608e-05,0.0292155,3,1604
12,2.67754e-22,2,4189,95.17,-3.07018e-06,8.74258e-06,-5.19071e-08,9.26614e-06,68,150.32,151.68,500000,500000,-7.89846e-08,2.37964e-07,-1.03806e-07,-0.00370864,0.0267171,5.39025e-05,0.0292513,3,1605
12,2.67754e-22,2,4190,95.17,-3.14798e-06,8.66427e-06,-5.16119e-08,9.21857e-06,68,150.32,151.68,500000,500000,-7.58549e-08,2.34638e-07,-1.03232e-07,-0.00341934,0.0266126,2.70413e-05,0.029074,3,1606
12,2.67754e-22,2,4191,95.17,-3.22189e-06,8.60372e-06,-5.11826e-08,9.18733e-06,68,150.32,151.68,500000,500000,-7.18293e-08,2.30318e-07,-1.02381e-07,-0.00307285,0.0265447,-1.85887e-05,0.0289776,3,1607
12,2.67754e-22,2,4192,95.17,-3.29164e-06,8.56346e-06,-5.13048e-08,9.17444e-06,68,150.32,151.68,500000,500000,-6.80588e-08,2.28958e-07,-1.02702e-07,-0.00263383,0.0269644,-4.03085e-06,0.0293521,3,1608
12,2.67754e-22,2,4193,95.17,-3.358e-06,8.53996e-06,-5.23599e-08,9.17659e-06,68,150.32,151.68,500000,500000,-6.52308e-08,2.31259e-07,-1.04774e-07,-0.00216516,0.0277639,5.93523e-06,0.0300976,3,1609
12,2.67754e-22,2,4194,95.17,-3.4221e-06,8.52786e-06,-5.40719e-08,9.18902e-06,68,150.32,151.68,500000,500000,-6.42806e-08,2.36112e-07,-1.08892e-07,-0.00197005,0.0285506,-0.00027175,0.0310831,3,1610
12,2.99435e-22,2,4195,95.17,-3.48656e-06,8.52357e-06,-5.6259e-08,9.20926e-06,68.8125,150.32,151.68,1.14581e+06,531250,-6.91275e-08,2.4846e-07,-1.11868e-07,-0.00173749,0.0304992,-0.000310077,0.0330565,3,1611
12,4.57843e-22,2,4196,95.17,-3.56036e-06,8.53541e-06,-5.31863e-08,9.24836e-06,72.875,150.32,151.68,4.37488e+06,687500,-8.33797e-08,2.5307e-07,-1.05088e-07,-0.00242762,0.0313647,-0.000545674,0.0341581,3,1612
12,6.79613e-22,1,4197,91.26,-3.65332e-06,8.58819e-06,-4.66051e-08,9.33306e-06,78.5625,-49.63,-179.82,8.89556e+06,906250,-9.62831e-08,2.48292e-07,-9.39865e-08,-0.00280103,0.0310199,-0.000551806,0.0333348,2,2583
12,7.74657e-22,1,4198,91.26,-3.75292e-06,8.65219e-06,-4.435e-08,9.43116e-06,81,-49.63,-179.82,1.0833e+07,1e+06,-9.59927e-08,2.4449e-07,-8.90848e-08,-0.00160633,0.0311538,-9.66429e-05,0.0323121,2,2584
12,7.74657e-22,1,4199,91.26,-3.84531e-06,8.68975e-06,-4.38325e-08,9.50264e-06,81,-49.63,-179.82,1.0833e+07,1e+06,-9.0552e-08,2.38239e-07,-8.74629e-08,-0.000731781,0.0306737,-8.91631e-05,0.0315314,2,2585
12,7.74657e-22,1,4200,91.26,-3.93403e-06,8.71164e-06,-4.30582e-08,9.55883e-06,81,-49.63,-179.82,1.0833e+07,1e+06,-8.84615e-08,2.34598e-07,-8.61627e-08,-0.000511363,0.0302962,-5.60655e-05,0.0311298,2,2586
12,7.74657e-22,1,4201,91.26,-4.02223e-06,8.72368e-06,-4.26946e-08,9.60639e-06,81,-49.63,-179.82,1.0833e+07,1e+06,-8.87254e-08,2.33396e-07,-8.54028e-08,-0.000697715,0.030088,-1.11914e-05,0.0309944,2,2587
12,7.74657e-22,1,4202,91.26,-4.11148e-06,8.72964e-06,-4.25399e-08,9.64949e-06,81,-49.63,-179.82,1.0833e+07,1e+06,-8.99877e-08,2.33466e-07,-8.50874e-08,-0.00103739,0.0299765,5.05982e-06,0.0309729,2,2588
12,7.74657e-22,1,4203,91.26,-4.20221e-06,8.7322e-06,-4.24542e-08,9.69081e-06,81,-49.63,-179.82,1.0833e+07,1e+06,-9.13499e-08,2.33801e-07,-8.48981e-08,-0.00137978,0.0298947,1.39486e-05,0.0309409,2,2589
12,7.74657e-22,1,4204,91.26,-4.29418e-06,8.73365e-06,-4.22706e-08,9.73233e-06,81,-49.63,-179.82,1.0833e+07,1e+06,-9.20922e-08,2.33463e-07,-8.45206e-08,-0.00161743,0.0297663,3.17573e-05,0.0307859,2,2590
12,7.74657e-22,1,4205,91.26,-4.38639e-06,8.73572e-06,-4.17863e-08,9.77522e-06,81,-49.63,-179.82,1.0833e+07,1e+06,-9.13703e-08,2.31207e-07,-8.35678e-08,-0.00164278,0.0294711,6.39978e-05,0.0303656,2,2591
12,7.74657e-22,1,4206,91.26,-4.47692e-06,8.73917e-06,-4.08431e-08,9.81924e-06,81,-49.63,-179.82,1.0833e+07,1e+06,-8.83379e-08,2.25841e-07,-8.17224e-08,-0.00134557,0.0288931,0.000102752,0.0295506,2,2592
12,7.74657e-22,1,4207,91.26,-4.56307e-06,8.74357e-06,-3.94314e-08,9.86271e-06,81,-49.63,-179.82,1.0833e+07,1e+06,-8.27258e-08,2.16835e-07,-7.89068e-08,-0.000704828,0.027958,0.000110545,0.0282887,2,2593
12,7.74657e-22,1,4208,91.26,-4.64237e-06,8.74755e-06,-3.71006e-08,9.90317e-06,81,-49.63,-179.82,1.0833e+07,1e+06,-7.51385e-08,2.05012e-07,-7.42141e-08,0.000288585,0.0268971,0.000404724,0.026619,2,2594
12,7.66148e-22,1,4209,91.26,-4.71334e-06,8.74919e-06,-3.60286e-08,9.93807e-06,89,-49.63,-179.82,1.0833e+07,1e+06,-5.98048e-08,1.92737e-07,-7.20414e-08,0.00121973,0.0294655,-0.000501715,0.0293251,2,2595
12,7.4913e-22,1,4210,137.15,-4.76198e-06,8.79557e-06,-3.28888e-08,1.0002e-05,105,109.19,-42.07,1.0833e+07,1e+06,-3.87667e-08,1.80868e-07,-6.57523e-08,0.00237906,0.0358701,-0.000403142,0.0351106,2,2596
12,7.40621e-22,1,4211,137.15,-4.79088e-06,8.87564e-06,-2.90841e-08,1.00861e-05,113,109.19,-42.07,1.0833e+07,1e+06,-2.71391e-08,1.71168e-07,-5.81487e-08,0.00342987,0.0386943,0.000446242,0.0369851,2,2597
12,7.40621e-22,1,4212,137.15,-4.81626e-06,8.93176e-06,-2.82052e-08,1.01476e-05,113,109.19,-42.07,1.0833e+07,1e+06,-2.39353e-08,1.65278e-07,-5.64009e-08,0.00398431,0.0381163,4.64277e-06,0.0366222,2,2598
12,7.40621e-22,1,4213,137.15,-4.83875e-06,8.96759e-06,-2.71518e-08,1.01898e-05,113,109.19,-42.07,1.0833e+07,1e+06,-2.14862e-08,1.61978e-07,-5.43061e-08,0.00455832,0.0381408,2.2947e-05,0.0366686,2,2599
12,7.40621e-22,1,4214,137.15,-4.85923e-06,8.98731e-06,-2.65724e-08,1.02169e-05,113,109.19,-42.07,1.0833e+07,1e+06,-1.97956e-08,1.6067e-07,-5.31496e-08,0.00501324,0.0384501,2.17901e-05,0.0370733,2,2600
12,7.40621e-22,1,4215,137.15,-4.87834e-06,8.99507e-06,-2.64086e-08,1.02328e-05,113,109.19,-42.07,1.0833e+07,1e+06,-1.87507e-08,1.61294e-07,-5.2821e-08,0.00539583,0.0390582,2.08205e-05,0.0377781,2,2601
12,7.40621e-22,1,4216,137.15,-4.89673e-06,8.99473e-06,-2.66577e-08,1.02413e-05,113,109.19,-42.07,1.0833e+07,1e+06,-1.83433e-08,1.63941e-07,-5.33139e-08,0.00571714,0.0400045,2.29765e-05,0.0387896,2,2602
12,7.40621e-22,1,4217,137.15,-4.91503e-06,8.99033e-06,-2.72785e-08,1.02462e-05,113,109.19,-42.07,1.0833e+07,1e+06,-1.84398e-08,1.68341e-07,-5.45539e-08,0.00599742,0.0412319,3.37708e-05,0.0400182,2,2603
12,7.40621e-22,1,4218,137.15,-4.93361e-06,8.98583e-06,-2.81477e-08,1.02512e-05,113,109.19,-42.07,1.0833e+07,1e+06,-1.87247e-08,1.73627e-07,-5.62983e-08,0.00626956,0.0425592,4.90171e-05,0.0412732,2,2604
12,7.40621e-22,1,4219,137.15,-4.95248e-06,8.98424e-06,-2.91319e-08,1.02589e-05,113,109.19,-42.07,1.0833e+07,1e+06,-1.88936e-08,1.79035e-07,-5.82735e-08,0.00657483,0.0438598,6.07492e-05,0.0424484,2,2605
12,7.40621e-22,1,4220,137.15,-4.9714e-06,8.98728e-06,-3.02242e-08,1.02707e-05,113,109.19,-42.07,1.0833e+07,1e+06,-1.89606e-08,1.84727e-07,-6.04701e-08,0.00692498,0.0452086,6.1211e-05,0.043647,2,2606
12,7.40621e-22,1,4221,137.15,-4.9904e-06,8.99675e-06,-3.16286e-08,1.02882e-05,113,109.19,-42.07,1.0833e+07,1e+06,-1.91009e-08,1.9194e-07,-6.33419e-08,0.0073413,0.0468514,8.47629e-05,0.0450369,2,2607
12,7.40621e-22,1,4222,137.15,-5.0096e-06,9.01872e-06,-3.48973e-08,1.03167e-05,113,109.19,-42.07,1.0833e+07,1e+06,-2.04663e-08,2.02361e-07,-6.96804e-08,0.00736214,0.0486941,-0.000432071,0.0469614,2,2608
12,7.54227e-22,1,4223,137.15,-5.03133e-06,9.06464e-06,-3.71793e-08,1.03674e-05,111.75,109.19,-42.07,1.0833e+07,1e+06,-3.41854e-08,2.19435e-07,-7.44484e-08,0.00701352,0.0474344,0.000475625,0.0451755,2,2609
12,7.81438e-22,1,4224,97.4,-5.07797e-06,9.09044e-06,-4.3513e-08,1.04127e-05,109.25,-41.8,1.73,1.0833e+07,1e+06,-5.87995e-08,2.42495e-07,-8.69864e-08,0.00663488,0.0407337,0.000569914,0.0382676,2,2610
12,7.95043e-22,1,4225,97.4,-5.14893e-06,9.08218e-06,-4.94716e-08,1.04403e-05,108,-41.8,1.73,1.0833e+07,1e+06,-7.22294e-08,2.55664e-07,-9.87292e-08,0.00618666,0.0363359,-0.000534114,0.0342433,2,2611
12,7.95043e-22,1,4226,97.4,-5.22243e-06,9.08113e-06,-4.94232e-08,1.04758e-05,108,-41.8,1.73,1.0833e+07,1e+06,-7.51749e-08,2.60165e-07,-9.89633e-08,0.00591884,0.0369162,-0.000191835,0.034547,2,2612
12,7.95043e-22,1,4227,97.4,-5.29928e-06,9.09516e-06,-5.05513e-08,1.05265e-05,108,-41.8,1.73,1.0833e+07,1e+06,-7.97763e-08,2.68471e-07,-1.01148e-07,0.00557234,0.0378763,-5.17672e-05,0.0355456,2,2613
12,7.95043e-22,1,4228,97.4,-5.38198e-06,9.12753e-06,-5.18246e-08,1.05962e-05,108,-41.8,1.73,1.0833e+07,1e+06,-8.56671e-08,2.77731e-07,-1.03622e-07,0.00495617,0.0388523,3.1959e-05,0.036828,2,2614
12,7.95043e-22,1,4229,97.4,-5.47061e-06,9.17853e-06,-5.2706e-08,1.06853e-05,108,-41.8,1.73,1.0833e+07,1e+06,-9.03538e-08,2.84629e-07,-1.05354e-07,0.0044332,0.039554,9.07332e-05,0.0379293,2,2615
12,7.95043e-22,1,4230,97.4,-5.56269e-06,9.24884e-06,-5.13745e-08,1.07929e-05,108,-41.8,1.73,1.0833e+07,1e+06,-9.01836e-08,2.83836e-07,-1.02342e-07,0.00468061,0.0397182,0.000863929,0.0379255,2,2616
12,7.81438e-22,1,4231,97.4,-5.65098e-06,9.33714e-06,-5.00255e-08,1.09141e-05,109.25,-41.8,1.73,1.0833e+07,1e+06,-7.28933e-08,2.68511e-07,-9.93281e-08,0.00516083,0.042532,3.79003e-05,0.0416327,2,2617
12,7.54227e-22,1,4232,137.15,-5.70848e-06,9.50283e-06,-4.34855e-08,1.10857e-05,111.75,109.19,-42.07,1.0833e+07,1e+06,-4.16941e-08,2.37156e-07,-8.75098e-08,0.00619735,0.0465776,0.000736454,0.0444656,2,2618
12,7.40621e-22,1,4233,137.15,-5.73437e-06,9.71234e-06,-3.59194e-08,1.12789e-05,113,109.19,-42.07,1.0833e+07,1e+06,-2.25167e-08,2.09982e-07,-7.26173e-08,0.00767718,0.0467272,0.00252523,0.0421447,2,2619
12,7.40621e-22,1,4234,137.15,-5.75351e-06,9.87377e-06,-3.40146e-08,1.14278e-05,113,109.19,-42.07,1.0833e+07,1e+06,-1.85352e-08,1.9944e-07,-6.80058e-08,0.00825694,0.0455346,0.00217201,0.0407886,2,2620
12,7.16373e-22,1,4235,137.15,-5.77144e-06,1.00051e-05,-3.44979e-08,1.15504e-05,113.625,109.19,-42.07,1.01872e+07,968750,-2.00891e-08,2.01904e-07,-6.94991e-08,0.00804782,0.0449067,0.00207352,0.0403932,2,2621
12,5.95134e-22,1,4236,137.15,-5.79369e-06,1.01112e-05,-4.61593e-08,1.16536e-05,116.75,109.19,-42.07,6.95812e+06,812500,-2.54596e-08,2.22708e-07,-9.2977e-08,0.00683777,0.0408602,0.000849032,0.0382933,2,2622
12,4.25398e-22,2,4237,155.53,-5.82236e-06,1.01713e-05,-6.65438e-08,1.172e-05,121.125,-173.56,119.95,2.43744e+06,593750,-2.93069e-08,2.46871e-07,-1.32932e-07,0.0047629,0.0322627,-0.00037855,0.0317522,3,1613
12,3.50114e-22,2,4238,155.53,-5.8523e-06,1.0223e-05,-7.5932e-08,1.17798e-05,122.938,-173.56,119.95,500000,500000,-2.84895e-08,2.58004e-07,-1.50088e-07,0.00444204,0.0285387,0.000219772,0.0276513,3,1614
12,3.39952e-22,2,4239,155.53,-5.87934e-06,1.02764e-05,-6.90775e-08,1.18396e-05,122.688,-173.56,119.95,500000,500000,-2.20147e-08,2.4153e-07,-1.38124e-07,0.00434433,0.0288761,0.000801217,0.0277811,3,1615
12,3.2725e-22,2,4240,94.25,-5.89633e-06,1.02682e-05,-6.31993e-08,1.18409e-05,122.375,20.61,141.14,500000,500000,-1.37497e-08,2.11356e-07,-1.27385e-07,0.00237667,0.0267145,0.000261072,0.0265629,3,1616
12,3.22169e-22,2,4241,94.25,-5.90684e-06,1.02198e-05,-6.00663e-08,1.18042e-05,122.25,20.61,141.14,500000,500000,-1.17689e-08,1.93128e-07,-1.19927e-07,0.00114361,0.0244044,0.000130977,0.0243767,3,1617
12,3.22169e-22,2,4242,94.25,-5.91987e-06,1.01519e-05,-5.45463e-08,1.1752e-05,122.25,20.61,141.14,500000,500000,-1.34527e-08,1.77934e-07,-1.09041e-07,0.000701315,0.0222232,0.000249604,0.0221767,3,1618
12,5.69008e-22,1,4243,71.87,-2.20429e-08,8.14955e-06,-2.82342e-08,8.14963e-06,27,-131.18,-164.33,1.0833e+07,1e+06,-4.36989e-08,1.74335e-07,-5.64671e-08,0.00492534,0.0312457,0.000594444,0.0288863,2,2623
12,5.69008e-22,1,4244,71.87,-6.53549e-08,8.20961e-06,-2.96865e-08,8.20992e-06,27,-131.18,-164.33,1.0833e+07,1e+06,-4.28527e-08,1.71909e-07,-5.94049e-08,0.00500333,0.0300961,-0.000573316,0.028324,2,2624
12,5.69008e-22,1,4245,71.87,-1.07748e-07,8.26756e-06,-2.86047e-08,8.26831e-06,27,-131.18,-164.33,1.0833e+07,1e+06,-4.23959e-08,1.70651e-07,-5.72072e-08,0.00520915,0.0300439,-3.48683e-05,0.027861,2,2625
12,5.69008e-22,1,4246,71.87,-1.50147e-07,8.32338e-06,-2.8743e-08,8.32479e-06,27,-131.18,-164.33,1.0833e+07,1e+06,-4.28812e-08,1.71843e-07,-5.74545e-08,0.00521053,0.0302629,-2.73085e-05,0.0280656,2,2626
12,5.69008e-22,1,4247,71.87,-1.93511e-07,8.37852e-06,-2.91411e-08,8.38081e-06,27,-131.18,-164.33,1.0833e+07,1e+06,-4.43804e-08,1.75018e-07,-5.82692e-08,0.00511345,0.030773,-1.35094e-05,0.0285939,2,2627
12,5.69008e-22,1,4248,71.87,-2.38908e-07,8.4342e-06,-2.96707e-08,8.43763e-06,27,-131.18,-164.33,1.0833e+07,1e+06,-4.673e-08,1.79181e-07,-5.93486e-08,0.00488527,0.0313532,-1.71008e-06,0.0292517,2,2628
12,5.69008e-22,1,4249,71.87,-2.86971e-07,8.49097e-06,-3.02771e-08,8.49587e-06,27,-131.18,-164.33,1.0833e+07,1e+06,-4.95344e-08,1.8376e-07,-6.05596e-08,0.00457839,0.0319314,6.03547e-06,0.0299543,2,2629
12,5.69008e-22,1,4250,71.87,-3.37976e-07,8.54909e-06,-3.09258e-08,8.55583e-06,27,-131.18,-164.33,1.0833e+07,1e+06,-5.24837e-08,1.88454e-07,-6.18536e-08,0.00424358,0.0324907,5.00681e-06,0.030672,2,2630
12,5.69008e-22,1,4251,71.87,-3.91938e-07,8.60873e-06,-3.15856e-08,8.61771e-06,27,-131.18,-164.33,1.0833e+07,1e+06,-5.54055e-08,1.93104e-07,-6.31716e-08,0.00391229,0.0330292,1.2708e-06,0.0313872,2,2631
12,5.69008e-22,1,4252,71.87,-4.48787e-07,8.66986e-06,-3.22299e-08,8.68153e-06,27,-131.18,-164.33,1.0833e+07,1e+06,-5.82558e-08,1.97622e-07,-6.44598e-08,0.0035875,0.0335463,-2.68175e-06,0.0320926,2,2632
12,5.69008e-22,1,4253,71.87,-5.0845e-07,8.73224e-06,-3.28369e-08,8.7471e-06,27,-131.18,-164.33,1.0833e+07,1e+06,-6.10358e-08,2.01964e-07,-6.56752e-08,0.00326407,0.0340443,-5.65998e-06,0.0327844,2,2633
12,5.69008e-22,1,4254,71.87,-5.70859e-07,8.79543e-06,-3.33935e-08,8.814e-06,27,-131.18,-164.33,1.0833e+07,1e+06,-6.37146e-08,2.06088e-07,-6.67834e-08,0.00294605,0.0345294,-5.59536e-06,0.0334556,2,2634
12,5.69008e-22,1,4255,71.87,-6.35879e-07,8.85869e-06,-3.38675e-08,8.88154e-06,27,-131.18,-164.33,1.0833e+07,1e+06,-6.61709e-08,2.09817e-07,-6.77406e-08,0.00264775,0.0349861,-7.64921e-06,0.0340754,2,2635
12,5.69008e-22,1,4256,71.87,-7.03201e-07,8.92073e-06,-3.42223e-08,8.94847e-06,27,-131.18,-164.33,1.0833e+07,1e+06,-6.82048e-08,2.12872e-07,-6.84229e-08,0.00239794,0.0354002,-3.84965e-06,0.0345944,2,2636
12,5.69008e-22,1,4257,71.87,-7.72289e-07,8.9793e-06,-3.43786e-08,9.01252e-06,27,-131.18,-164.33,1.0833e+07,1e+06,-6.98846e-08,2.15253e-07,-6.89261e-08,0.00216254,0.0357789,-4.91333e-05,0.0350436,2,2637
12,5.69008e-22,1,4258,71.87,-8.4297e-07,9.03141e-06,-3.45881e-08,9.07073e-06,27,-131.18,-164.33,1.0833e+07,1e+06,-7.22134e-08,2.18252e-07,-6.87303e-08,0.00186279,0.0363222,0.000136726,0.0355319,2,2638
12,5.52998e-22,1,4259,71.87,-9.16715e-07,9.07995e-06,-3.48153e-08,9.12618e-06,26.875,-131.18,-164.33,1.01872e+07,968750,-7.73919e-08,2.24199e-07,-6.96556e-08,0.0012593,0.0362058,0.000378052,0.0356418,2,2639
12,4.94342e-22,1,4260,71.87,-9.97754e-07,9.11437e-06,-3.77464e-08,9.1689e-06,28.0625,-131.18,-164.33,7.60394e+06,843750,-7.86202e-08,2.29229e-07,-7.5674e-08,-8.51518e-05,0.0348135,0.000475115,0.0353644,2,2640
12,4.10846e-22,2,4261,103.3,-1.07396e-06,9.11001e-06,-4.3507e-08,9.17319e-06,31.25,-73.15,30.56,3.72906e+06,656250,-6.54316e-08,2.23415e-07,-8.61068e-08,-0.00177643,0.0329775,0.000428647,0.0353557,3,1619
12,3.5578e-22,2,4262,103.3,-1.12862e-06,9.05697e-06,-4.25496e-08,9.12712e-06,33.5625,-73.15,30.56,1.14581e+06,531250,-4.63257e-08,1.96435e-07,-8.56014e-08,-0.00239544,0.0291069,0.000514373,0.0323917,3,1620
12,3.41565e-22,2,4263,103.3,-1.16661e-06,8.98358e-06,-3.59995e-08,9.05908e-06,34,-73.15,30.56,500000,500000,-3.59472e-08,1.67118e-07,-7.31734e-08,-0.00173129,0.0248937,0.0010807,0.0273902,3,1621
12,3.41565e-22,2,4264,103.3,-1.20051e-06,8.9352e-06,-3.22904e-08,9.01554e-06,34,-73.15,30.56,500000,500000,-3.64431e-08,1.56875e-07,-6.49847e-08,-0.00135902,0.0231251,0.00141074,0.0247631,3,1622
12,3.42967e-22,2,4265,103.3,-1.23949e-06,8.92592e-06,-3.2819e-08,9.01163e-06,33.875,-73.15,30.56,500000,500000,-4.19504e-08,1.59888e-07,-6.52339e-08,-0.00178929,0.0231827,0.000636859,0.0250928,3,1623
12,3.45771e-22,2,4266,103.3,-1.28441e-06,8.93291e-06,-3.22668e-08,9.02483e-06,33.625,-73.15,30.56,500000,500000,-4.57858e-08,1.59761e-07,-6.35317e-08,-0.00223629,0.0233808,-5.91046e-05,0.0258172,3,1624
12,4.67174e-22,2,4267,103.3,-1.33106e-06,8.93626e-06,-2.78295e-08,9.03489e-06,38.875,-73.15,30.56,3.08325e+06,625000,-4.79629e-08,1.48171e-07,-5.53577e-08,-0.00289776,0.0235545,-0.001155,0.0269693,3,1625
12,7.07175e-22,1,4268,130.6,-1.38034e-06,8.9453e-06,-2.12866e-08,9.0512e-06,49.625,117.2,-48.36,8.24975e+06,875000,-5.22146e-08,1.45314e-07,-4.34077e-08,-0.00267372,0.0267688,-0.000275059,0.0292968,2,2641
12,8.27175e-22,1,4269,130.6,-1.43549e-06,8.96905e-06,-2.00583e-08,9.08323e-06,55,117.2,-48.36,1.0833e+07,1e+06,-5.80472e-08,1.57008e-07,-4.02809e-08,-0.00223591,0.0302861,0.00103722,0.0313907,2,2642
12,8.27175e-22,1,4270,130.6,-1.49643e-06,9.0079e-06,-2.38306e-08,9.13138e-06,55,117.2,-48.36,1.0833e+07,1e+06,-6.33219e-08,1.69707e-07,-4.72148e-08,-0.00269887,0.0318663,0.000163368,0.0334269,2,2643
12,8.27175e-22,1,4271,130.6,-1.56214e-06,9.06076e-06,-2.55303e-08,9.19447e-06,55,117.2,-48.36,1.0833e+07,1e+06,-6.76726e-08,1.80249e-07,-5.11356e-08,-0.00295703,0.0334053,7.97478e-06,0.0350587,2,2644
12,8.27175e-22,1,4272,130.6,-1.63178e-06,9.12436e-06,-2.71125e-08,9.26916e-06,55,117.2,-48.36,1.0833e+07,1e+06,-7.13136e-08,1.89883e-07,-5.42257e-08,-0.00309983,0.0349991,-4.49798e-06,0.0366856,2,2645
12,8.27175e-22,1,4273,130.6,-1.70477e-06,9.19565e-06,-2.8445e-08,9.35238e-06,55,117.2,-48.36,1.0833e+07,1e+06,-7.43777e-08,1.98463e-07,-5.68908e-08,-0.00318182,0.0364944,-4.45257e-06,0.0382044,2,2646
12,8.27175e-22,1,4274,130.6,-1.78053e-06,9.27228e-06,-2.95622e-08,9.44173e-06,55,117.2,-48.36,1.0833e+07,1e+06,-7.6879e-08,2.05673e-07,-5.91235e-08,-0.00323322,0.0377766,-8.0068e-06,0.0395058,2,2647
12,8.27175e-22,1,4275,130.6,-1.85852e-06,9.35261e-06,-3.04886e-08,9.53553e-06,55,117.2,-48.36,1.0833e+07,1e+06,-7.89218e-08,2.11582e-07,-6.09756e-08,-0.0032732,0.0388226,-1.5456e-05,0.0405703,2,2648
12,8.27175e-22,1,4276,130.6,-1.93838e-06,9.43583e-06,-3.12509e-08,9.63292e-06,55,117.2,-48.36,1.0833e+07,1e+06,-8.07195e-08,2.16395e-07,-6.24991e-08,-0.00334149,0.0396396,-2.50503e-05,0.0414245,2,2649
12,8.27175e-22,1,4277,130.6,-2.01996e-06,9.52163e-06,-3.18601e-08,9.73358e-06,55,117.2,-48.36,1.0833e+07,1e+06,-8.24713e-08,2.20263e-07,-6.37153e-08,-0.00348043,0.0402366,-3.68984e-05,0.0421022,2,2650
12,8.27175e-22,1,4278,130.6,-2.10332e-06,9.60988e-06,-3.23061e-08,9.83741e-06,55,117.2,-48.36,1.0833e+07,1e+06,-8.42771e-08,2.23201e-07,-6.46104e-08,-0.00372075,0.0406135,-5.56888e-05,0.042625,2,2651
12,8.27175e-22,1,4279,130.6,-2.18852e-06,9.70035e-06,-3.25911e-08,9.94422e-06,55,117.2,-48.36,1.0833e+07,1e+06,-8.59269e-08,2.2499e-07,-6.51384e-08,-0.0040366,0.0407692,-8.83591e-05,0.0429822,2,2652
12,8.27175e-22,1,4280,130.6,-2.27517e-06,9.79284e-06,-3.30114e-08,1.00537e-05,55,117.2,-48.36,1.0833e+07,1e+06,-8.62684e-08,2.24975e-07,-6.6142e-08,-0.00426893,0.040634,-0.000394749,0.0431303,2,2653
12,6.8732e-22,1,4281,130.6,-2.36105e-06,9.88707e-06,-3.2852e-08,1.01651e-05,58.25,117.2,-48.36,8.24975e+06,875000,-8.44196e-08,2.19646e-07,-6.60933e-08,-0.00450595,0.036522,0.000943535,0.0390182,2,2654
12,4.07609e-22,2,4282,95.17,-2.44401e-06,9.86424e-06,-4.25533e-08,1.01626e-05,64.75,150.32,151.68,3.08325e+06,625000,-8.16411e-08,2.16499e-07,-8.48108e-08,-0.00518756,0.0273596,3.04502e-05,0.0307327,3,1626
12,2.67754e-22,2,4283,95.17,-2.52434e-06,9.72766e-06,-5.05009e-08,1.005e-05,68,150.32,151.68,500000,500000,-8.10189e-08,2.20213e-07,-1.00661e-07,-0.00528037,0.0229431,-0.00155588,0.0267721,3,1627
12,2.67754e-22,2,4284,95.17,-2.60605e-06,9.60038e-06,-4.84249e-08,9.94792e-06,68,150.32,151.68,500000,500000,-8.32351e-08,2.24462e-07,-9.70388e-08,-0.00497272,0.024065,-0.000621438,0.0274096,3,1628
12,2.67754e-22,2,4285,95.17,-2.69081e-06,9.48254e-06,-4.89884e-08,9.85705e-06,68,150.32,151.68,500000,500000,-8.51951e-08,2.28442e-07,-9.79877e-08,-0.00509356,0.0246618,-0.000649858,0.028151,3,1629
12,2.67754e-22,2,4286,95.17,-2.77644e-06,9.37229e-06,-4.98296e-08,9.77501e-06,68,150.32,151.68,500000,500000,-8.58658e-08,2.31912e-07,-9.96597e-08,-0.00509154,0.0251517,-0.000670519,0.0286837,3,1630
12,2.67754e-22,2,4287,95.17,-2.86254e-06,9.26792e-06,-5.06693e-08,9.70005e-06,68,150.32,151.68,500000,500000,-8.63048e-08,2.35059e-07,-1.01336e-07,-0.0050592,0.0255645,-0.000684616,0.0291017,3,1631
12,2.67754e-22,2,4288,95.17,-2.94905e-06,9.16814e-06,-5.1441e-08,9.63091e-06,68,150.32,151.68,500000,500000,-8.66561e-08,2.37891e-07,-1.02879e-07,-0.00501347,0.0259151,-0.000689064,0.0294337,3,1632
12,2.67754e-22,2,4289,95.17,-3.03585e-06,9.07254e-06,-5.20509e-08,9.56713e-06,68,150.32,151.68,500000,500000,-8.66638e-08,2.3997e-07,-1.04099e-07,-0.00493165,0.0261805,-0.000679879,0.0296472,3,1633
12,2.67754e-22,2,4290,95.17,-3.12238e-06,8.98216e-06,-5.23293e-08,9.50953e-06,68,150.32,151.68,500000,500000,-8.56788e-08,2.40273e-07,-1.04655e-07,-0.00475641,0.0262841,-0.000652881,0.029637,3,1634
12,2.67754e-22,2,4291,95.17,-3.20721e-06,8.90037e-06,-5.21092e-08,9.46073e-06,68,150.32,151.68,500000,500000,-8.26736e-08,2.37364e-07,-1.04256e-07,-0.00441048,0.0261284,-0.000636536,0.029292,3,1635
12,2.67754e-22,2,4292,95.17,-3.28772e-06,8.83453e-06,-5.15773e-08,9.42659e-06,68,150.32,151.68,500000,500000,-7.76383e-08,2.31176e-07,-1.03053e-07,-0.00396667,0.0257528,-0.000683187,0.028787,3,1636
12,2.67754e-22,2,4293,95.17,-3.36248e-06,8.79233e-06,-5.15056e-08,9.4135e-06,68,150.32,151.68,500000,500000,-7.31119e-08,2.28192e-07,-1.02611e-07,-0.00351142,0.0260066,-0.000563018,0.0289243,3,1637
12,2.67754e-22,2,4294,95.17,-3.43395e-06,8.77107e-06,-5.16468e-08,9.41947e-06,68,150.32,151.68,500000,500000,-7.09521e-08,2.29891e-07,-1.03931e-07,-0.00327205,0.026809,-0.000543794,0.0298453,3,1638
12,2.67754e-22,2,4295,95.17,-3.50439e-06,8.76426e-06,-5.24254e-08,9.43906e-06,68,150.32,151.68,500000,500000,-7.19512e-08,2.33375e-07,-1.04951e-07,-0.0033925,0.027679,-0.000680505,0.0311409,3,1639
12,2.79723e-22,2,4296,95.17,-3.57785e-06,8.77125e-06,-5.12856e-08,9.47304e-06,68.125,150.32,151.68,1.14581e+06,531250,-7.44868e-08,2.40782e-07,-1.02594e-07,-0.0027721,0.0301791,-0.000423452,0.0336347,3,1640
12,4.18417e-22,2,4297,95.17,-3.65336e-06,8.79639e-06,-5.07144e-08,9.52502e-06,71.5,150.32,151.68,4.37488e+06,687500,-7.78068e-08,2.57253e-07,-1.01342e-07,9.28955e-05,0.0347915,7.08341e-05,0.0366383,3,1641
12,6.599e-22,1,4298,91.26,-3.73346e-06,8.84756e-06,-5.04739e-08,9.60316e-06,77.875,-49.63,-179.82,8.89556e+06,906250,-8.18641e-08,2.60597e-07,-1.00006e-07,0.00238016,0.0354564,-0.000213041,0.035437,2,2655
12,7.74657e-22,1,4299,91.26,-3.81709e-06,8.89855e-06,-4.68297e-08,9.6828e-06,81,-49.63,-179.82,1.0833e+07,1e+06,-8.17704e-08,2.45236e-07,-9.40178e-08,0.00236677,0.0325663,-0.000508024,0.0320808,2,2656
12,7.74657e-22,1,4300,91.26,-3.897e-06,8.92697e-06,-4.41442e-08,9.7406e-06,81,-49.63,-179.82,1.0833e+07,1e+06,-7.95797e-08,2.34878e-07,-8.86509e-08,0.00196409,0.0312121,-0.000139322,0.0307817,2,2657
12,7.74657e-22,1,4301,91.26,-3.97625e-06,8.94405e-06,-4.30281e-08,9.78818e-06,81,-49.63,-179.82,1.0833e+07,1e+06,-7.99967e-08,2.30362e-07,-8.60435e-08,0.00140558,0.0304739,4.48144e-06,0.0302409,2,2658
12,7.74657e-22,1,4302,91.26,-4.057e-06,8.95444e-06,-4.23824e-08,9.83072e-06,81,-49.63,-179.82,1.0833e+07,1e+06,-8.17757e-08,2.28612e-07,-8.47801e-08,0.000737349,0.0300046,1.88906e-05,0.0300544,2,2659
12,7.74657e-22,1,4303,91.26,-4.1398e-06,8.9601e-06,-4.19867e-08,9.87032e-06,81,-49.63,-179.82,1.0833e+07,1e+06,-8.37171e-08,2.27865e-07,-8.3965e-08,0.000125037,0.0296828,2.4873e-05,0.0299659,2,2660
12,7.74657e-22,1,4304,91.26,-4.22443e-06,8.96251e-06,-4.16429e-08,9.90829e-06,81,-49.63,-179.82,1.0833e+07,1e+06,-8.5217e-08,2.27186e-07,-8.32777e-08,-0.000357779,0.0294175,3.32185e-05,0.0298466,2,2661
12,7.74657e-22,1,4305,91.26,-4.31023e-06,8.96293e-06,-4.12182e-08,9.94555e-06,81,-49.63,-179.82,1.0833e+07,1e+06,-8.57812e-08,2.25736e-07,-8.24361e-08,-0.000659133,0.0291214,4.97609e-05,0.0295942,2,2662
12,7.74657e-22,1,4306,91.26,-4.39599e-06,8.96211e-06,-4.06075e-08,9.98228e-06,81,-49.63,-179.82,1.0833e+07,1e+06,-8.4867e-08,2.22718e-07,-8.12265e-08,-0.000712184,0.0287131,6.75403e-05,0.0291183,2,2663
12,7.74657e-22,1,4307,91.26,-4.47997e-06,8.96013e-06,-3.97615e-08,1.00178e-05,81,-49.63,-179.82,1.0833e+07,1e+06,-8.21033e-08,2.17675e-07,-7.95408e-08,-0.000460713,0.028153,8.18207e-05,0.028371,2,2664
12,7.74657e-22,1,4308,91.26,-4.5602e-06,8.9566e-06,-3.87036e-08,1.00508e-05,81,-49.63,-179.82,1.0833e+07,1e+06,-7.76106e-08,2.10704e-07,-7.74249e-08,7.6967e-05,0.0274414,7.64668e-05,0.0273753,2,2665
12,7.74657e-22,1,4309,91.26,-4.63519e-06,8.95092e-06,-3.69649e-08,1.00799e-05,81,-49.63,-179.82,1.0833e+07,1e+06,-7.1892e-08,2.02418e-07,-7.39275e-08,0.000914403,0.02678,0.00036134,0.0261658,2,2666
12,7.66148e-22,1,4310,91.26,-4.70399e-06,8.94246e-06,-3.62687e-08,1.01043e-05,89,-49.63,-179.82,1.0833e+07,1e+06,-5.83836e-08,1.93738e-07,-7.25225e-08,0.00170347,0.029949,-0.000506797,0.0295456,2,2667
12,7.4913e-22,1,4311,137.15,-4.75196e-06,8.97828e-06,-3.31486e-08,1.01583e-05,105,109.19,-42.07,1.0833e+07,1e+06,-3.83665e-08,1.84171e-07,-6.62899e-08,0.00277421,0.0370199,-0.00037892,0.0360913,2,2668
12,7.40621e-22,1,4312,137.15,-4.78072e-06,9.04893e-06,-2.93834e-08,1.02342e-05,113,109.19,-42.07,1.0833e+07,1e+06,-2.69993e-08,1.75074e-07,-5.87603e-08,0.00377271,0.0400508,0.00044929,0.0382745,2,2669
12,7.40621e-22,1,4313,137.15,-4.80596e-06,9.0988e-06,-2.85398e-08,1.02901e-05,113,109.19,-42.07,1.0833e+07,1e+06,-2.3686e-08,1.68619e-07,-5.70725e-08,0.00430684,0.0392484,-3.13057e-06,0.0377447,2,2670
12,7.40621e-22,1,4314,137.15,-4.82809e-06,9.13084e-06,-2.74428e-08,1.03288e-05,113,109.19,-42.07,1.0833e+07,1e+06,-2.11059e-08,1.64507e-07,-5.48831e-08,0.00485604,0.0390168,5.53256e-06,0.0375634,2,2671
12,7.40621e-22,1,4315,137.15,-4.84817e-06,9.14892e-06,-2.67995e-08,1.03541e-05,113,109.19,-42.07,1.0833e+07,1e+06,-1.95228e-08,1.62632e-07,-5.36003e-08,0.00523783,0.0391285,3.13112e-06,0.037793,2,2672
12,7.40621e-22,1,4316,137.15,-4.86714e-06,9.15714e-06,-2.65765e-08,1.03703e-05,113,109.19,-42.07,1.0833e+07,1e+06,-1.88658e-08,1.6298e-07,-5.31535e-08,0.00548849,0.0395946,5.64699e-06,0.0383823,2,2673
12,7.40621e-22,1,4317,137.15,-4.8859e-06,9.15931e-06,-2.67406e-08,1.0381e-05,113,109.19,-42.07,1.0833e+07,1e+06,-1.904e-08,1.65402e-07,-5.34792e-08,0.00562755,0.0404023,1.18783e-05,0.039293,2,2674
12,7.40621e-22,1,4318,137.15,-4.90522e-06,9.15906e-06,-2.72195e-08,1.03899e-05,113,109.19,-42.07,1.0833e+07,1e+06,-1.9845e-08,1.69451e-07,-5.44371e-08,0.00568381,0.0414688,2.23974e-05,0.0404257,2,2675
12,7.40621e-22,1,4319,137.15,-4.92559e-06,9.1596e-06,-2.79057e-08,1.04e-05,113,109.19,-42.07,1.0833e+07,1e+06,-2.10146e-08,1.74461e-07,-5.5812e-08,0.00569146,0.0426708,3.46263e-05,0.0416578,2,2676
12,7.40621e-22,1,4320,137.15,-4.94725e-06,9.16339e-06,-2.87083e-08,1.04136e-05,113,109.19,-42.07,1.0833e+07,1e+06,-2.23441e-08,1.79966e-07,-5.74236e-08,0.00568203,0.0439407,4.51111e-05,0.0429359,2,2677
12,7.40621e-22,1,4321,137.15,-4.97028e-06,9.1723e-06,-2.96421e-08,1.04324e-05,113,109.19,-42.07,1.0833e+07,1e+06,-2.37983e-08,1.86032e-07,-5.92843e-08,0.00567127,0.0453079,5.25186e-05,0.0442921,2,2678
12,7.40621e-22,1,4322,137.15,-4.99484e-06,9.189e-06,-3.07714e-08,1.04588e-05,113,109.19,-42.07,1.0833e+07,1e+06,-2.52364e-08,1.93026e-07,-6.15897e-08,0.00571848,0.0468185,0.000105879,0.0456646,2,2679
12,7.40621e-22,1,4323,137.15,-5.02075e-06,9.21978e-06,-3.29736e-08,1.04983e-05,113,109.19,-42.07,1.0833e+07,1e+06,-2.66682e-08,2.0041e-07,-6.60823e-08,0.00560477,0.0479218,-0.000159865,0.0467027,2,2680
12,7.50825e-22,1,4324,137.15,-5.04818e-06,9.27972e-06,-3.47859e-08,1.0564e-05,112.062,109.19,-42.07,1.0833e+07,1e+06,-3.53391e-08,2.06719e-07,-6.98244e-08,0.00510161,0.0452964,-5.72476e-05,0.0440417,2,2681
12,7.74635e-22,1,4325,97.4,-5.09143e-06,9.3291e-06,-4.03344e-08,1.06281e-05,109.875,-41.8,1.73,1.0833e+07,1e+06,-5.30586e-08,2.23545e-07,-8.00771e-08,0.00536339,0.0395004,-4.83034e-05,0.0379699,2,2682
12,7.91642e-22,1,4326,97.4,-5.1543e-06,9.33341e-06,-4.58807e-08,1.06621e-05,108.313,-41.8,1.73,1.0833e+07,1e+06,-6.69829e-08,2.3967e-07,-9.14682e-08,0.00550973,0.0352921,-0.000541713,0.0335994,2,2683
12,7.95043e-22,1,4327,97.4,-5.22539e-06,9.33582e-06,-4.70068e-08,1.06988e-05,108,-41.8,1.73,1.0833e+07,1e+06,-7.55049e-08,2.49373e-07,-9.44662e-08,0.00471873,0.0349379,-0.000297362,0.033152,2,2684
12,7.95043e-22,1,4328,97.4,-5.30531e-06,9.36126e-06,-4.89762e-08,1.07602e-05,108,-41.8,1.73,1.0833e+07,1e+06,-8.46139e-08,2.64431e-07,-9.79445e-08,0.00385506,0.0366907,3.85633e-05,0.035068,2,2685
12,7.95043e-22,1,4329,97.4,-5.39462e-06,9.40494e-06,-5.08052e-08,1.08424e-05,108,-41.8,1.73,1.0833e+07,1e+06,-9.23658e-08,2.76865e-07,-1.01596e-07,0.00302746,0.0380039,6.37938e-05,0.0368538,2,2686
12,7.95043e-22,1,4330,97.4,-5.49004e-06,9.46255e-06,-5.17387e-08,1.094e-05,108,-41.8,1.73,1.0833e+07,1e+06,-9.61707e-08,2.83376e-07,-1.03428e-07,0.00268939,0.0387343,0.000104572,0.0378673,2,2687
12,7.95043e-22,1,4331,97.4,-5.58696e-06,9.53034e-06,-5.03765e-08,1.10474e-05,108,-41.8,1.73,1.0833e+07,1e+06,-9.41789e-08,2.81018e-07,-1.00901e-07,0.00319829,0.0387391,0.000661765,0.0374943,2,2688
12,7.81438e-22,1,4332,97.4,-5.67839e-06,9.6041e-06,-4.99607e-08,1.11573e-05,109.25,-41.8,1.73,1.0833e+07,1e+06,-7.59953e-08,2.67903e-07,-1.00208e-07,0.00395238,0.042202,-0.000698912,0.0418258,2,2689
12,7.54227e-22,1,4333,137.15,-5.73895e-06,9.74248e-06,-4.58363e-08,1.13072e-05,111.75,109.19,-42.07,1.0833e+07,1e+06,-4.46551e-08,2.428e-07,-9.15003e-08,0.00535981,0.0479595,-0.000455654,0.0465198,2,2690
12,7.40621e-22,1,4334,137.15,-5.7677e-06,9.92455e-06,-3.98084e-08,1.14789e-05,113,109.19,-42.07,1.0833e+07,1e+06,-2.38747e-08,2.16153e-07,-7.94098e-08,0.00712503,0.0480759,0.000747709,0.0445859,2,2691
12,7.40621e-22,1,4335,137.15,-5.7867e-06,1.00723e-05,-3.78738e-08,1.16163e-05,113,109.19,-42.07,1.0833e+07,1e+06,-1.59166e-08,2.00744e-07,-7.53013e-08,0.0084395,0.0456788,0.000173324,0.0420573,2,2692
12,7.40621e-22,1,4336,137.15,-5.79954e-06,1.01976e-05,-3.57889e-08,1.17315e-05,113,109.19,-42.07,1.0833e+07,1e+06,-1.05738e-08,1.92966e-07,-7.15024e-08,0.00962323,0.0447604,0.000584083,0.0405021,2,2693
12,6.41089e-22,1,4337,137.15,-5.80785e-06,1.03134e-05,-4.03606e-08,1.18363e-05,115.438,109.19,-42.07,8.24975e+06,875000,-7.13877e-09,1.99136e-07,-8.16265e-08,0.0100037,0.0416489,0.000934485,0.0377129,2,2694
12,4.42025e-22,2,4338,155.53,-5.81382e-06,1.04e-05,-5.90778e-08,1.19149e-05,120.312,-173.56,119.95,3.08325e+06,625000,-1.04581e-08,2.1707e-07,-1.17144e-07,0.00692766,0.0324985,0.00011886,0.030972,3,1642
12,3.37412e-22,2,4339,155.53,-5.82877e-06,1.0465e-05,-6.5592e-08,1.1979e-05,122.625,-173.56,119.95,500000,500000,-1.87497e-08,2.21028e-07,-1.31022e-07,0.00306597,0.0268144,-9.53336e-05,0.0270414,3,1643
12,3.24709e-22,2,4340,94.25,-5.85131e-06,1.04933e-05,-5.80957e-08,1.20146e-05,122.312,20.61,141.14,500000,500000,-1.95017e-08,2.01496e-07,-1.17598e-07,0.00040278,0.0262099,0.000304806,0.0270089,3,1644
12,3.14547e-22,2,4341,94.25,-5.86777e-06,1.04577e-05,-5.90678e-08,1.19916e-05,122.062,20.61,141.14,500000,500000,-1.21636e-08,1.87292e-07,-1.18162e-07,-0.0012978,0.0250152,9.47243e-05,0.0260486,3,1645
12,3.12007e-22,2,4342,94.25,-5.87564e-06,1.03991e-05,-6.03158e-08,1.19443e-05,122,20.61,141.14,500000,500000,-4.68919e-09,1.82031e-07,-1.20538e-07,-0.000772245,0.0242604,0.000255811,0.0246205,3,1646
12,3.12007e-22,2,4343,94.25,-5.87715e-06,1.03211e-05,-5.94288e-08,1.18773e-05,122,20.61,141.14,500000,500000,-3.21128e-10,1.744e-07,-1.18328e-07,-2.80613e-05,0.0230436,0.000288604,0.0229729,3,1647
12,5.69008e-22,1,4344,71.87,-2.04973e-08,8.32156e-06,-2.78425e-08,8.32164e-06,27,-131.18,-164.33,1.0833e+07,1e+06,-4.0838e-08,1.70467e-07,-5.5692e-08,0.00533427,0.0307501,0.000566079,0.0282478,2,2695
12,5.69008e-22,1,4345,71.87,-6.11786e-08,8.38016e-06,-2.93872e-08,8.38043e-06,27,-131.18,-164.33,1.0833e+07,1e+06,-4.06773e-08,1.69542e-07,-5.87852e-08,0.00537013,0.0299002,-0.000532329,0.0279711,2,2696
12,5.69008e-22,1,4346,71.87,-1.01852e-07,8.43788e-06,-2.85508e-08,8.43854e-06,27,-131.18,-164.33,1.0833e+07,1e+06,-4.09685e-08,1.69756e-07,-5.70931e-08,0.00550606,0.0300521,-1.93217e-05,0.0277466,2,2697
12,5.69008e-22,1,4347,71.87,-1.43116e-07,8.49526e-06,-2.8795e-08,8.49651e-06,27,-131.18,-164.33,1.0833e+07,1e+06,-4.17171e-08,1.71416e-07,-5.75829e-08,0.00548218,0.0302875,-2.19354e-05,0.027993,2,2698
12,5.69008e-22,1,4348,71.87,-1.85286e-07,8.55332e-06,-2.92072e-08,8.55537e-06,27,-131.18,-164.33,1.0833e+07,1e+06,-4.29169e-08,1.74161e-07,-5.84102e-08,0.00542839,0.0306899,-1.47071e-05,0.0284132,2,2699
12,5.69008e-22,1,4349,71.87,-2.2895e-07,8.61265e-06,-2.97091e-08,8.61575e-06,27,-131.18,-164.33,1.0833e+07,1e+06,-4.46242e-08,1.77549e-07,-5.94161e-08,0.00529986,0.0311482,-1.00667e-05,0.0289255,2,2700
12,5.69008e-22,1,4350,71.87,-2.74535e-07,8.67355e-06,-3.02699e-08,8.67795e-06,27,-131.18,-164.33,1.0833e+07,1e+06,-4.67033e-08,1.8137e-07,-6.05407e-08,0.00511501,0.0316346,-5.62758e-06,0.0294987,2,2701
12,5.69008e-22,1,4351,71.87,-3.22356e-07,8.73609e-06,-3.0883e-08,8.74209e-06,27,-131.18,-164.33,1.0833e+07,1e+06,-4.90535e-08,1.85514e-07,-6.17669e-08,0.00488937,0.0321395,-3.72627e-06,0.0301231,2,2702
12,5.69008e-22,1,4352,71.87,-3.72642e-07,8.80025e-06,-3.15319e-08,8.80819e-06,27,-131.18,-164.33,1.0833e+07,1e+06,-5.15949e-08,1.89877e-07,-6.30642e-08,0.00463367,0.0326564,-4.86293e-06,0.0307897,2,2703
12,5.69008e-22,1,4353,71.87,-4.25546e-07,8.86592e-06,-3.21966e-08,8.87618e-06,27,-131.18,-164.33,1.0833e+07,1e+06,-5.42717e-08,1.94387e-07,-6.43933e-08,0.00435568,0.0331863,-6.93987e-06,0.0314921,2,2704
12,5.69008e-22,1,4354,71.87,-4.81185e-07,8.93279e-06,-3.28578e-08,8.9458e-06,27,-131.18,-164.33,1.0833e+07,1e+06,-5.70373e-08,1.98986e-07,-6.57143e-08,0.00406213,0.0337348,-7.7639e-06,0.0322238,2,2705
12,5.69008e-22,1,4355,71.87,-5.39621e-07,9.00031e-06,-3.34925e-08,9.01654e-06,27,-131.18,-164.33,1.0833e+07,1e+06,-5.9807e-08,2.03578e-07,-6.6984e-08,0.00376588,0.0343044,-7.0543e-06,0.0329682,2,2706
12,5.69008e-22,1,4356,71.87,-6.00799e-07,9.06759e-06,-3.40726e-08,9.08754e-06,27,-131.18,-164.33,1.0833e+07,1e+06,-6.2442e-08,2.08003e-07,-6.81444e-08,0.00348834,0.0348924,-5.48884e-06,0.0336966,2,2707
12,5.69008e-22,1,4357,71.87,-6.64505e-07,9.13316e-06,-3.45715e-08,9.15737e-06,27,-131.18,-164.33,1.0833e+07,1e+06,-6.48749e-08,2.12152e-07,-6.91469e-08,0.00323466,0.0355024,-8.21452e-06,0.0343949,2,2708
12,5.69008e-22,1,4358,71.87,-7.30549e-07,9.19504e-06,-3.49829e-08,9.22408e-06,27,-131.18,-164.33,1.0833e+07,1e+06,-6.74054e-08,2.16299e-07,-6.99859e-08,0.00294886,0.0361737,-8.28913e-06,0.0351206,2,2709
12,5.69008e-22,1,4359,71.87,-7.99316e-07,9.25188e-06,-3.54488e-08,9.28642e-06,27,-131.18,-164.33,1.0833e+07,1e+06,-6.98661e-08,2.20925e-07,-7.07224e-08,0.0027281,0.0370424,5.21242e-05,0.0359567,2,2710
12,5.69008e-22,1,4360,71.87,-8.70281e-07,9.30166e-06,-3.51985e-08,9.34235e-06,27,-131.18,-164.33,1.0833e+07,1e+06,-7.07047e-08,2.22432e-07,-7.00781e-08,0.00266279,0.0375622,0.000248259,0.0363192,2,2711
12,5.54792e-22,1,4361,71.87,-9.40725e-07,9.3351e-06,-3.41047e-08,9.38244e-06,27.4375,-131.18,-164.33,1.01872e+07,968750,-6.92702e-08,2.22493e-07,-6.84837e-08,0.002763,0.0380245,0.000851462,0.0366242,2,2712
12,4.81218e-22,1,4362,71.87,-1.00882e-06,9.33046e-06,-4.04933e-08,9.38493e-06,29.875,-131.18,-164.33,6.95813e+06,812500,-6.21698e-08,2.27825e-07,-8.11008e-08,0.00222647,0.0369513,0.000276023,0.0374878,2,2713
12,3.76716e-22,2,4363,103.3,-1.06506e-06,9.25395e-06,-4.82622e-08,9.31516e-06,33.4375,-73.15,30.56,2.43744e+06,593750,-5.27119e-08,2.17665e-07,-9.61982e-08,0.000384463,0.0301529,-0.000722521,0.0331284,3,1648
12,3.31572e-22,2,4364,103.3,-1.11425e-06,9.14976e-06,-4.44755e-08,9.21746e-06,35,-73.15,30.56,500000,500000,-5.34747e-08,1.96464e-07,-8.91465e-08,-0.00119108,0.0239332,-0.000235801,0.0269091,3,1649
12,3.35473e-22,2,4365,103.3,-1.17201e-06,9.09076e-06,-3.51201e-08,9.16606e-06,34.625,-73.15,30.56,500000,500000,-5.78913e-08,1.77615e-07,-7.10557e-08,-0.00230663,0.0227223,-7.21954e-05,0.0255802,3,1650
12,3.46078e-22,2,4366,103.3,-1.23003e-06,9.08269e-06,-2.89325e-08,9.16564e-06,33.625,-73.15,30.56,500000,500000,-5.59171e-08,1.58955e-07,-5.79135e-08,-0.00316364,0.0227801,-0.000754455,0.026233,3,1651
12,3.55587e-22,2,4367,122.93,-1.28385e-06,9.08803e-06,-2.50997e-08,9.1783e-06,32.75,-96.81,-155.62,500000,500000,-5.3645e-08,1.49837e-07,-4.95644e-08,-0.00309494,0.0230823,-0.00049698,0.0263575,3,1652
12,4.75587e-22,2,4368,122.93,-1.33732e-06,9.08061e-06,-2.22305e-08,9.17858e-06,38.125,-96.81,-155.62,3.08325e+06,625000,-5.3072e-08,1.42452e-07,-4.45275e-08,-0.00326867,0.0234322,-0.000622135,0.0267536,3,1653
12,7.09979e-22,1,4369,130.6,-1.38999e-06,9.08909e-06,-1.99937e-08,9.19479e-06,49.375,117.2,-48.36,8.24975e+06,875000,-5.40101e-08,1.42175e-07,-4.00986e-08,-0.00301056,0.0261413,-0.000108086,0.028658,2,2714
12,8.27175e-22,1,4370,130.6,-1.44534e-06,9.12458e-06,-2.0308e-08,9.23837e-06,55,117.2,-48.36,1.0833e+07,1e+06,-5.79219e-08,1.53658e-07,-4.0467e-08,-0.0025704,0.0293256,0.000641581,0.0307612,2,2715
12,8.27175e-22,1,4371,130.6,-1.50584e-06,9.17594e-06,-2.33566e-08,9.29871e-06,55,117.2,-48.36,1.0833e+07,1e+06,-6.28867e-08,1.66468e-07,-4.6638e-08,-0.0028716,0.0310472,5.1111e-05,0.0327163,2,2716
12,8.27175e-22,1,4372,130.6,-1.57111e-06,9.23998e-06,-2.5247e-08,9.37263e-06,55,117.2,-48.36,1.0833e+07,1e+06,-6.73472e-08,1.78074e-07,-5.05264e-08,-0.00305367,0.0328937,1.30907e-06,0.0345881,2,2717
12,8.27175e-22,1,4373,130.6,-1.64053e-06,9.31366e-06,-2.6944e-08,9.45708e-06,55,117.2,-48.36,1.0833e+07,1e+06,-7.11274e-08,1.88814e-07,-5.38988e-08,-0.00314031,0.0347583,1.25363e-06,0.0364595,2,2718
12,8.27175e-22,1,4374,130.6,-1.71337e-06,9.3938e-06,-2.83406e-08,9.54882e-06,55,117.2,-48.36,1.0833e+07,1e+06,-7.40488e-08,1.97779e-07,-5.66787e-08,-0.0031507,0.0363827,5.07114e-06,0.0380715,2,2719
12,8.27175e-22,1,4375,130.6,-1.78863e-06,9.47763e-06,-2.9463e-08,9.64497e-06,55,117.2,-48.36,1.0833e+07,1e+06,-7.60679e-08,2.04789e-07,-5.8926e-08,-0.00308565,0.0376834,-2.11486e-07,0.0393298,2,2720
12,8.27175e-22,1,4376,130.6,-1.8655e-06,9.56371e-06,-3.03772e-08,9.744e-06,55,117.2,-48.36,1.0833e+07,1e+06,-7.74505e-08,2.10209e-07,-6.07534e-08,-0.0029823,0.0386833,-8.06151e-06,0.0402688,2,2721
12,8.27175e-22,1,4377,130.6,-1.94353e-06,9.65154e-06,-3.11322e-08,9.84533e-06,55,117.2,-48.36,1.0833e+07,1e+06,-7.85328e-08,2.14441e-07,-6.22648e-08,-0.00289781,0.0394217,-1.90408e-05,0.0409594,2,2722
12,8.27175e-22,1,4378,130.6,-2.02257e-06,9.74106e-06,-3.17618e-08,9.94887e-06,55,117.2,-48.36,1.0833e+07,1e+06,-7.96227e-08,2.17803e-07,-6.35215e-08,-0.00289056,0.0399338,-3.49623e-05,0.0414732,2,2723
12,8.27175e-22,1,4379,130.6,-2.10277e-06,9.83226e-06,-3.22778e-08,1.00547e-05,55,117.2,-48.36,1.0833e+07,1e+06,-8.09971e-08,2.2053e-07,-6.45563e-08,-0.00302217,0.040251,-6.33142e-05,0.041884,2,2724
12,8.27175e-22,1,4380,130.6,-2.18456e-06,9.9248e-06,-3.26877e-08,1.01624e-05,55,117.2,-48.36,1.0833e+07,1e+06,-8.28073e-08,2.22652e-07,-6.53874e-08,-0.00335372,0.0403924,-0.000130446,0.042262,2,2725
12,8.27175e-22,1,4381,130.6,-2.26839e-06,1.0018e-05,-3.34906e-08,1.02716e-05,55,117.2,-48.36,1.0833e+07,1e+06,-8.43896e-08,2.23913e-07,-6.66746e-08,-0.00382699,0.0403935,-0.000455627,0.0426707,2,2726
12,6.8993e-22,1,4382,130.6,-2.35334e-06,1.01056e-05,-3.19183e-08,1.0376e-05,58.1875,117.2,-48.36,8.24975e+06,875000,-8.70184e-08,2.18861e-07,-6.36922e-08,-0.00441771,0.0361679,0.000840653,0.0389348,2,2727
12,4.1544e-22,2,4383,95.17,-2.44243e-06,1.00783e-05,-3.72306e-08,1.03701e-05,64.5625,150.32,151.68,3.08325e+06,625000,-9.03764e-08,2.18109e-07,-7.47081e-08,-0.00474051,0.0272754,0.000946881,0.0305465,3,1654
12,2.78195e-22,2,4384,95.17,-2.53409e-06,9.94634e-06,-4.41097e-08,1.02642e-05,67.75,150.32,151.68,500000,500000,-9.12867e-08,2.25689e-07,-8.83643e-08,-0.0042201,0.0233722,9.17188e-05,0.0263873,3,1655
12,2.78195e-22,2,4385,95.17,-2.625e-06,9.82401e-06,-4.39551e-08,1.01688e-05,67.75,150.32,151.68,500000,500000,-9.12918e-08,2.31103e-07,-8.79637e-08,-0.0036182,0.0245699,0.000720779,0.0270303,3,1656
12,2.78195e-22,2,4386,95.17,-2.71668e-06,9.71053e-06,-4.494e-08,1.00835e-05,67.75,150.32,151.68,500000,500000,-9.16335e-08,2.35618e-07,-8.98662e-08,-0.00341454,0.0252915,0.000744639,0.0276702,3,1657
12,2.78195e-22,2,4387,95.17,-2.80827e-06,9.60395e-06,-4.59101e-08,1.00062e-05,67.75,150.32,151.68,500000,500000,-9.15586e-08,2.39346e-07,-9.18213e-08,-0.00322529,0.0258635,0.000755606,0.0281627,3,1658
12,2.78195e-22,2,4388,95.17,-2.8998e-06,9.50285e-06,-4.6764e-08,9.93555e-06,67.75,150.32,151.68,500000,500000,-9.16618e-08,2.42641e-07,-9.35278e-08,-0.00308762,0.0263373,0.000765011,0.0285807,3,1659
12,2.78195e-22,2,4389,95.17,-2.99159e-06,9.40601e-06,-4.74871e-08,9.8704e-06,67.75,150.32,151.68,500000,500000,-9.21211e-08,2.45706e-07,-9.49777e-08,-0.00301409,0.0267338,0.000777963,0.02895,3,1660
12,2.78195e-22,2,4390,95.17,-3.08404e-06,9.31271e-06,-4.80406e-08,9.81021e-06,67.75,150.32,151.68,500000,500000,-9.28512e-08,2.48374e-07,-9.609e-08,-0.00299422,0.0270382,0.000799018,0.0292464,3,1661
12,2.78195e-22,2,4391,95.17,-3.17729e-06,9.22312e-06,-4.83093e-08,9.75518e-06,67.75,150.32,151.68,500000,500000,-9.33927e-08,2.49884e-07,-9.66355e-08,-0.00298724,0.0271766,0.000830407,0.0293702,3,1662
12,2.78195e-22,2,4392,95.17,-3.27082e-06,9.13899e-06,-4.80906e-08,9.70679e-06,67.75,150.32,151.68,500000,500000,-9.2584e-08,2.487e-07,-9.61328e-08,-0.00286778,0.0270488,0.000891884,0.0291414,3,1663
12,2.78195e-22,2,4393,95.17,-3.36246e-06,9.06607e-06,-4.70779e-08,9.66964e-06,67.75,150.32,151.68,500000,500000,-8.83895e-08,2.42141e-07,-9.47436e-08,-0.00256541,0.0264339,0.000796785,0.0284622,3,1664
12,2.75585e-22,2,4394,95.17,-3.4476e-06,9.01985e-06,-4.72499e-08,9.65639e-06,67.8125,150.32,151.68,500000,500000,-7.89189e-08,2.3192e-07,-9.50137e-08,-0.00230032,0.0261186,0.000420447,0.0282987,3,1665
12,2.70364e-22,2,4395,95.17,-3.5203e-06,8.99974e-06,-5.01143e-08,9.66387e-06,67.9375,150.32,151.68,500000,500000,-6.98436e-08,2.22972e-07,-9.89712e-08,-0.00279188,0.0259657,-0.000536185,0.0288939,3,1666
12,2.79723e-22,2,4396,95.17,-3.58729e-06,8.99461e-06,-4.84968e-08,9.68369e-06,68.125,150.32,151.68,1.14581e+06,531250,-6.86106e-08,2.20922e-07,-9.58375e-08,-0.00275386,0.0273954,-0.000683578,0.0307236,3,1667
12,3.27597e-22,2,4397,95.17,-3.65752e-06,9.00514e-06,-4.17682e-08,9.71965e-06,68.625,150.32,151.68,3.72906e+06,656250,-6.96308e-08,2.28551e-07,-8.4781e-08,-1.23671e-06,0.0327882,0.000347881,0.0346918,3,1668
12,4.58547e-22,1,4398,73.93,-3.72655e-06,9.04991e-06,-4.12575e-08,9.78722e-06,71.4375,-115.96,-166.85,7.60394e+06,843750,-6.87264e-08,2.43808e-07,-8.34907e-08,0.00396077,0.0383273,0.00096856,0.0378126,2,2728
12,6.44412e-22,1,4399,91.26,-3.79497e-06,9.10939e-06,-4.56152e-08,9.86838e-06,76.75,-49.63,-179.82,1.01872e+07,968750,-6.93841e-08,2.5153e-07,-9.04805e-08,0.00589817,0.0382137,0.000717128,0.0362345,2,2729
12,7.54944e-22,1,4400,91.26,-3.86532e-06,9.14266e-06,-4.63717e-08,9.92628e-06,80.3125,-49.63,-179.82,1.0833e+07,1e+06,-7.06911e-08,2.42332e-07,-9.24207e-08,0.00516322,0.0341029,2.90417e-06,0.0322297,2,2730
12,7.74657e-22,1,4401,91.26,-3.93635e-06,9.15951e-06,-4.4441e-08,9.96962e-06,81,-49.63,-179.82,1.0833e+07,1e+06,-7.20632e-08,2.32008e-07,-8.9054e-08,0.0037579,0.0315027,-0.000120237,0.0301188,2,2731
12,7.74657e-22,1,4402,91.26,-4.00944e-06,9.17237e-06,-4.3006e-08,1.00105e-05,81,-49.63,-179.82,1.0833e+07,1e+06,-7.43859e-08,2.27742e-07,-8.60419e-08,0.00269499,0.0306226,4.97771e-05,0.029604,2,2732
12,7.74657e-22,1,4403,91.26,-4.08513e-06,9.1809e-06,-4.22026e-08,1.00488e-05,81,-49.63,-179.82,1.0833e+07,1e+06,-7.66624e-08,2.2516e-07,-8.4385e-08,0.00179675,0.0299495,3.43718e-05,0.0293349,2,2733
12,7.74657e-22,1,4404,91.26,-4.16277e-06,9.18537e-06,-4.15672e-08,1.00847e-05,81,-49.63,-179.82,1.0833e+07,1e+06,-7.84093e-08,2.23292e-07,-8.31284e-08,0.00112325,0.0294565,3.15724e-05,0.0291283,2,2734
12,7.74657e-22,1,4405,91.26,-4.24194e-06,9.18657e-06,-4.10337e-08,1.01187e-05,81,-49.63,-179.82,1.0833e+07,1e+06,-7.96413e-08,2.21668e-07,-8.20669e-08,0.000619137,0.0290617,4.10374e-05,0.0289201,2,2735
12,7.74657e-22,1,4406,91.26,-4.32205e-06,9.18512e-06,-4.05017e-08,1.01513e-05,81,-49.63,-179.82,1.0833e+07,1e+06,-8.00561e-08,2.19639e-07,-8.1007e-08,0.000299655,0.0286831,5.32592e-05,0.0286361,2,2736
12,7.74657e-22,1,4407,91.26,-4.40206e-06,9.18115e-06,-3.99002e-08,1.0182e-05,81,-49.63,-179.82,1.0833e+07,1e+06,-7.92701e-08,2.16653e-07,-7.98078e-08,0.000213344,0.0282647,6.17255e-05,0.0282113,2,2737
12,7.74657e-22,1,4408,91.26,-4.48059e-06,9.17451e-06,-3.91948e-08,1.02102e-05,81,-49.63,-179.82,1.0833e+07,1e+06,-7.70974e-08,2.12478e-07,-7.83993e-08,0.000389479,0.0277881,6.76793e-05,0.027619,2,2738
12,7.74657e-22,1,4409,91.26,-4.55625e-06,9.16498e-06,-3.83918e-08,1.02351e-05,81,-49.63,-179.82,1.0833e+07,1e+06,-7.37096e-08,2.07222e-07,-7.6791e-08,0.00079848,0.0272541,6.42614e-05,0.0268824,2,2739
12,7.74657e-22,1,4410,91.26,-4.62801e-06,9.15239e-06,-3.70057e-08,1.0256e-05,81,-49.63,-179.82,1.0833e+07,1e+06,-6.9457e-08,2.01206e-07,-7.40108e-08,0.00146126,0.0268203,0.000339099,0.0260068,2,2740
12,7.66148e-22,1,4411,91.26,-4.69517e-06,9.13667e-06,-3.64634e-08,1.02725e-05,89,-49.63,-179.82,1.0833e+07,1e+06,-5.73476e-08,1.94801e-07,-7.29237e-08,0.00209186,0.0303972,-0.000502032,0.0298769,2,2741
12,7.4913e-22,1,4412,137.15,-4.74271e-06,9.16392e-06,-3.32597e-08,1.03185e-05,105,109.19,-42.07,1.0833e+07,1e+06,-3.82177e-08,1.86913e-07,-6.6517e-08,0.003061,0.0380217,-0.000347099,0.0370395,2,2742
12,7.40621e-22,1,4413,137.15,-4.7716e-06,9.22579e-06,-2.94895e-08,1.03867e-05,113,109.19,-42.07,1.0833e+07,1e+06,-2.71838e-08,1.78336e-07,-5.89716e-08,0.00398988,0.0412413,0.000462226,0.03949,2,2743
12,7.40621e-22,1,4414,137.15,-4.79707e-06,9.269e-06,-2.86883e-08,1.04368e-05,113,109.19,-42.07,1.0833e+07,1e+06,-2.38682e-08,1.71438e-07,-5.73687e-08,0.00448017,0.0402354,-3.3715e-06,0.0388021,2,2744
12,7.40621e-22,1,4415,137.15,-4.81934e-06,9.2966e-06,-2.76109e-08,1.04716e-05,113,109.19,-42.07,1.0833e+07,1e+06,-2.12455e-08,1.66733e-07,-5.52187e-08,0.004988,0.0397644,-6.35584e-06,0.0383893,2,2745
12,7.40621e-22,1,4416,137.15,-4.83957e-06,9.31258e-06,-2.69872e-08,1.04951e-05,113,109.19,-42.07,1.0833e+07,1e+06,-1.98002e-08,1.64501e-07,-5.39744e-08,0.00529542,0.039689,-1.15811e-05,0.038423,2,2746
12,7.40621e-22,1,4417,137.15,-4.85894e-06,9.32103e-06,-2.67782e-08,1.05115e-05,113,109.19,-42.07,1.0833e+07,1e+06,-1.94923e-08,1.64705e-07,-5.35558e-08,0.00542828,0.0400148,-8.84086e-06,0.0388662,2,2747
12,7.40621e-22,1,4418,137.15,-4.87855e-06,9.32553e-06,-2.69261e-08,1.05246e-05,113,109.19,-42.07,1.0833e+07,1e+06,-2.019e-08,1.67038e-07,-5.38501e-08,0.00540615,0.040696,-3.21837e-06,0.0396634,2,2748
12,7.40621e-22,1,4419,137.15,-4.89932e-06,9.32923e-06,-2.73486e-08,1.05375e-05,113,109.19,-42.07,1.0833e+07,1e+06,-2.16925e-08,1.71013e-07,-5.46949e-08,0.00525577,0.0416458,3.75938e-06,0.0407244,2,2749
12,7.40621e-22,1,4420,137.15,-4.92193e-06,9.33475e-06,-2.79534e-08,1.05529e-05,113,109.19,-42.07,1.0833e+07,1e+06,-2.38013e-08,1.76105e-07,-5.59066e-08,0.00500149,0.0427722,9.90736e-06,0.0419658,2,2750
12,7.40621e-22,1,4421,137.15,-4.94692e-06,9.34417e-06,-2.86706e-08,1.05729e-05,113,109.19,-42.07,1.0833e+07,1e+06,-2.63867e-08,1.81964e-07,-5.73423e-08,0.00465958,0.0440212,1.40325e-05,0.043347,2,2751
12,7.40621e-22,1,4422,137.15,-4.97471e-06,9.35935e-06,-2.94861e-08,1.05993e-05,113,109.19,-42.07,1.0833e+07,1e+06,-2.93705e-08,1.88429e-07,-5.89713e-08,0.00423923,0.0453603,1.3582e-05,0.0448369,2,2752
12,7.40621e-22,1,4423,137.15,-5.00566e-06,9.3828e-06,-3.03791e-08,1.06346e-05,113,109.19,-42.07,1.0833e+07,1e+06,-3.24892e-08,1.95025e-07,-6.07205e-08,0.00378176,0.0466455,4.23598e-05,0.0462108,2,2753
12,7.40621e-22,1,4424,137.15,-5.03969e-06,9.41954e-06,-3.11788e-08,1.0683e-05,113,109.19,-42.07,1.0833e+07,1e+06,-3.42812e-08,1.99427e-07,-6.23344e-08,0.00353353,0.0472581,0.000171484,0.0466323,2,2754
12,7.44023e-22,1,4425,137.15,-5.07422e-06,9.47808e-06,-3.11045e-08,1.07509e-05,112.688,109.19,-42.07,1.0833e+07,1e+06,-3.45077e-08,1.92397e-07,-6.23034e-08,0.00339009,0.0440663,-7.48351e-05,0.0434345,2,2755
12,7.6103e-22,1,4426,137.15,-5.1087e-06,9.53753e-06,-3.24295e-08,1.08196e-05,111.125,109.19,-42.07,1.0833e+07,1e+06,-4.23426e-08,1.92328e-07,-6.48304e-08,0.0037611,0.0383084,0.000141548,0.0373476,2,2756
12,7.84839e-22,1,4427,97.4,-5.15891e-06,9.56152e-06,-3.88587e-08,1.08646e-05,108.938,-41.8,1.73,1.0833e+07,1e+06,-6.14199e-08,2.1429e-07,-7.77108e-08,0.00375058,0.0335464,-4.06798e-05,0.0323869,2,2757
12,7.95043e-22,1,4428,97.4,-5.23154e-06,9.57987e-06,-4.48e-08,1.09154e-05,108,-41.8,1.73,1.0833e+07,1e+06,-7.92088e-08,2.40587e-07,-8.97207e-08,0.00282177,0.0330053,-0.000306713,0.0320728,2,2758
12,7.95043e-22,1,4429,97.4,-5.31733e-06,9.62402e-06,-4.76308e-08,1.09954e-05,108,-41.8,1.73,1.0833e+07,1e+06,-9.01645e-08,2.61923e-07,-9.52029e-08,0.00209978,0.0357099,0.000138956,0.0348914,2,2759
12,7.95043e-22,1,4430,97.4,-5.41187e-06,9.68126e-06,-5.00991e-08,1.10913e-05,108,-41.8,1.73,1.0833e+07,1e+06,-9.65624e-08,2.75911e-07,-1.00122e-07,0.00177544,0.0374059,9.11643e-05,0.0368588,2,2760
12,7.95043e-22,1,4431,97.4,-5.51045e-06,9.74529e-06,-5.12853e-08,1.11955e-05,108,-41.8,1.73,1.0833e+07,1e+06,-9.85593e-08,2.82427e-07,-1.02618e-07,0.00190556,0.0383094,6.04177e-05,0.0377678,2,2761
12,7.95043e-22,1,4432,97.4,-5.60899e-06,9.81088e-06,-5.04918e-08,1.13012e-05,108,-41.8,1.73,1.0833e+07,1e+06,-9.56659e-08,2.81457e-07,-1.01001e-07,0.00277882,0.0386568,0.000594849,0.0374064,2,2762
12,7.81438e-22,1,4433,97.4,-5.70178e-06,9.87295e-06,-5.0425e-08,1.14012e-05,109.25,-41.8,1.73,1.0833e+07,1e+06,-7.72448e-08,2.71399e-07,-1.00864e-07,0.00389462,0.0430814,-0.000732635,0.0424085,2,2763
12,7.54227e-22,1,4434,137.15,-5.76348e-06,9.98843e-06,-4.58411e-08,1.15321e-05,111.75,109.19,-42.07,1.0833e+07,1e+06,-4.56984e-08,2.47808e-07,-9.16843e-08,0.00547482,0.0497465,-0.000483673,0.0480414,2,2764
12,7.40621e-22,1,4435,137.15,-5.79318e-06,1.01446e-05,-3.9854e-08,1.16823e-05,113,109.19,-42.07,1.0833e+07,1e+06,-2.50204e-08,2.20844e-07,-7.95474e-08,0.00712554,0.0498018,0.000710195,0.0462634,2,2765
12,7.40621e-22,1,4436,137.15,-5.81352e-06,1.02753e-05,-3.80473e-08,1.18059e-05,113,109.19,-42.07,1.0833e+07,1e+06,-1.76255e-08,2.03871e-07,-7.65005e-08,0.00802333,0.0465383,-0.000161682,0.0432771,2,2766
12,7.40621e-22,1,4437,137.15,-5.82843e-06,1.0391e-05,-3.71216e-08,1.19141e-05,113,109.19,-42.07,1.0833e+07,1e+06,-1.35589e-08,1.94363e-07,-7.37444e-08,0.00850597,0.044731,-0.000167829,0.0413359,2,2767
12,6.36008e-22,1,4438,137.15,-5.84064e-06,1.05095e-05,-3.89336e-08,1.20235e-05,115.312,109.19,-42.07,8.24975e+06,875000,-7.64584e-09,1.90133e-07,-7.73283e-08,0.0084103,0.0406677,0.000821592,0.0375736,2,2768
12,4.26782e-22,2,4439,94.25,-5.84372e-06,1.06054e-05,-5.30718e-08,1.21089e-05,119.938,20.61,141.14,3.08325e+06,625000,-1.61749e-09,1.93109e-07,-1.06623e-07,0.00520679,0.0315612,0.000557523,0.030583,3,1669
12,3.19628e-22,2,4440,94.25,-5.84387e-06,1.06651e-05,-6.18941e-08,1.21613e-05,122.188,20.61,141.14,500000,500000,-2.26624e-09,1.90025e-07,-1.24572e-07,0.0014336,0.0252375,-0.000259041,0.0258563,3,1670
12,3.14547e-22,2,4441,94.25,-5.84825e-06,1.06794e-05,-6.02344e-08,1.2176e-05,122.062,20.61,141.14,500000,500000,-3.52301e-09,1.84036e-07,-1.20512e-07,9.54239e-05,0.0247979,0.000187192,0.0251708,3,1671
12,3.12007e-22,2,4442,94.25,-5.85092e-06,1.06428e-05,-6.32801e-08,1.21452e-05,122,20.61,141.14,500000,500000,-2.23669e-09,1.87628e-07,-1.25968e-07,-0.000405037,0.0251239,0.000120124,0.025423,3,1672
12,3.12007e-22,2,4443,94.25,-5.85273e-06,1.05839e-05,-6.39234e-08,1.20945e-05,122,20.61,141.14,500000,500000,-1.51126e-09,1.87487e-07,-1.27959e-07,-0.000353965,0.0247088,-0.000103897,0.0250385,3,1673
12,3.12007e-22,2,4444,94.25,-5.85394e-06,1.05007e-05,-6.34317e-08,1.20224e-05,122,20.61,141.14,500000,500000,-1.01331e-09,1.83674e-07,-1.26778e-07,-0.000282872,0.0238522,-0.000210293,0.0241335,3,1674
12,5.69008e-22,1,4445,71.87,-1.96081e-08,8.49049e-06,-2.75776e-08,8.49056e-06,27,-131.18,-164.33,1.0833e+07,1e+06,-3.91691e-08,1.67937e-07,-5.51577e-08,0.00554519,0.0303993,0.000544006,0.0278317,2,2769
12,5.69008e-22,1,4446,71.87,-5.87302e-08,8.54869e-06,-2.91591e-08,8.54894e-06,27,-131.18,-164.33,1.0833e+07,1e+06,-3.93086e-08,1.67806e-07,-5.83244e-08,0.00557461,0.0297219,-0.000511776,0.0277114,2,2770
12,5.69008e-22,1,4447,71.87,-9.82252e-08,8.60708e-06,-2.84267e-08,8.60768e-06,27,-131.18,-164.33,1.0833e+07,1e+06,-3.98665e-08,1.68608e-07,-5.68494e-08,0.00569037,0.029956,-9.81078e-06,0.0275794,2,2771
12,5.69008e-22,1,4448,71.87,-1.38463e-07,8.66621e-06,-2.87035e-08,8.66737e-06,27,-131.18,-164.33,1.0833e+07,1e+06,-4.05939e-08,1.7032e-07,-5.74047e-08,0.00567919,0.030182,-1.18386e-05,0.0278156,2,2772
12,5.69008e-22,1,4449,71.87,-1.79413e-07,8.72685e-06,-2.91128e-08,8.72874e-06,27,-131.18,-164.33,1.0833e+07,1e+06,-4.14565e-08,1.72705e-07,-5.82249e-08,0.00568362,0.0305221,-7.95513e-06,0.0281616,2,2773
12,5.69008e-22,1,4450,71.87,-2.21376e-07,8.78929e-06,-2.96039e-08,8.79213e-06,27,-131.18,-164.33,1.0833e+07,1e+06,-4.26093e-08,1.75558e-07,-5.92068e-08,0.00565362,0.0309086,-8.71558e-06,0.0285776,2,2774
12,5.69008e-22,1,4451,71.87,-2.64632e-07,8.85371e-06,-3.01531e-08,8.85771e-06,27,-131.18,-164.33,1.0833e+07,1e+06,-4.40413e-08,1.78796e-07,-6.0305e-08,0.00558703,0.0313268,-9.23084e-06,0.0290507,2,2775
12,5.69008e-22,1,4452,71.87,-3.09459e-07,8.92012e-06,-3.07574e-08,8.92554e-06,27,-131.18,-164.33,1.0833e+07,1e+06,-4.57614e-08,1.82418e-07,-6.15142e-08,0.00548118,0.0317769,-1.00778e-05,0.0295863,2,2776
12,5.69008e-22,1,4453,71.87,-3.56154e-07,8.98848e-06,-3.14146e-08,8.99559e-06,27,-131.18,-164.33,1.0833e+07,1e+06,-4.77869e-08,1.8644e-07,-6.28286e-08,0.00533252,0.0322651,-1.16085e-05,0.0301936,2,2777
12,5.69008e-22,1,4454,71.87,-4.05033e-07,9.05863e-06,-3.21163e-08,9.06774e-06,27,-131.18,-164.33,1.0833e+07,1e+06,-5.01274e-08,1.90872e-07,-6.42314e-08,0.00513902,0.0328017,-1.32279e-05,0.0308797,2,2778
12,5.69008e-22,1,4455,71.87,-4.56409e-07,9.13022e-06,-3.28478e-08,9.14168e-06,27,-131.18,-164.33,1.0833e+07,1e+06,-5.27647e-08,1.95703e-07,-6.56938e-08,0.00490393,0.0333996,-1.36436e-05,0.0316449,2,2779
12,5.69008e-22,1,4456,71.87,-5.10562e-07,9.20259e-06,-3.35869e-08,9.2168e-06,27,-131.18,-164.33,1.0833e+07,1e+06,-5.56289e-08,2.00869e-07,-6.7172e-08,0.00463924,0.0340706,-1.18109e-05,0.0324774,2,2780
12,5.69008e-22,1,4457,71.87,-5.67667e-07,9.27469e-06,-3.43069e-08,9.29211e-06,27,-131.18,-164.33,1.0833e+07,1e+06,-5.85951e-08,2.06256e-07,-6.86142e-08,0.00436641,0.0348249,-7.92485e-06,0.0333562,2,2781
12,5.69008e-22,1,4458,71.87,-6.27752e-07,9.34503e-06,-3.49891e-08,9.36616e-06,27,-131.18,-164.33,1.0833e+07,1e+06,-6.15158e-08,2.1178e-07,-6.99931e-08,0.00411497,0.0356788,-3.46516e-06,0.0342695,2,2782
12,5.69008e-22,1,4459,71.87,-6.90698e-07,9.4119e-06,-3.56629e-08,9.43728e-06,27,-131.18,-164.33,1.0833e+07,1e+06,-6.40258e-08,2.17362e-07,-7.13109e-08,0.00397636,0.0366694,1.41975e-05,0.0352108,2,2783
12,5.69008e-22,1,4460,71.87,-7.55804e-07,9.47326e-06,-3.62319e-08,9.50343e-06,27,-131.18,-164.33,1.0833e+07,1e+06,-6.52478e-08,2.22165e-07,-7.25399e-08,0.00410268,0.0377089,1.3803e-05,0.0360684,2,2784
12,5.69008e-22,1,4461,71.87,-8.21194e-07,9.52481e-06,-3.67522e-08,9.56022e-06,27,-131.18,-164.33,1.0833e+07,1e+06,-6.45672e-08,2.25072e-07,-7.32844e-08,0.00453779,0.0386864,1.06763e-05,0.0367576,2,2785
12,5.69008e-22,1,4462,71.87,-8.84938e-07,9.55936e-06,-3.54336e-08,9.6003e-06,27,-131.18,-164.33,1.0833e+07,1e+06,-6.27434e-08,2.28873e-07,-7.13167e-08,0.00556855,0.0405193,0.000910569,0.0376903,2,2786
12,5.04653e-22,1,4463,71.87,-9.46681e-07,9.56566e-06,-4.40561e-08,9.61249e-06,29.5,-131.18,-164.33,8.24975e+06,875000,-6.19429e-08,2.45145e-07,-8.89484e-08,0.0058846,0.039244,-4.17502e-05,0.03817,2,2787
12,3.75943e-22,2,4464,95.55,-1.00882e-06,9.4923e-06,-6.12439e-08,9.54596e-06,34.5,20.95,172.44,3.08325e+06,625000,-6.68861e-08,2.59653e-07,-1.21542e-07,0.00388628,0.0293606,-0.00170371,0.0307266,3,1675
12,3.11588e-22,2,4465,95.55,-1.08045e-06,9.3765e-06,-6.35226e-08,9.43876e-06,37,20.95,172.44,500000,500000,-7.86532e-08,2.56276e-07,-1.25418e-07,0.00140387,0.0216146,-0.00119702,0.0230155,3,1676
12,3.19388e-22,2,4466,95.55,-1.16613e-06,9.29043e-06,-5.02581e-08,9.36346e-06,36.25,20.95,172.44,500000,500000,-8.22217e-08,2.31423e-07,-9.98555e-08,-0.00046922,0.022009,-0.000913146,0.0240792,3,1677
12,3.40292e-22,2,4467,122.93,-1.2449e-06,9.24383e-06,-3.25671e-08,9.32734e-06,34.25,-96.81,-155.62,500000,500000,-7.00554e-08,1.85368e-07,-6.65709e-08,-0.00206231,0.0230613,-0.000624886,0.0258921,3,1678
12,3.58698e-22,2,4468,122.93,-1.30624e-06,9.23258e-06,-2.02792e-08,9.32455e-06,32.5,-96.81,-155.62,500000,500000,-5.71804e-08,1.52625e-07,-4.24497e-08,-0.00223831,0.0234382,0.000952193,0.0254841,3,1679
12,4.50846e-22,2,4469,122.93,-1.35926e-06,9.22117e-06,-1.88843e-08,9.32083e-06,36.3125,-96.81,-155.62,2.43744e+06,593750,-5.22015e-08,1.43612e-07,-3.77698e-08,-0.00217861,0.0239355,0.00129428,0.0256332,3,1680
12,6.53485e-22,1,4470,130.6,-1.41064e-06,9.22965e-06,-2.03272e-08,9.33685e-06,46.375,117.2,-48.36,6.95812e+06,812500,-5.34728e-08,1.43202e-07,-3.98082e-08,-0.00269884,0.0255778,0.00031311,0.0277187,2,2788
12,7.98227e-22,1,4471,130.6,-1.4662e-06,9.27637e-06,-2.06683e-08,9.39155e-06,53.5625,117.2,-48.36,1.01872e+07,968750,-5.75958e-08,1.50183e-07,-4.08245e-08,-0.00286466,0.0280283,0.000242973,0.0298194,2,2789
12,8.27175e-22,1,4472,130.6,-1.52584e-06,9.34084e-06,-2.26703e-08,9.46467e-06,55,117.2,-48.36,1.0833e+07,1e+06,-6.18769e-08,1.62453e-07,-4.53886e-08,-0.00293108,0.0301977,8.98426e-05,0.0318436,2,2790
12,8.27175e-22,1,4473,130.6,-1.58996e-06,9.41691e-06,-2.50302e-08,9.55022e-06,55,117.2,-48.36,1.0833e+07,1e+06,-6.64786e-08,1.76093e-07,-5.01526e-08,-0.0029903,0.0324864,-2.1008e-05,0.0341417,2,2791
12,8.27175e-22,1,4474,130.6,-1.65879e-06,9.50199e-06,-2.68625e-08,9.64573e-06,55,117.2,-48.36,1.0833e+07,1e+06,-7.05037e-08,1.88063e-07,-5.37106e-08,-0.00302999,0.0346586,2.0785e-05,0.0362883,2,2792
12,8.27175e-22,1,4475,130.6,-1.73096e-06,9.59121e-06,-2.82572e-08,9.7462e-06,55,117.2,-48.36,1.0833e+07,1e+06,-7.30719e-08,1.97028e-07,-5.65247e-08,-0.00294835,0.0363598,1.4206e-05,0.0379393,2,2793
12,8.27175e-22,1,4476,130.6,-1.80494e-06,9.68186e-06,-2.93383e-08,9.84871e-06,55,117.2,-48.36,1.0833e+07,1e+06,-7.43749e-08,2.03464e-07,-5.86705e-08,-0.00273386,0.0376278,1.25438e-05,0.0390846,2,2794
12,8.27175e-22,1,4477,130.6,-1.87971e-06,9.77303e-06,-3.01935e-08,9.9522e-06,55,117.2,-48.36,1.0833e+07,1e+06,-7.48821e-08,2.08071e-07,-6.03911e-08,-0.00245613,0.0385368,5.11019e-06,0.0398374,2,2795
12,8.27175e-22,1,4478,130.6,-1.9547e-06,9.86471e-06,-3.09024e-08,1.00566e-05,55,117.2,-48.36,1.0833e+07,1e+06,-7.49567e-08,2.11402e-07,-6.1806e-08,-0.00216467,0.0391636,-4.39745e-07,0.0402996,2,2796
12,8.27175e-22,1,4479,130.6,-2.02963e-06,9.95723e-06,-3.15102e-08,1.0162e-05,55,117.2,-48.36,1.0833e+07,1e+06,-7.48894e-08,2.13853e-07,-6.30226e-08,-0.00190619,0.0395594,-9.4161e-06,0.0405562,2,2797
12,8.27175e-22,1,4480,130.6,-2.10448e-06,1.00509e-05,-3.20716e-08,1.02689e-05,55,117.2,-48.36,1.0833e+07,1e+06,-7.49393e-08,2.15846e-07,-6.41392e-08,-0.0017182,0.0397969,-2.52679e-05,0.0407111,2,2798
12,8.27175e-22,1,4481,130.6,-2.17951e-06,1.01457e-05,-3.25761e-08,1.03772e-05,55,117.2,-48.36,1.0833e+07,1e+06,-7.51851e-08,2.17732e-07,-6.51528e-08,-0.00159354,0.0399789,-2.14141e-05,0.0408622,2,2799
12,8.27175e-22,1,4482,130.6,-2.25485e-06,1.02407e-05,-3.36354e-08,1.0486e-05,55,117.2,-48.36,1.0833e+07,1e+06,-7.51922e-08,2.19627e-07,-6.71368e-08,-0.00151258,0.0401545,-0.000325656,0.0411343,2,2800
12,6.95151e-22,1,4483,130.6,-2.32989e-06,1.03248e-05,-3.29774e-08,1.05845e-05,58.0625,117.2,-48.36,8.24975e+06,875000,-8.16331e-08,2.20273e-07,-6.56184e-08,-0.00146102,0.0362807,0.000280189,0.0379264,2,2801
12,4.31102e-22,2,4484,119,-2.41812e-06,1.03005e-05,-3.73831e-08,1.05806e-05,64.1875,105.96,84.4,3.08325e+06,625000,-9.4367e-08,2.2953e-07,-7.50784e-08,-0.00129143,0.0271788,0.000818138,0.0288484,3,1681
12,2.99078e-22,2,4485,119,-2.51862e-06,1.0179e-05,-4.47006e-08,1.04861e-05,67.25,105.96,84.4,500000,500000,-9.94247e-08,2.43252e-07,-8.97419e-08,-0.000661339,0.0227454,0.000523618,0.0236503,3,1682
12,2.99078e-22,2,4486,119,-2.61697e-06,1.00626e-05,-4.68152e-08,1.03974e-05,67.25,105.96,84.4,500000,500000,-9.76467e-08,2.50171e-07,-9.34582e-08,0.000107155,0.0239209,0.000661661,0.0244592,3,1683
12,2.99078e-22,2,4487,119,-2.71392e-06,9.95377e-06,-4.81414e-08,1.03172e-05,67.25,105.96,84.4,500000,500000,-9.64152e-08,2.54949e-07,-9.62735e-08,0.000594445,0.0247194,0.000711071,0.025051,3,1684
12,2.99078e-22,2,4488,119,-2.8098e-06,9.85098e-06,-4.92712e-08,1.0244e-05,67.25,105.96,84.4,500000,500000,-9.55201e-08,2.58633e-07,-9.85365e-08,0.000951521,0.0253274,0.000713927,0.0255518,3,1685
12,2.99078e-22,2,4489,119,-2.90496e-06,9.7532e-06,-5.01607e-08,1.01767e-05,67.25,105.96,84.4,500000,500000,-9.51915e-08,2.6189e-07,-1.00318e-07,0.0011975,0.0258353,0.000714371,0.0260097,3,1686
12,2.99078e-22,2,4490,119,-3.00018e-06,9.65955e-06,-5.08581e-08,1.01149e-05,67.25,105.96,84.4,500000,500000,-9.57752e-08,2.65172e-07,-1.01714e-07,0.00130641,0.0262695,0.000715562,0.0264547,3,1687
12,2.99078e-22,2,4491,119,-3.09651e-06,9.56928e-06,-5.135e-08,1.00579e-05,67.25,105.96,84.4,500000,500000,-9.74054e-08,2.68489e-07,-1.027e-07,0.00125822,0.0266119,0.000714321,0.0268709,3,1688
12,2.99078e-22,2,4492,119,-3.19499e-06,9.48193e-06,-5.15333e-08,1.00059e-05,67.25,105.96,84.4,500000,500000,-9.99463e-08,2.71257e-07,-1.03042e-07,0.00104083,0.0267883,0.000707493,0.0271824,3,1689
12,2.99078e-22,2,4493,119,-3.2964e-06,9.39777e-06,-5.11046e-08,9.95926e-06,67.25,105.96,84.4,500000,500000,-1.0266e-07,2.71959e-07,-1.02176e-07,0.000678868,0.0266658,0.000713072,0.0272329,3,1690
12,2.99078e-22,2,4494,119,-3.40031e-06,9.31881e-06,-4.97864e-08,9.91992e-06,67.25,105.96,84.4,500000,500000,-1.02749e-07,2.66788e-07,-9.91988e-08,0.000370192,0.0260082,0.000725028,0.0266979,3,1691
12,2.93857e-22,2,4495,119,-3.5019e-06,9.25617e-06,-4.56754e-08,9.89657e-06,67.375,105.96,84.4,500000,500000,-9.15713e-08,2.4663e-07,-9.19423e-08,5.63143e-05,0.0254725,0.000853885,0.0265111,3,1692
12,2.92774e-22,2,4496,95.17,-3.58345e-06,9.21702e-06,-4.26248e-08,9.8892e-06,67.8125,150.32,151.68,1.14581e+06,531250,-7.00239e-08,2.15985e-07,-8.52241e-08,-0.000273263,0.0255023,0.000578366,0.0269528,3,1693
12,3.30208e-22,2,4497,95.17,-3.64195e-06,9.20611e-06,-4.00324e-08,9.90039e-06,68.5625,150.32,151.68,3.72906e+06,656250,-5.59692e-08,2.07434e-07,-8.01259e-08,0.00168669,0.0298158,0.000502327,0.0304762,3,1694
12,3.99409e-22,1,4498,73.93,-3.69539e-06,9.22835e-06,-3.83848e-08,9.94082e-06,69.375,-115.96,-166.85,7.60394e+06,843750,-5.54963e-08,2.22718e-07,-7.68215e-08,0.00509718,0.0368379,0.000882781,0.0354428,2,2802
12,4.66996e-22,1,4499,73.93,-3.75294e-06,9.284e-06,-3.86479e-08,1.00139e-05,70.5625,-115.96,-166.85,1.01872e+07,968750,-6.07539e-08,2.30317e-07,-7.67234e-08,0.00582382,0.0389086,0.00079347,0.0364623,2,2803
12,5.77529e-22,1,4500,73.93,-3.8169e-06,9.35062e-06,-4.05119e-08,1.00997e-05,74.125,-115.96,-166.85,1.0833e+07,1e+06,-6.68822e-08,2.35981e-07,-8.16613e-08,0.00515305,0.0377438,0.000445628,0.0359021,2,2804
12,7.15519e-22,1,4501,91.26,-3.8867e-06,9.38321e-06,-4.45771e-08,1.01564e-05,78.9375,-49.63,-179.82,1.0833e+07,1e+06,-7.10908e-08,2.39597e-07,-8.91471e-08,0.0045925,0.0347262,1.95479e-05,0.0332215,2,2805
12,7.74657e-22,1,4502,91.26,-3.95908e-06,9.39098e-06,-4.48908e-08,1.01915e-05,81,-49.63,-179.82,1.0833e+07,1e+06,-7.25918e-08,2.33484e-07,-8.95136e-08,0.00374934,0.0317028,-6.99663e-05,0.0301301,2,2806
12,7.74657e-22,1,4503,91.26,-4.03189e-06,9.39954e-06,-4.32511e-08,1.02279e-05,81,-49.63,-179.82,1.0833e+07,1e+06,-7.29943e-08,2.277e-07,-8.64531e-08,0.00306566,0.0307414,2.57551e-05,0.0294302,2,2807
12,7.74657e-22,1,4504,91.26,-4.10507e-06,9.40476e-06,-4.2165e-08,1.02617e-05,81,-49.63,-179.82,1.0833e+07,1e+06,-7.35158e-08,2.2315e-07,-8.43287e-08,0.00245158,0.0299158,4.58277e-06,0.0289018,2,2808
12,7.74657e-22,1,4505,91.26,-4.17892e-06,9.40668e-06,-4.13258e-08,1.02932e-05,81,-49.63,-179.82,1.0833e+07,1e+06,-7.43568e-08,2.20108e-07,-8.26599e-08,0.00191492,0.0293311,2.84188e-05,0.0285394,2,2809
12,7.74657e-22,1,4506,91.26,-4.25378e-06,9.40585e-06,-4.06865e-08,1.03231e-05,81,-49.63,-179.82,1.0833e+07,1e+06,-7.52111e-08,2.1784e-07,-8.13788e-08,0.00145036,0.0288693,4.19404e-05,0.0282655,2,2810
12,7.74657e-22,1,4507,91.26,-4.32934e-06,9.40221e-06,-4.0136e-08,1.03512e-05,81,-49.63,-179.82,1.0833e+07,1e+06,-7.55243e-08,2.15621e-07,-8.02744e-08,0.00113856,0.0284673,4.76344e-05,0.0279886,2,2811
12,7.74657e-22,1,4508,91.26,-4.40483e-06,9.39541e-06,-3.96042e-08,1.03768e-05,81,-49.63,-179.82,1.0833e+07,1e+06,-7.49769e-08,2.13018e-07,-7.92094e-08,0.00102512,0.0280877,4.98592e-05,0.0276522,2,2812
12,7.74657e-22,1,4509,91.26,-4.47929e-06,9.38509e-06,-3.90415e-08,1.03993e-05,81,-49.63,-179.82,1.0833e+07,1e+06,-7.34468e-08,2.09811e-07,-7.80856e-08,0.00112374,0.0277095,5.53994e-05,0.0272292,2,2813
12,7.74657e-22,1,4510,91.26,-4.55172e-06,9.37105e-06,-3.84185e-08,1.04181e-05,81,-49.63,-179.82,1.0833e+07,1e+06,-7.10185e-08,2.05918e-07,-7.68424e-08,0.00140911,0.0273106,5.89855e-05,0.0267184,2,2814
12,7.74657e-22,1,4511,91.26,-4.62133e-06,9.35333e-06,-3.72516e-08,1.04328e-05,81,-49.63,-179.82,1.0833e+07,1e+06,-6.78736e-08,2.01389e-07,-7.45062e-08,0.0019163,0.0270099,0.000324486,0.0260932,2,2815
12,7.66148e-22,1,4512,91.26,-4.68747e-06,9.33206e-06,-3.67346e-08,1.04432e-05,89,-49.63,-179.82,1.0833e+07,1e+06,-5.67327e-08,1.96359e-07,-7.34749e-08,0.00241184,0.0308786,-0.000499632,0.0303365,2,2816
12,7.4913e-22,1,4513,137.15,-4.7348e-06,9.3521e-06,-3.33434e-08,1.04824e-05,105,109.19,-42.07,1.0833e+07,1e+06,-3.81614e-08,1.8947e-07,-6.66866e-08,0.00330983,0.0389542,-0.000317276,0.0379858,2,2817
12,7.40621e-22,1,4514,137.15,-4.76379e-06,9.4056e-06,-2.94834e-08,1.05432e-05,113,109.19,-42.07,1.0833e+07,1e+06,-2.72937e-08,1.80975e-07,-5.89544e-08,0.0041906,0.0422858,0.000479571,0.0405997,2,2818
12,7.40621e-22,1,4515,137.15,-4.78938e-06,9.44168e-06,-2.86988e-08,1.0587e-05,113,109.19,-42.07,1.0833e+07,1e+06,-2.39328e-08,1.73442e-07,-5.73887e-08,0.00463526,0.0410315,-2.91061e-06,0.0396942,2,2819
12,7.40621e-22,1,4516,137.15,-4.81166e-06,9.46431e-06,-2.76783e-08,1.06172e-05,113,109.19,-42.07,1.0833e+07,1e+06,-2.12957e-08,1.6824e-07,-5.53554e-08,0.00509619,0.0403205,-1.62319e-05,0.0390257,2,2820
12,7.40621e-22,1,4517,137.15,-4.83197e-06,9.47792e-06,-2.71367e-08,1.06386e-05,113,109.19,-42.07,1.0833e+07,1e+06,-2.00219e-08,1.65858e-07,-5.42744e-08,0.0053295,0.0400802,-2.26395e-05,0.0388597,2,2821
12,7.40621e-22,1,4518,137.15,-4.8517e-06,9.48655e-06,-2.70046e-08,1.06553e-05,113,109.19,-42.07,1.0833e+07,1e+06,-2.00463e-08,1.66095e-07,-5.40085e-08,0.00535751,0.040287,-2.03559e-05,0.039155,2,2822
12,7.40621e-22,1,4519,137.15,-4.87207e-06,9.49339e-06,-2.72051e-08,1.06706e-05,113,109.19,-42.07,1.0833e+07,1e+06,-2.11948e-08,1.68505e-07,-5.44081e-08,0.00520219,0.0408665,-1.74668e-05,0.0398402,2,2823
12,7.40621e-22,1,4520,137.15,-4.89409e-06,9.50109e-06,-2.76571e-08,1.06875e-05,113,109.19,-42.07,1.0833e+07,1e+06,-2.32813e-08,1.72609e-07,-5.53124e-08,0.00488648,0.0417322,-1.56398e-05,0.0408337,2,2824
12,7.40621e-22,1,4521,137.15,-4.91863e-06,9.51181e-06,-2.82842e-08,1.07083e-05,113,109.19,-42.07,1.0833e+07,1e+06,-2.61629e-08,1.77981e-07,-5.65658e-08,0.00442469,0.0428075,-1.5976e-05,0.0420713,2,2825
12,7.40621e-22,1,4522,137.15,-4.94642e-06,9.52732e-06,-2.90209e-08,1.07349e-05,113,109.19,-42.07,1.0833e+07,1e+06,-2.97353e-08,1.84297e-07,-5.80442e-08,0.00382611,0.0440368,-1.93881e-05,0.0435115,2,2826
12,7.40621e-22,1,4523,137.15,-4.9781e-06,9.54916e-06,-2.98141e-08,1.07689e-05,113,109.19,-42.07,1.0833e+07,1e+06,-3.38419e-08,1.91144e-07,-5.96342e-08,0.00310468,0.0453348,-2.5852e-05,0.0450703,2,2827
12,7.40621e-22,1,4524,137.15,-5.0141e-06,9.57905e-06,-3.05739e-08,1.08121e-05,113,109.19,-42.07,1.0833e+07,1e+06,-3.80123e-08,1.97358e-07,-6.10272e-08,0.00231868,0.0464386,-2.09799e-05,0.0464413,2,2828
12,7.40621e-22,1,4525,137.15,-5.05413e-06,9.61863e-06,-3.03759e-08,1.08657e-05,113,109.19,-42.07,1.0833e+07,1e+06,-3.9914e-08,1.9926e-07,-6.07799e-08,0.00194375,0.0467123,0.000202699,0.046672,2,2829
12,7.40621e-22,1,4526,137.15,-5.09393e-06,9.66452e-06,-2.90057e-08,1.09248e-05,113,109.19,-42.07,1.0833e+07,1e+06,-3.70711e-08,1.8641e-07,-5.74969e-08,0.00187035,0.0435412,0.000114337,0.0434039,2,2830
12,7.20997e-22,1,4527,137.15,-5.12827e-06,9.71375e-06,-2.59421e-08,1.09844e-05,111.5,109.19,-42.07,1.01872e+07,968750,-4.18232e-08,1.73095e-07,-5.24943e-08,0.00163164,0.0363856,0.000775719,0.036044,2,2831
12,7.14978e-22,1,4528,97.4,-5.17758e-06,9.76199e-06,-3.33181e-08,1.10501e-05,108.75,-41.8,1.73,9.54138e+06,937500,-6.25773e-08,1.97202e-07,-6.72692e-08,0.00156101,0.0306929,0.000507247,0.0304361,2,2832
12,7.61813e-22,1,4529,97.4,-5.25342e-06,9.81699e-06,-4.41902e-08,1.11343e-05,107.75,-41.8,1.73,1.01872e+07,968750,-8.24575e-08,2.37003e-07,-8.78071e-08,0.00147041,0.0315907,-0.000348701,0.0314289,2,2833
12,7.95043e-22,1,4530,97.4,-5.34249e-06,9.88511e-06,-4.70329e-08,1.12365e-05,108,-41.8,1.73,1.0833e+07,1e+06,-9.26822e-08,2.60296e-07,-9.41502e-08,0.00122204,0.0351509,4.27414e-05,0.0348116,2,2834
12,7.95043e-22,1,4531,97.4,-5.43879e-06,9.95676e-06,-4.9761e-08,1.13455e-05,108,-41.8,1.73,1.0833e+07,1e+06,-9.73881e-08,2.74922e-07,-9.95184e-08,0.00143131,0.0371615,7.94886e-05,0.0367544,2,2835
12,7.95043e-22,1,4532,97.4,-5.53727e-06,1.00274e-05,-5.14322e-08,1.14548e-05,108,-41.8,1.73,1.0833e+07,1e+06,-9.75469e-08,2.82477e-07,-1.02758e-07,0.00217662,0.0384599,9.62001e-05,0.0376545,2,2836
12,7.95043e-22,1,4533,97.4,-5.63388e-06,1.00933e-05,-5.1064e-08,1.15593e-05,108,-41.8,1.73,1.0833e+07,1e+06,-9.40152e-08,2.82873e-07,-1.02196e-07,0.00332774,0.0390955,0.000534481,0.0374348,2,2837
12,7.81438e-22,1,4534,97.4,-5.7253e-06,1.01469e-05,-5.10633e-08,1.16508e-05,109.25,-41.8,1.73,1.0833e+07,1e+06,-7.60433e-08,2.75409e-07,-1.01919e-07,0.00459517,0.0443633,-0.000654354,0.0431571,2,2838
12,7.54227e-22,1,4535,137.15,-5.78597e-06,1.02381e-05,-4.56237e-08,1.176e-05,111.75,109.19,-42.07,1.0833e+07,1e+06,-4.42095e-08,2.49547e-07,-9.11483e-08,0.00613744,0.0509095,-0.000443545,0.0488495,2,2839
12,7.40621e-22,1,4536,137.15,-5.81372e-06,1.03662e-05,-3.92641e-08,1.18853e-05,113,109.19,-42.07,1.0833e+07,1e+06,-2.37656e-08,2.20756e-07,-7.86968e-08,0.00753277,0.0504281,0.000676855,0.0467753,2,2840
12,7.40621e-22,1,4537,137.15,-5.8335e-06,1.04801e-05,-3.84565e-08,1.19943e-05,113,109.19,-42.07,1.0833e+07,1e+06,-1.8086e-08,2.05613e-07,-7.60008e-08,0.00804973,0.0471963,3.73663e-05,0.0437755,2,2841
12,7.13833e-22,1,4538,137.15,-5.84989e-06,1.05864e-05,-3.63134e-08,1.20952e-05,113.562,109.19,-42.07,1.01872e+07,968750,-1.60219e-08,1.95388e-07,-7.22917e-08,0.00758311,0.0444461,0.000465191,0.0412571,2,2842
12,5.79891e-22,1,4539,137.15,-5.86554e-06,1.06936e-05,-3.69798e-08,1.21967e-05,116.375,109.19,-42.07,6.95812e+06,812500,-1.06939e-08,1.85478e-07,-7.62164e-08,0.00580369,0.0385403,0.00145848,0.0366155,2,2843
12,3.92372e-22,2,4540,94.25,-5.87128e-06,1.07862e-05,-5.24652e-08,1.22808e-05,120.312,20.61,141.14,2.43744e+06,593750,2.2198e-09,1.82638e-07,-1.05675e-07,0.00294727,0.0301987,0.00106437,0.0299667,3,1695
12,3.12007e-22,2,4541,94.25,-5.8611e-06,1.08451e-05,-6.56887e-08,1.23277e-05,122,20.61,141.14,500000,500000,1.13596e-08,1.82862e-07,-1.29739e-07,0.00144325,0.0255197,-9.39486e-06,0.025708,3,1696
12,3.12007e-22,2,4542,94.25,-5.84856e-06,1.08614e-05,-6.56872e-08,1.23361e-05,122,20.61,141.14,500000,500000,9.34229e-09,1.85076e-07,-1.30998e-07,0.0012147,0.0252428,5.25473e-05,0.025065,3,1697
12,3.12007e-22,2,4543,94.25,-5.84242e-06,1.0833e-05,-6.62809e-08,1.23082e-05,122,20.61,141.14,500000,500000,4.2612e-09,1.91749e-07,-1.32804e-07,0.000580983,0.0257257,0.000113456,0.0255906,3,1698
12,3.12007e-22,2,4544,94.25,-5.84004e-06,1.0774e-05,-6.65296e-08,1.22552e-05,122,20.61,141.14,500000,500000,1.62178e-09,1.92745e-07,-1.33073e-07,0.000194348,0.025416,1.04834e-05,0.0254041,3,1699
12,3.12007e-22,2,4545,94.25,-5.83917e-06,1.06885e-05,-6.57468e-08,1.21796e-05,122,20.61,141.14,500000,500000,5.38474e-10,1.90536e-07,-1.31534e-07,8.03586e-05,0.0248215,-1.37867e-05,0.0248165,3,1700
12,5.69008e-22,1,4546,71.87,-1.93059e-08,8.65744e-06,-2.73531e-08,8.6575e-06,27,-131.18,-164.33,1.0833e+07,1e+06,-3.86018e-08,1.66386e-07,-5.47063e-08,0.00555024,0.0301391,0.000535058,0.0275759,2,2844
12,5.69008e-22,1,4547,71.87,-5.78977e-08,8.71577e-06,-2.89506e-08,8.71601e-06,27,-131.18,-164.33,1.0833e+07,1e+06,-3.8813e-08,1.66621e-07,-5.79064e-08,0.00559386,0.0295564,-0.000500228,0.027533,2,2845
12,5.69008e-22,1,4548,71.87,-9.6932e-08,8.77509e-06,-2.82523e-08,8.77568e-06,27,-131.18,-164.33,1.0833e+07,1e+06,-3.93434e-08,1.67552e-07,-5.65026e-08,0.00572715,0.0298204,-3.13894e-06,0.0274259,2,2846
12,5.69008e-22,1,4549,71.87,-1.36585e-07,8.8359e-06,-2.85242e-08,8.837e-06,27,-131.18,-164.33,1.0833e+07,1e+06,-3.98322e-08,1.69066e-07,-5.70478e-08,0.00576186,0.0300252,-4.78578e-06,0.0276257,2,2847
12,5.69008e-22,1,4550,71.87,-1.76596e-07,8.89873e-06,-2.89117e-08,8.90053e-06,27,-131.18,-164.33,1.0833e+07,1e+06,-4.02485e-08,1.71011e-07,-5.7823e-08,0.00584494,0.0303129,-2.08436e-06,0.0278954,2,2848
12,5.69008e-22,1,4551,71.87,-2.17082e-07,8.96377e-06,-2.93785e-08,8.96645e-06,27,-131.18,-164.33,1.0833e+07,1e+06,-4.08028e-08,1.733e-07,-5.87568e-08,0.00592245,0.0306358,-5.39121e-06,0.0282161,2,2849
12,5.69008e-22,1,4552,71.87,-2.58202e-07,9.03114e-06,-2.99107e-08,9.03488e-06,27,-131.18,-164.33,1.0833e+07,1e+06,-4.15561e-08,1.75942e-07,-5.98207e-08,0.00598177,0.0309893,-9.138e-06,0.028589,2,2850
12,5.69008e-22,1,4553,71.87,-3.00194e-07,9.10092e-06,-3.05114e-08,9.10592e-06,27,-131.18,-164.33,1.0833e+07,1e+06,-4.25913e-08,1.7902e-07,-6.10219e-08,0.00600861,0.031383,-1.29161e-05,0.0290326,2,2851
12,5.69008e-22,1,4554,71.87,-3.43385e-07,9.17313e-06,-3.1187e-08,9.17961e-06,27,-131.18,-164.33,1.0833e+07,1e+06,-4.40025e-08,1.82647e-07,-6.2373e-08,0.00598861,0.0318358,-1.66445e-05,0.0295727,2,2852
12,5.69008e-22,1,4555,71.87,-3.88199e-07,9.24766e-06,-3.19406e-08,9.25586e-06,27,-131.18,-164.33,1.0833e+07,1e+06,-4.58775e-08,1.86944e-07,-6.38796e-08,0.00590907,0.0323723,-1.99571e-05,0.0302341,2,2853
12,5.69008e-22,1,4556,71.87,-4.3514e-07,9.32419e-06,-3.27669e-08,9.3344e-06,27,-131.18,-164.33,1.0833e+07,1e+06,-4.82775e-08,1.92001e-07,-6.55313e-08,0.00576161,0.03302,-2.203e-05,0.0310329,2,2854
12,5.69008e-22,1,4557,71.87,-4.84754e-07,9.40205e-06,-3.36497e-08,9.4146e-06,27,-131.18,-164.33,1.0833e+07,1e+06,-5.12153e-08,1.97855e-07,-6.72964e-08,0.0055455,0.0338064,-2.15517e-05,0.0319718,2,2855
12,5.69008e-22,1,4558,71.87,-5.3757e-07,9.4801e-06,-3.4563e-08,9.49539e-06,27,-131.18,-164.33,1.0833e+07,1e+06,-5.46216e-08,2.04472e-07,-6.91242e-08,0.00527477,0.0347571,-1.63635e-05,0.0330399,2,2856
12,5.69008e-22,1,4559,71.87,-5.93997e-07,9.55672e-06,-3.5478e-08,9.57523e-06,27,-131.18,-164.33,1.0833e+07,1e+06,-5.82345e-08,2.1169e-07,-7.09494e-08,0.00500385,0.0358948,-8.53572e-07,0.0342113,2,2857
12,5.69008e-22,1,4560,71.87,-6.54039e-07,9.62977e-06,-3.63435e-08,9.65202e-06,27,-131.18,-164.33,1.0833e+07,1e+06,-6.142e-08,2.18998e-07,-7.26829e-08,0.00485308,0.0372053,2.37242e-05,0.0354221,2,2858
12,5.69008e-22,1,4561,71.87,-7.16837e-07,9.69621e-06,-3.70645e-08,9.72275e-06,27,-131.18,-164.33,1.0833e+07,1e+06,-6.32942e-08,2.25541e-07,-7.415e-08,0.00497985,0.0386344,5.50175e-05,0.0365906,2,2859
12,5.69008e-22,1,4562,71.87,-7.80628e-07,9.75181e-06,-3.77948e-08,9.78308e-06,27,-131.18,-164.33,1.0833e+07,1e+06,-6.38514e-08,2.31378e-07,-7.57023e-08,0.00534178,0.0402007,-2.528e-05,0.0379166,2,2860
12,5.69008e-22,1,4563,71.87,-8.4454e-07,9.79284e-06,-3.74502e-08,9.82926e-06,27,-131.18,-164.33,1.0833e+07,1e+06,-6.47595e-08,2.39697e-07,-7.49134e-08,0.00608658,0.0426381,0.000857074,0.0395271,2,2861
12,5.02155e-22,1,4564,71.87,-9.10147e-07,9.82075e-06,-4.59098e-08,9.86294e-06,29.75,-131.18,-164.33,8.24975e+06,875000,-7.05406e-08,2.58229e-07,-9.18741e-08,0.00583519,0.0400582,0.000113201,0.0387147,2,2862
12,3.68448e-22,2,4565,95.55,-9.85621e-07,9.77325e-06,-6.34306e-08,9.82303e-06,35.25,20.95,172.44,3.08325e+06,625000,-8.06489e-08,2.79896e-07,-1.26959e-07,0.00451039,0.0283726,-0.00084058,0.0282337,3,1701
12,3.01595e-22,2,4566,95.55,-1.07144e-06,9.66231e-06,-7.0257e-08,9.72179e-06,38,20.95,172.44,500000,500000,-8.78035e-08,2.86585e-07,-1.40253e-07,0.00369056,0.0207559,1.83925e-05,0.0194509,3,1702
12,3.05496e-22,2,4567,95.55,-1.16123e-06,9.5536e-06,-6.45829e-08,9.62413e-06,37.625,20.95,172.44,500000,500000,-8.80946e-08,2.77002e-07,-1.28285e-07,0.00320597,0.0216956,0.000438626,0.0206208,3,1703
12,3.21097e-22,2,4568,95.55,-1.24763e-06,9.45342e-06,-5.21731e-08,9.53554e-06,36.125,20.95,172.44,500000,500000,-7.82213e-08,2.44519e-07,-1.03826e-07,0.00201723,0.0236925,0.000403419,0.0235064,3,1704
12,3.40599e-22,2,4569,122.93,-1.31767e-06,9.39328e-06,-3.67213e-08,9.48532e-06,34.25,-96.81,-155.62,500000,500000,-6.65495e-08,2.01966e-07,-7.42564e-08,0.00043145,0.0243976,0.000736015,0.0248965,3,1705
12,3.81248e-22,2,4570,122.93,-1.38073e-06,9.36783e-06,-2.69615e-08,9.46908e-06,34.5625,-96.81,-155.62,1.14581e+06,531250,-6.32577e-08,1.76025e-07,-5.49997e-08,-0.0012106,0.0245583,0.000966256,0.0257992,3,1706
12,5.33791e-22,2,4571,122.93,-1.44419e-06,9.3755e-06,-2.22344e-08,9.4861e-06,41,-96.81,-155.62,4.37488e+06,687500,-6.00466e-08,1.57437e-07,-4.47128e-08,-0.00243365,0.0254849,0.00035033,0.0275457,3,1707
12,7.4033e-22,1,4572,130.6,-1.50083e-06,9.42495e-06,-1.95219e-08,9.54372e-06,50.6875,117.2,-48.36,8.89556e+06,906250,-5.65605e-08,1.47017e-07,-3.89995e-08,-0.00261468,0.0268343,0.000534545,0.02847,2,2863
12,8.27175e-22,1,4573,130.6,-1.55731e-06,9.50085e-06,-2.14938e-08,9.62766e-06,55,117.2,-48.36,1.0833e+07,1e+06,-5.96663e-08,1.57225e-07,-4.25312e-08,-0.00265402,0.0293561,0.000575102,0.0306701,2,2864
12,8.27175e-22,1,4574,130.6,-1.62016e-06,9.59217e-06,-2.49555e-08,9.72806e-06,55,117.2,-48.36,1.0833e+07,1e+06,-6.54455e-08,1.74876e-07,-4.95464e-08,-0.00278337,0.032342,0.000125694,0.0338107,2,2865
12,8.27175e-22,1,4575,130.6,-1.6882e-06,9.68978e-06,-2.68175e-08,9.83578e-06,55,117.2,-48.36,1.0833e+07,1e+06,-6.9403e-08,1.87638e-07,-5.37832e-08,-0.00277031,0.0347054,1.36983e-05,0.0362005,2,2866
12,8.27175e-22,1,4576,130.6,-1.75896e-06,9.78785e-06,-2.82196e-08,9.94469e-06,55,117.2,-48.36,1.0833e+07,1e+06,-7.13197e-08,1.96223e-07,-5.63946e-08,-0.0025336,0.0364506,4.25544e-05,0.0378071,2,2867
12,8.27175e-22,1,4577,130.6,-1.83084e-06,9.88456e-06,-2.9186e-08,1.00527e-05,55,117.2,-48.36,1.0833e+07,1e+06,-7.18608e-08,2.01729e-07,-5.83876e-08,-0.00219283,0.0376026,2.27116e-05,0.0387828,2,2868
12,8.27175e-22,1,4578,130.6,-1.90269e-06,9.97986e-06,-2.99576e-08,1.01597e-05,55,117.2,-48.36,1.0833e+07,1e+06,-7.1525e-08,2.05422e-07,-5.99182e-08,-0.00175915,0.0384076,2.26149e-05,0.039348,2,2869
12,8.27175e-22,1,4579,130.6,-1.97389e-06,1.00743e-05,-3.05635e-08,1.02659e-05,55,117.2,-48.36,1.0833e+07,1e+06,-7.06332e-08,2.07658e-07,-6.1126e-08,-0.00129161,0.0388913,2.32258e-05,0.0395705,2,2870
12,8.27175e-22,1,4580,130.6,-2.04395e-06,1.01688e-05,-3.10825e-08,1.03722e-05,55,117.2,-48.36,1.0833e+07,1e+06,-6.93529e-08,2.08922e-07,-6.21665e-08,-0.00079306,0.0391375,2.38756e-05,0.0395434,2,2871
12,8.27175e-22,1,4581,130.6,-2.11259e-06,1.0264e-05,-3.1605e-08,1.04792e-05,55,117.2,-48.36,1.0833e+07,1e+06,-6.78988e-08,2.09825e-07,-6.32123e-08,-0.00026965,0.039264,2.39855e-05,0.0394022,2,2872
12,8.27175e-22,1,4582,130.6,-2.17975e-06,1.03603e-05,-3.21527e-08,1.05871e-05,55,117.2,-48.36,1.0833e+07,1e+06,-6.6396e-08,2.11013e-07,-6.42837e-08,0.00030963,0.03944,7.15245e-05,0.0392917,2,2873
12,8.27175e-22,1,4583,130.6,-2.24538e-06,1.04572e-05,-3.34122e-08,1.06956e-05,55,117.2,-48.36,1.0833e+07,1e+06,-6.49694e-08,2.13511e-07,-6.7025e-08,0.000882958,0.0397849,-0.000260388,0.0395158,2,2874
12,6.97761e-22,1,4584,130.6,-2.30969e-06,1.05461e-05,-3.46853e-08,1.07961e-05,58,117.2,-48.36,8.24975e+06,875000,-7.31074e-08,2.21155e-07,-6.95263e-08,0.00148547,0.0366317,-0.000291844,0.0369655,2,2875
12,4.38933e-22,2,4585,119,-2.3916e-06,1.05373e-05,-4.18925e-08,1.08054e-05,64,105.96,84.4,3.08325e+06,625000,-9.12872e-08,2.38748e-07,-8.36753e-08,0.0015493,0.027143,-0.000200964,0.0274393,3,1708
12,3.0952e-22,2,4586,119,-2.49226e-06,1.04328e-05,-5.08588e-08,1.07265e-05,67,105.96,84.4,500000,500000,-1.00783e-07,2.56116e-07,-1.0161e-07,0.00148941,0.0216223,-0.000655505,0.0213696,3,1709
12,3.0952e-22,2,4587,119,-2.59317e-06,1.03243e-05,-5.3728e-08,1.06452e-05,67,105.96,84.4,500000,500000,-1.00232e-07,2.64591e-07,-1.07383e-07,0.00197329,0.0226575,-0.000814549,0.0223549,3,1710
12,3.0952e-22,2,4588,119,-2.69273e-06,1.02204e-05,-5.52585e-08,1.05693e-05,67,105.96,84.4,500000,500000,-9.86034e-08,2.69118e-07,-1.10503e-07,0.00247231,0.0234151,-0.000802238,0.0229684,3,1711
12,3.0952e-22,2,4589,119,-2.79037e-06,1.01212e-05,-5.64862e-08,1.0499e-05,67,105.96,84.4,500000,500000,-9.69824e-08,2.72334e-07,-1.12957e-07,0.00289528,0.0240214,-0.000835805,0.0235153,3,1712
12,3.0952e-22,2,4590,119,-2.88669e-06,1.00266e-05,-5.73969e-08,1.04341e-05,67,105.96,84.4,500000,500000,-9.62717e-08,2.75395e-07,-1.1478e-07,0.00318947,0.0245591,-0.000852959,0.0240508,3,1713
12,3.0952e-22,2,4591,119,-2.98292e-06,9.93635e-06,-5.80797e-08,1.03746e-05,67,105.96,84.4,500000,500000,-9.68503e-08,2.78706e-07,-1.16149e-07,0.00331126,0.0250278,-0.000873334,0.0245902,3,1714
12,3.0952e-22,2,4592,119,-3.08039e-06,9.84969e-06,-5.85415e-08,1.03203e-05,67,105.96,84.4,500000,500000,-9.87521e-08,2.82235e-07,-1.17063e-07,0.00325123,0.025413,-0.000900602,0.0251139,3,1715
12,3.0952e-22,2,4593,119,-3.18042e-06,9.76564e-06,-5.86713e-08,1.02706e-05,67,105.96,84.4,500000,500000,-1.01794e-07,2.85424e-07,-1.1731e-07,0.00299624,0.0256573,-0.000931698,0.0255592,3,1716
12,3.0952e-22,2,4594,119,-3.28398e-06,9.68291e-06,-5.82641e-08,1.02248e-05,67,105.96,84.4,500000,500000,-1.05097e-07,2.86791e-07,-1.165e-07,0.00256291,0.0256419,-0.000953789,0.0257864,3,1717
12,3.0952e-22,2,4595,119,-3.39061e-06,9.59964e-06,-5.71398e-08,1.0181e-05,67,105.96,84.4,500000,500000,-1.05949e-07,2.8298e-07,-1.13603e-07,0.00216435,0.0251819,-0.000833072,0.0253976,3,1718
12,3.06909e-22,2,4596,119,-3.49588e-06,9.51311e-06,-5.22378e-08,1.01352e-05,67.0625,105.96,84.4,500000,500000,-9.69085e-08,2.64088e-07,-1.04024e-07,0.0020714,0.0245019,-0.000174053,0.0246193,3,1719
12,3.29763e-22,2,4597,119,-3.58443e-06,9.43171e-06,-4.20328e-08,1.00899e-05,67.75,105.96,84.4,2.43744e+06,593750,-7.468e-08,2.25217e-07,-8.56151e-08,0.00233955,0.0253975,0.000540199,0.0250954,3,1720
12,3.95271e-22,1,4598,73.93,-3.64524e-06,9.40947e-06,-3.74309e-08,1.0091e-05,69.0625,-115.96,-166.85,6.95812e+06,812500,-5.61601e-08,2.10316e-07,-7.54246e-08,0.00447133,0.0320716,0.000553856,0.0305852,2,2876
12,4.47284e-22,1,4599,73.93,-3.69675e-06,9.45057e-06,-3.93411e-08,1.01479e-05,69.875,-115.96,-166.85,1.01872e+07,968750,-5.56119e-08,2.23595e-07,-7.7659e-08,0.0060598,0.0380486,0.000160343,0.0356881,2,2877
12,4.59252e-22,1,4600,73.93,-3.75646e-06,9.51054e-06,-3.84393e-08,1.02256e-05,70,-115.96,-166.85,1.0833e+07,1e+06,-6.24068e-08,2.27215e-07,-7.72151e-08,0.00521283,0.0380969,0.000110002,0.0357266,2,2878
12,5.38104e-22,1,4601,73.93,-3.82157e-06,9.58135e-06,-4.045e-08,1.03154e-05,72.75,-115.96,-166.85,1.0833e+07,1e+06,-6.84057e-08,2.31039e-07,-8.09622e-08,0.004085,0.0368663,-0.000467317,0.0358447,2,2879
12,6.95806e-22,1,4602,91.26,-3.89327e-06,9.62185e-06,-4.53641e-08,1.03798e-05,78.25,-49.63,-179.82,1.0833e+07,1e+06,-7.41885e-08,2.38827e-07,-9.01043e-08,0.00344023,0.0343197,-0.000813402,0.0337591,2,2880
12,7.74657e-22,1,4603,91.26,-3.96994e-06,9.62647e-06,-4.55188e-08,1.0413e-05,81,-49.63,-179.82,1.0833e+07,1e+06,-7.54702e-08,2.36722e-07,-9.11553e-08,0.00322788,0.031835,-0.000316383,0.030518,2,2881
12,7.74657e-22,1,4604,91.26,-4.04421e-06,9.62777e-06,-4.34151e-08,1.04428e-05,81,-49.63,-179.82,1.0833e+07,1e+06,-7.29847e-08,2.27849e-07,-8.7029e-08,0.00305542,0.0306974,-0.000127254,0.0294131,2,2882
12,7.74657e-22,1,4605,91.26,-4.11591e-06,9.6272e-06,-4.21795e-08,1.04702e-05,81,-49.63,-179.82,1.0833e+07,1e+06,-7.16809e-08,2.22187e-07,-8.43606e-08,0.00285737,0.0299347,-4.13033e-06,0.0286808,2,2883
12,7.74657e-22,1,4606,91.26,-4.18758e-06,9.62559e-06,-4.12793e-08,1.04971e-05,81,-49.63,-179.82,1.0833e+07,1e+06,-7.19635e-08,2.18686e-07,-8.25812e-08,0.00242932,0.0293345,3.07124e-05,0.0282469,2,2884
12,7.74657e-22,1,4607,91.26,-4.25984e-06,9.62225e-06,-4.06107e-08,1.05231e-05,81,-49.63,-179.82,1.0833e+07,1e+06,-7.23935e-08,2.16004e-07,-8.12265e-08,0.00203871,0.0288453,3.96811e-05,0.0279276,2,2885
12,7.74657e-22,1,4608,91.26,-4.33236e-06,9.61636e-06,-4.0072e-08,1.05473e-05,81,-49.63,-179.82,1.0833e+07,1e+06,-7.24124e-08,2.13625e-07,-8.01444e-08,0.00179068,0.0284439,3.69432e-05,0.0276463,2,2886
12,7.74657e-22,1,4609,91.26,-4.40466e-06,9.60719e-06,-3.96217e-08,1.05689e-05,81,-49.63,-179.82,1.0833e+07,1e+06,-7.19558e-08,2.11389e-07,-7.92396e-08,0.00168903,0.0281151,3.37311e-05,0.0273808,2,2887
12,7.74657e-22,1,4610,91.26,-4.47627e-06,9.59414e-06,-3.92061e-08,1.05871e-05,81,-49.63,-179.82,1.0833e+07,1e+06,-7.09817e-08,2.09126e-07,-7.84052e-08,0.00173157,0.0278402,4.06194e-05,0.027114,2,2888
12,7.74657e-22,1,4611,91.26,-4.54663e-06,9.57681e-06,-3.87467e-08,1.06014e-05,81,-49.63,-179.82,1.0833e+07,1e+06,-6.94097e-08,2.06487e-07,-7.74947e-08,0.00191146,0.0275699,5.37095e-05,0.026814,2,2889
12,7.74657e-22,1,4612,91.26,-4.61509e-06,9.55517e-06,-3.77397e-08,1.06114e-05,81,-49.63,-179.82,1.0833e+07,1e+06,-6.71557e-08,2.03109e-07,-7.54939e-08,0.00228894,0.0273689,0.000311712,0.0264042,2,2890
12,7.66148e-22,1,4613,91.26,-4.68094e-06,9.52938e-06,-3.71642e-08,1.0617e-05,89,-49.63,-179.82,1.0833e+07,1e+06,-5.66108e-08,1.98877e-07,-7.43468e-08,0.00268625,0.0314798,-0.000498658,0.0309715,2,2891
12,7.4913e-22,1,4614,137.15,-4.72832e-06,9.54285e-06,-3.34561e-08,1.06501e-05,105,109.19,-42.07,1.0833e+07,1e+06,-3.81521e-08,1.92171e-07,-6.69078e-08,0.00356202,0.0399034,-0.000284538,0.0389866,2,2892
12,7.40621e-22,1,4615,137.15,-4.75724e-06,9.58774e-06,-2.93777e-08,1.07031e-05,113,109.19,-42.07,1.0833e+07,1e+06,-2.71048e-08,1.82903e-07,-5.8732e-08,0.0044316,0.0431835,0.000500189,0.0415789,2,2893
12,7.40621e-22,1,4616,137.15,-4.78253e-06,9.61589e-06,-2.85803e-08,1.07396e-05,113,109.19,-42.07,1.0833e+07,1e+06,-2.35564e-08,1.74356e-07,-5.71536e-08,0.0048417,0.0415846,-6.23787e-06,0.0403397,2,2894
12,7.40621e-22,1,4617,137.15,-4.80436e-06,9.63308e-06,-2.76581e-08,1.07647e-05,113,109.19,-42.07,1.0833e+07,1e+06,-2.09243e-08,1.68793e-07,-5.53213e-08,0.00525624,0.0406441,-2.49707e-05,0.0393976,2,2895
12,7.40621e-22,1,4618,137.15,-4.82437e-06,9.64429e-06,-2.72495e-08,1.07837e-05,113,109.19,-42.07,1.0833e+07,1e+06,-1.9867e-08,1.66498e-07,-5.45013e-08,0.00541713,0.0402792,-2.80826e-05,0.0390517,2,2896
12,7.40621e-22,1,4619,137.15,-4.84409e-06,9.65322e-06,-2.72372e-08,1.08005e-05,113,109.19,-42.07,1.0833e+07,1e+06,-2.01878e-08,1.66916e-07,-5.44738e-08,0.00535908,0.0403969,-2.59256e-05,0.0392142,2,2897
12,7.40621e-22,1,4620,137.15,-4.86475e-06,9.66254e-06,-2.75394e-08,1.08181e-05,113,109.19,-42.07,1.0833e+07,1e+06,-2.16501e-08,1.69497e-07,-5.50772e-08,0.0051138,0.0408981,-2.64619e-05,0.0397916,2,2898
12,7.40621e-22,1,4621,137.15,-4.88739e-06,9.67445e-06,-2.80864e-08,1.08389e-05,113,109.19,-42.07,1.0833e+07,1e+06,-2.40869e-08,1.738e-07,-5.6171e-08,0.00470051,0.041698,-3.01329e-05,0.0407054,2,2899
12,7.40621e-22,1,4622,137.15,-4.91292e-06,9.69071e-06,-2.88149e-08,1.0865e-05,113,109.19,-42.07,1.0833e+07,1e+06,-2.73959e-08,1.79471e-07,-5.76283e-08,0.00412568,0.0427285,-3.71404e-05,0.0419009,2,2900
12,7.40621e-22,1,4623,137.15,-4.94218e-06,9.71276e-06,-2.96707e-08,1.08979e-05,113,109.19,-42.07,1.0833e+07,1e+06,-3.14897e-08,1.86191e-07,-5.93221e-08,0.00339392,0.043932,-4.67013e-05,0.0433362,2,2901
12,7.40621e-22,1,4624,137.15,-4.9759e-06,9.74163e-06,-3.05218e-08,1.09389e-05,113,109.19,-42.07,1.0833e+07,1e+06,-3.60421e-08,1.93437e-07,-6.10756e-08,0.0025647,0.0452305,-5.0102e-05,0.0449198,2,2902
12,7.40621e-22,1,4625,137.15,-5.01427e-06,9.77752e-06,-3.118e-08,1.09883e-05,113,109.19,-42.07,1.0833e+07,1e+06,-4.01523e-08,1.9944e-07,-6.22296e-08,0.00179096,0.0463229,-2.3156e-06,0.0462803,2,2903
12,7.40621e-22,1,4626,137.15,-5.05621e-06,9.81806e-06,-3.09806e-08,1.10436e-05,113,109.19,-42.07,1.0833e+07,1e+06,-4.25979e-08,1.9985e-07,-6.20264e-08,0.00105829,0.0463075,-0.000162861,0.046729,2,2904
12,7.10793e-22,1,4627,137.15,-5.09946e-06,9.8509e-06,-2.90865e-08,1.10926e-05,112.438,109.19,-42.07,1.01872e+07,968750,-4.52967e-08,1.91592e-07,-5.72293e-08,0.000351669,0.0431239,0.000125812,0.0439213,2,2905
12,5.94879e-22,1,4628,137.15,-5.1468e-06,9.88372e-06,-2.65219e-08,1.11435e-05,109.875,109.19,-42.07,7.60394e+06,843750,-5.7629e-08,1.8749e-07,-5.38668e-08,-0.00018248,0.0347103,0.00125163,0.0354862,2,2906
12,5.18999e-22,2,4629,35.75,-5.21472e-06,9.95592e-06,-3.48516e-08,1.1239e-05,106.938,-59.17,80.08,5.6665e+06,750000,-7.64828e-08,2.11271e-07,-7.09579e-08,9.43887e-05,0.0279657,0.00095099,0.0286364,3,1721
12,6.28893e-22,1,4630,97.4,-5.29977e-06,1.00539e-05,-4.55971e-08,1.13653e-05,106.75,-41.8,1.73,7.60394e+06,843750,-8.64417e-08,2.43237e-07,-9.03918e-08,0.00115858,0.0301484,-6.69331e-05,0.0303839,2,2907
12,7.61813e-22,1,4631,97.4,-5.3876e-06,1.01446e-05,-4.79815e-08,1.14866e-05,107.75,-41.8,1.73,1.01872e+07,968750,-9.00696e-08,2.61378e-07,-9.57947e-08,0.00199048,0.0350807,-2.8277e-05,0.0345557,2,2908
12,7.95043e-22,1,4632,97.4,-5.47991e-06,1.02311e-05,-4.98246e-08,1.16064e-05,108,-41.8,1.73,1.0833e+07,1e+06,-9.40824e-08,2.74194e-07,-9.97065e-08,0.00227628,0.0374591,0.000121387,0.0365171,2,2909
12,7.95043e-22,1,4633,97.4,-5.57577e-06,1.03102e-05,-5.08646e-08,1.17215e-05,108,-41.8,1.73,1.0833e+07,1e+06,-9.5127e-08,2.81991e-07,-1.01901e-07,0.00285347,0.0388387,0.000424016,0.0374188,2,2910
12,7.91642e-22,1,4634,97.4,-5.67016e-06,1.03766e-05,-5.06551e-08,1.18249e-05,108.312,-41.8,1.73,1.0833e+07,1e+06,-8.74151e-08,2.76026e-07,-1.01231e-07,0.00368293,0.039751,-0.00012021,0.0383941,2,2911
12,7.74635e-22,1,4635,97.4,-5.7506e-06,1.04238e-05,-4.99069e-08,1.19049e-05,109.875,-41.8,1.73,1.0833e+07,1e+06,-6.3929e-08,2.63497e-07,-9.91582e-08,0.00547464,0.0456808,-0.00138247,0.0447208,2,2912
12,7.50825e-22,1,4636,137.15,-5.79802e-06,1.04875e-05,-4.44604e-08,1.19836e-05,112.062,109.19,-42.07,1.0833e+07,1e+06,-3.56816e-08,2.42562e-07,-8.86769e-08,0.00742788,0.0516419,-0.000476688,0.0491858,2,2913
12,7.40621e-22,1,4637,137.15,-5.82196e-06,1.05862e-05,-3.93695e-08,1.20815e-05,113,109.19,-42.07,1.0833e+07,1e+06,-2.22176e-08,2.20859e-07,-7.85349e-08,0.00803656,0.05081,0.000689639,0.0469896,2,2914
12,7.21453e-22,1,4638,137.15,-5.84245e-06,1.06865e-05,-3.98535e-08,1.21794e-05,113.188,109.19,-42.07,1.01872e+07,968750,-1.7344e-08,2.10547e-07,-7.94519e-08,0.00783513,0.0475681,0.000339001,0.044326,2,2915
12,6.2954e-22,1,4639,137.15,-5.85665e-06,1.07818e-05,-4.4083e-08,1.22698e-05,114.688,109.19,-42.07,7.60394e+06,843750,-8.97733e-09,2.03558e-07,-9.02703e-08,0.00631527,0.0423307,0.000483971,0.0407653,2,2916
12,4.68809e-22,2,4640,94.25,-5.86041e-06,1.08805e-05,-5.38738e-08,1.23585e-05,118.062,20.61,141.14,3.72906e+06,656250,8.6352e-10,1.99744e-07,-1.07453e-07,0.0041612,0.0358397,0.00122582,0.0358091,3,1722
12,3.46415e-22,2,4641,94.25,-5.85492e-06,1.09707e-05,-6.29225e-08,1.24354e-05,121.062,20.61,141.14,1.14581e+06,531250,7.66241e-09,1.93856e-07,-1.25107e-07,0.00199066,0.0296939,0.000630346,0.0304561,3,1723
12,3.12007e-22,2,4642,94.25,-5.84508e-06,1.10308e-05,-6.68043e-08,1.24839e-05,122,20.61,141.14,500000,500000,9.87435e-09,1.90212e-07,-1.34311e-07,0.000958795,0.0266674,-0.000131968,0.027315,3,1724
12,3.12007e-22,2,4643,94.25,-5.83517e-06,1.10496e-05,-6.78229e-08,1.24959e-05,122,20.61,141.14,500000,500000,8.56777e-09,1.91763e-07,-1.34922e-07,0.000949221,0.0263055,8.59503e-05,0.0263624,3,1725
12,3.12007e-22,2,4644,94.25,-5.82795e-06,1.10263e-05,-6.83389e-08,1.24719e-05,122,20.61,141.14,500000,500000,5.61403e-09,1.95697e-07,-1.36665e-07,0.000650541,0.0263165,5.4817e-05,0.0262475,3,1726
12,3.12007e-22,2,4645,94.25,-5.82395e-06,1.09693e-05,-6.86263e-08,1.24197e-05,122,20.61,141.14,500000,500000,2.77329e-09,1.98019e-07,-1.37272e-07,0.000341874,0.0261925,1.74454e-05,0.0261345,3,1727
12,3.12007e-22,2,4646,94.25,-5.8224e-06,1.08818e-05,-6.78746e-08,1.23417e-05,122,20.61,141.14,500000,500000,1.06103e-09,1.96542e-07,-1.35798e-07,0.000160611,0.025662,1.22418e-05,0.0256134,3,1728
12,5.69008e-22,1,4647,71.87,-1.95589e-08,8.82326e-06,-2.71352e-08,8.82332e-06,27,-131.18,-164.33,1.0833e+07,1e+06,-3.9105e-08,1.65646e-07,-5.42696e-08,0.0053415,0.0299448,0.000538164,0.027458,2,2917
12,5.69008e-22,1,4648,71.87,-5.86511e-08,8.88194e-06,-2.87475e-08,8.88218e-06,27,-131.18,-164.33,1.0833e+07,1e+06,-3.92612e-08,1.66034e-07,-5.75004e-08,0.00541322,0.0294198,-0.000495139,0.0274527,2,2918
12,5.69008e-22,1,4649,71.87,-9.80813e-08,8.94218e-06,-2.80402e-08,8.94276e-06,27,-131.18,-164.33,1.0833e+07,1e+06,-3.95883e-08,1.6685e-07,-5.60792e-08,0.00558965,0.0296927,2.43257e-06,0.0273386,2,2919
12,5.69008e-22,1,4650,71.87,-1.37828e-07,9.00435e-06,-2.82795e-08,9.00545e-06,27,-131.18,-164.33,1.0833e+07,1e+06,-3.9679e-08,1.67977e-07,-5.65591e-08,0.00569433,0.0298656,6.88773e-07,0.0274809,2,2920
12,5.69008e-22,1,4651,71.87,-1.77439e-07,9.06887e-06,-2.86218e-08,9.07065e-06,27,-131.18,-164.33,1.0833e+07,1e+06,-3.95265e-08,1.69339e-07,-5.72437e-08,0.00587465,0.0300949,2.70241e-06,0.0276581,2,2921
12,5.69008e-22,1,4652,71.87,-2.16881e-07,9.13589e-06,-2.90433e-08,9.13851e-06,27,-131.18,-164.33,1.0833e+07,1e+06,-3.93905e-08,1.7094e-07,-5.80865e-08,0.00607203,0.0303453,-1.99191e-06,0.0278662,2,2922
12,5.69008e-22,1,4653,71.87,-2.5622e-07,9.20559e-06,-2.95399e-08,9.2092e-06,27,-131.18,-164.33,1.0833e+07,1e+06,-3.93883e-08,1.72872e-07,-5.90794e-08,0.00626692,0.0306227,-7.62508e-06,0.0281206,2,2923
12,5.69008e-22,1,4654,71.87,-2.95657e-07,9.27816e-06,-3.01245e-08,9.28292e-06,27,-131.18,-164.33,1.0833e+07,1e+06,-3.9661e-08,1.75303e-07,-6.02484e-08,0.00643781,0.0309479,-1.34703e-05,0.0284553,2,2924
12,5.69008e-22,1,4655,71.87,-3.35542e-07,9.35378e-06,-3.08141e-08,9.35985e-06,27,-131.18,-164.33,1.0833e+07,1e+06,-4.03632e-08,1.78444e-07,-6.16274e-08,0.0065633,0.0313535,-1.92226e-05,0.0289133,2,2925
12,5.69008e-22,1,4656,71.87,-3.76384e-07,9.43252e-06,-3.1624e-08,9.44008e-06,27,-131.18,-164.33,1.0833e+07,1e+06,-4.165e-08,1.82523e-07,-6.32469e-08,0.00662305,0.0318804,-2.47318e-05,0.0295383,2,2926
12,5.69008e-22,1,4657,71.87,-4.18842e-07,9.51422e-06,-3.25625e-08,9.52349e-06,27,-131.18,-164.33,1.0833e+07,1e+06,-4.36649e-08,1.87752e-07,-6.51233e-08,0.00659819,0.0325737,-2.97677e-05,0.0303654,2,2927
12,5.69008e-22,1,4658,71.87,-4.63713e-07,9.5983e-06,-3.36257e-08,9.60955e-06,27,-131.18,-164.33,1.0833e+07,1e+06,-4.65266e-08,1.94304e-07,-6.72483e-08,0.00647231,0.033479,-3.33524e-05,0.0314156,2,2928
12,5.69008e-22,1,4659,71.87,-5.11895e-07,9.68364e-06,-3.47931e-08,9.69722e-06,27,-131.18,-164.33,1.0833e+07,1e+06,-5.02896e-08,2.02268e-07,-6.95788e-08,0.00623834,0.0346394,-3.24375e-05,0.0326924,2,2929
12,5.69008e-22,1,4660,71.87,-5.64293e-07,9.76841e-06,-3.60161e-08,9.78476e-06,27,-131.18,-164.33,1.0833e+07,1e+06,-5.4843e-08,2.11548e-07,-7.20167e-08,0.00591592,0.0360853,-2.13945e-05,0.0341785,2,2930
12,5.69008e-22,1,4661,71.87,-6.21581e-07,9.8499e-06,-3.72007e-08,9.86956e-06,27,-131.18,-164.33,1.0833e+07,1e+06,-5.98036e-08,2.21737e-07,-7.43963e-08,0.00556694,0.0378214,3.30305e-06,0.0358394,2,2931
12,5.69008e-22,1,4662,71.87,-6.839e-07,9.92434e-06,-3.82347e-08,9.94795e-06,27,-131.18,-164.33,1.0833e+07,1e+06,-6.44712e-08,2.32255e-07,-7.64608e-08,0.00532654,0.0398702,7.17609e-05,0.0376783,2,2932
12,5.69008e-22,1,4663,71.87,-7.50524e-07,9.98757e-06,-3.91676e-08,1.00158e-05,27,-131.18,-164.33,1.0833e+07,1e+06,-6.81628e-08,2.42529e-07,-7.85564e-08,0.00527163,0.0421571,6.36252e-05,0.0398067,2,2933
12,5.69008e-22,1,4664,71.87,-8.20226e-07,1.00388e-05,-3.88875e-08,1.00723e-05,27,-131.18,-164.33,1.0833e+07,1e+06,-7.0354e-08,2.51615e-07,-7.79016e-08,0.00571748,0.0446327,0.000884609,0.0416161,2,2934
12,5.02155e-22,1,4665,71.87,-8.91232e-07,1.00821e-05,-4.61707e-08,1.01215e-05,29.75,-131.18,-164.33,8.24975e+06,875000,-7.28496e-08,2.59856e-07,-9.18753e-08,0.00525155,0.040295,8.81709e-05,0.039127,2,2935
12,3.68448e-22,2,4666,95.55,-9.65925e-07,1.00521e-05,-6.25748e-08,1.00986e-05,35.25,20.95,172.44,3.08325e+06,625000,-7.7346e-08,2.72442e-07,-1.25235e-07,0.0041823,0.0275731,-0.00090362,0.0274411,3,1729
12,3.01595e-22,2,4667,95.55,-1.04592e-06,9.94967e-06,-7.17193e-08,1.00048e-05,38,20.95,172.44,500000,500000,-8.24197e-08,2.85264e-07,-1.44264e-07,0.00387115,0.0208274,-0.000211929,0.0193271,3,1730
12,3.01595e-22,2,4668,95.55,-1.13076e-06,9.84443e-06,-7.34916e-08,9.90943e-06,38,20.95,172.44,500000,500000,-8.78996e-08,2.9489e-07,-1.47263e-07,0.00365046,0.0214928,-0.000177042,0.0201273,3,1731
12,3.05496e-22,2,4669,95.55,-1.22172e-06,9.73287e-06,-7.32645e-08,9.80952e-06,37.625,20.95,172.44,500000,500000,-9.03073e-08,2.97494e-07,-1.45287e-07,0.00329176,0.0229836,-0.000401109,0.0220596,3,1732
12,3.13296e-22,2,4670,95.55,-1.31138e-06,9.63651e-06,-6.57094e-08,9.72555e-06,36.875,20.95,172.44,500000,500000,-8.89575e-08,2.81081e-07,-1.29864e-07,0.00248249,0.0237959,-0.000253771,0.0233655,3,1733
12,3.24997e-22,2,4671,95.55,-1.39964e-06,9.57321e-06,-5.21354e-08,9.67513e-06,35.75,20.95,172.44,500000,500000,-8.32034e-08,2.49539e-07,-1.04227e-07,0.00126603,0.0246327,6.27427e-05,0.0248857,3,1734
12,4.27444e-22,2,4672,122.93,-1.47779e-06,9.54453e-06,-3.71758e-08,9.65832e-06,38.5625,-96.81,-155.62,2.43744e+06,593750,-7.15781e-08,2.1009e-07,-7.56998e-08,0.000174055,0.0262139,0.000421413,0.0270335,3,1735
12,6.41784e-22,1,4673,130.6,-1.54279e-06,9.5704e-06,-2.53956e-08,9.69399e-06,47.5,117.2,-48.36,6.95813e+06,812500,-6.31336e-08,1.71329e-07,-5.22774e-08,-0.00137654,0.0264442,0.00044402,0.0278707,2,2936
12,7.94326e-22,1,4674,130.6,-1.60405e-06,9.65529e-06,-2.16778e-08,9.78765e-06,53.9375,117.2,-48.36,1.01872e+07,968750,-6.08721e-08,1.58429e-07,-4.33656e-08,-0.00236256,0.0282933,0.000599354,0.0296224,2,2937
12,8.27175e-22,1,4675,130.6,-1.66454e-06,9.76666e-06,-2.42324e-08,9.90752e-06,55,117.2,-48.36,1.0833e+07,1e+06,-6.30498e-08,1.72983e-07,-4.76795e-08,-0.00213306,0.0322829,0.000709041,0.0330888,2,2938
12,8.27175e-22,1,4676,130.6,-1.73015e-06,9.87726e-06,-2.70325e-08,1.00277e-05,55,117.2,-48.36,1.0833e+07,1e+06,-6.69206e-08,1.87706e-07,-5.37865e-08,-0.00204784,0.0350902,0.000168763,0.036135,2,2939
12,8.27175e-22,1,4677,130.6,-1.79838e-06,9.98366e-06,-2.81651e-08,1.01444e-05,55,117.2,-48.36,1.0833e+07,1e+06,-6.83875e-08,1.94923e-07,-5.63617e-08,-0.00183057,0.0365511,6.46155e-05,0.0375436,2,2940
12,8.27175e-22,1,4678,130.6,-1.86693e-06,1.00853e-05,-2.90965e-08,1.02567e-05,55,117.2,-48.36,1.0833e+07,1e+06,-6.83943e-08,1.99809e-07,-5.82082e-08,-0.00140028,0.0376479,4.07692e-05,0.0384325,2,2941
12,8.27175e-22,1,4679,130.6,-1.93517e-06,1.01839e-05,-2.97394e-08,1.03661e-05,55,117.2,-48.36,1.0833e+07,1e+06,-6.76918e-08,2.027e-07,-5.94689e-08,-0.000937389,0.0383379,4.39401e-05,0.038877,2,2942
12,8.27175e-22,1,4680,130.6,-2.00231e-06,1.028e-05,-3.01738e-08,1.04733e-05,55,117.2,-48.36,1.0833e+07,1e+06,-6.62271e-08,2.03756e-07,-6.0344e-08,-0.000416618,0.0386357,4.10703e-05,0.0388934,2,2943
12,8.27175e-22,1,4681,130.6,-2.06762e-06,1.03751e-05,-3.05436e-08,1.05791e-05,55,117.2,-48.36,1.0833e+07,1e+06,-6.41797e-08,2.03836e-07,-6.10844e-08,0.000192369,0.0387099,4.5822e-05,0.0386345,2,2944
12,8.27175e-22,1,4682,130.6,-2.13067e-06,1.04706e-05,-3.09545e-08,1.06852e-05,55,117.2,-48.36,1.0833e+07,1e+06,-6.18153e-08,2.03732e-07,-6.19185e-08,0.000884152,0.0387167,5.41453e-05,0.0382785,2,2945
12,8.27175e-22,1,4683,130.6,-2.19125e-06,1.05677e-05,-3.14536e-08,1.07925e-05,55,117.2,-48.36,1.0833e+07,1e+06,-5.95302e-08,2.0425e-07,-6.29569e-08,0.00162218,0.038821,8.65059e-05,0.038016,2,2946
12,8.27175e-22,1,4684,130.6,-2.24973e-06,1.06677e-05,-3.29948e-08,1.09024e-05,55,117.2,-48.36,1.0833e+07,1e+06,-5.87814e-08,2.07436e-07,-6.59898e-08,0.00207042,0.0391885,-0.000282096,0.0383559,2,2947
12,6.97761e-22,1,4685,130.6,-2.30882e-06,1.07671e-05,-3.46762e-08,1.10119e-05,58,117.2,-48.36,8.24975e+06,875000,-6.92766e-08,2.19278e-07,-6.91566e-08,0.00239226,0.0366969,-0.000189155,0.0365398,2,2948
12,4.38933e-22,2,4686,119,-2.38828e-06,1.0778e-05,-4.19162e-08,1.10395e-05,64,105.96,84.4,3.08325e+06,625000,-8.96661e-08,2.41575e-07,-8.38628e-08,0.00226885,0.0278566,0.000217234,0.0276268,3,1736
12,3.0952e-22,2,4687,119,-2.48815e-06,1.06913e-05,-5.06394e-08,1.09771e-05,67,105.96,84.4,500000,500000,-1.00302e-07,2.59414e-07,-1.01433e-07,0.00198343,0.0221534,-2.67864e-05,0.0213424,3,1737
12,3.0952e-22,2,4688,119,-2.58889e-06,1.05918e-05,-5.32303e-08,1.09037e-05,67,105.96,84.4,500000,500000,-9.96492e-08,2.659e-07,-1.0644e-07,0.00231281,0.0228581,-0.000169564,0.0219579,3,1738
12,3.0952e-22,2,4689,119,-2.68745e-06,1.0492e-05,-5.45158e-08,1.08309e-05,67,105.96,84.4,500000,500000,-9.73324e-08,2.6905e-07,-1.0902e-07,0.00282216,0.0235305,-0.000144871,0.0224558,3,1739
12,3.0952e-22,2,4690,119,-2.78355e-06,1.03956e-05,-5.55076e-08,1.0762e-05,67,105.96,84.4,500000,500000,-9.55773e-08,2.71921e-07,-1.10987e-07,0.00325931,0.0241907,-0.000130898,0.0230287,3,1740
12,3.0952e-22,2,4691,119,-2.8786e-06,1.0304e-05,-5.62265e-08,1.06987e-05,67,105.96,84.4,500000,500000,-9.50832e-08,2.74962e-07,-1.12448e-07,0.00352733,0.0247812,-0.000122362,0.0236339,3,1741
12,3.0952e-22,2,4692,119,-2.97372e-06,1.0217e-05,-5.67893e-08,1.06411e-05,67,105.96,84.4,500000,500000,-9.55656e-08,2.78121e-07,-1.13574e-07,0.00365723,0.0253007,-0.000123397,0.0242451,3,1742
12,3.0952e-22,2,4693,119,-3.06973e-06,1.01338e-05,-5.72009e-08,1.05886e-05,67,105.96,84.4,500000,500000,-9.67646e-08,2.81271e-07,-1.1439e-07,0.00368031,0.0257557,-0.000127111,0.0248429,3,1743
12,3.0952e-22,2,4694,119,-3.16725e-06,1.00528e-05,-5.74147e-08,1.05401e-05,67,105.96,84.4,500000,500000,-9.82627e-08,2.83987e-07,-1.14829e-07,0.00362997,0.0261242,-0.000119563,0.0253702,3,1744
12,3.0952e-22,2,4695,119,-3.26626e-06,9.97135e-06,-5.74249e-08,1.04928e-05,67,105.96,84.4,500000,500000,-9.9116e-08,2.85206e-07,-1.14809e-07,0.00356965,0.0263223,-9.59933e-05,0.0256788,3,1745
12,3.0952e-22,2,4696,119,-3.36548e-06,9.88477e-06,-5.71171e-08,1.04421e-05,67,105.96,84.4,500000,500000,-9.77173e-08,2.83241e-07,-1.1464e-07,0.00356679,0.0261472,-8.46576e-05,0.0254605,3,1746
12,3.0952e-22,2,4697,119,-3.46169e-06,9.78435e-06,-5.74624e-08,1.03788e-05,67,105.96,84.4,500000,500000,-9.27339e-08,2.75556e-07,-1.14409e-07,0.00364024,0.0252517,-0.00029517,0.0244715,3,1747
12,3.46953e-22,2,4698,119,-3.55095e-06,9.66745e-06,-4.97579e-08,1.02991e-05,67.75,105.96,84.4,3.08325e+06,625000,-8.06819e-08,2.50558e-07,-9.95537e-08,0.00375826,0.0271938,0.00013902,0.0257376,3,1748
12,4.21819e-22,1,4699,73.93,-3.62306e-06,9.62674e-06,-4.04053e-08,1.0286e-05,69.25,-115.96,-166.85,8.24975e+06,875000,-6.70118e-08,2.26039e-07,-8.1186e-08,0.00413693,0.0331819,7.96908e-05,0.0313241,2,2949
12,4.59252e-22,1,4700,73.93,-3.68497e-06,9.67554e-06,-3.86297e-08,1.03536e-05,70,-115.96,-166.85,1.0833e+07,1e+06,-6.52546e-08,2.25273e-07,-7.6895e-08,0.00427873,0.0372253,-0.000300085,0.0354818,2,2950
12,4.59252e-22,1,4701,73.93,-3.75357e-06,9.73843e-06,-3.75043e-08,1.04368e-05,70,-115.96,-166.85,1.0833e+07,1e+06,-7.08596e-08,2.31017e-07,-7.52647e-08,0.00386173,0.0379725,0.000246983,0.0360482,2,2951
12,5.18391e-22,1,4702,73.93,-3.82669e-06,9.8127e-06,-3.79114e-08,1.05325e-05,72.0625,-115.96,-166.85,1.0833e+07,1e+06,-7.35758e-08,2.30105e-07,-7.58927e-08,0.00310158,0.0367625,0.000107182,0.035782,2,2952
12,6.5638e-22,1,4703,91.26,-3.90072e-06,9.86087e-06,-4.14264e-08,1.06044e-05,76.875,-49.63,-179.82,1.0833e+07,1e+06,-7.38583e-08,2.33819e-07,-8.26653e-08,0.00334923,0.0348238,0.000142295,0.0339124,2,2953
12,7.54944e-22,1,4704,91.26,-3.97441e-06,9.86443e-06,-4.41649e-08,1.06351e-05,80.3125,-49.63,-179.82,1.0833e+07,1e+06,-7.27663e-08,2.34353e-07,-8.81562e-08,0.00378052,0.0325284,9.0358e-05,0.0309496,2,2954
12,7.74657e-22,1,4705,91.26,-4.04625e-06,9.85524e-06,-4.33983e-08,1.06536e-05,81,-49.63,-179.82,1.0833e+07,1e+06,-7.15109e-08,2.26638e-07,-8.69288e-08,0.00333818,0.0306287,-0.000160962,0.0292245,2,2955
12,7.74657e-22,1,4706,91.26,-4.11743e-06,9.84914e-06,-4.22238e-08,1.06752e-05,81,-49.63,-179.82,1.0833e+07,1e+06,-7.14391e-08,2.22627e-07,-8.4486e-08,0.00297762,0.0300493,3.69966e-05,0.0286812,2,2956
12,7.74657e-22,1,4707,91.26,-4.18913e-06,9.84406e-06,-4.14596e-08,1.06984e-05,81,-49.63,-179.82,1.0833e+07,1e+06,-7.16484e-08,2.19272e-07,-8.29231e-08,0.0025743,0.0294636,3.40193e-05,0.0282735,2,2957
12,7.74657e-22,1,4708,91.26,-4.26073e-06,9.83786e-06,-4.07783e-08,1.0721e-05,81,-49.63,-179.82,1.0833e+07,1e+06,-7.13229e-08,2.16112e-07,-8.1559e-08,0.00234254,0.0289678,3.26914e-05,0.0278935,2,2958
12,7.74657e-22,1,4709,91.26,-4.33177e-06,9.82946e-06,-4.0228e-08,1.07417e-05,81,-49.63,-179.82,1.0833e+07,1e+06,-7.06881e-08,2.13335e-07,-8.04581e-08,0.00223423,0.0285657,2.68314e-05,0.027563,2,2959
12,7.74657e-22,1,4710,91.26,-4.4021e-06,9.81819e-06,-3.98332e-08,1.076e-05,81,-49.63,-179.82,1.0833e+07,1e+06,-6.99975e-08,2.11195e-07,-7.96633e-08,0.00220644,0.0282758,2.00283e-05,0.027318,2,2960
12,7.74657e-22,1,4711,91.26,-4.47177e-06,9.80334e-06,-3.95696e-08,1.07751e-05,81,-49.63,-179.82,1.0833e+07,1e+06,-6.93677e-08,2.09729e-07,-7.91267e-08,0.00223423,0.0280976,2.1795e-05,0.0271741,2,2961
12,7.74657e-22,1,4712,91.26,-4.54084e-06,9.78402e-06,-3.93349e-08,1.07865e-05,81,-49.63,-179.82,1.0833e+07,1e+06,-6.86301e-08,2.08537e-07,-7.86405e-08,0.00233414,0.0279903,4.51162e-05,0.027097,2,2962
12,7.74657e-22,1,4713,91.26,-4.60903e-06,9.75955e-06,-3.85385e-08,1.07932e-05,81,-49.63,-179.82,1.0833e+07,1e+06,-6.72833e-08,2.06615e-07,-7.7106e-08,0.00260907,0.0279392,0.000296672,0.0269461,2,2963
12,7.66148e-22,1,4714,91.26,-4.67541e-06,9.72982e-06,-3.7839e-08,1.07949e-05,89,-49.63,-179.82,1.0833e+07,1e+06,-5.70669e-08,2.02976e-07,-7.57481e-08,0.00295071,0.0323231,-0.000495294,0.0318769,2,2964
12,7.4913e-22,1,4715,137.15,-4.72316e-06,9.73645e-06,-3.36017e-08,1.08216e-05,105,109.19,-42.07,1.0833e+07,1e+06,-3.81255e-08,1.95206e-07,-6.71746e-08,0.00386074,0.0409398,-0.00023474,0.0400953,2,2965
12,7.40621e-22,1,4716,137.15,-4.75166e-06,9.7714e-06,-2.91281e-08,1.08655e-05,113,109.19,-42.07,1.0833e+07,1e+06,-2.63936e-08,1.83735e-07,-5.82071e-08,0.00475119,0.0438677,0.000521777,0.0423524,2,2966
12,7.40621e-22,1,4717,137.15,-4.77595e-06,9.79039e-06,-2.83292e-08,1.08932e-05,113,109.19,-42.07,1.0833e+07,1e+06,-2.25434e-08,1.739e-07,-5.66689e-08,0.00513125,0.0418249,-1.96498e-05,0.0406522,2,2967
12,7.40621e-22,1,4718,137.15,-4.79674e-06,9.80189e-06,-2.75726e-08,1.09127e-05,113,109.19,-42.07,1.0833e+07,1e+06,-2.00546e-08,1.68379e-07,-5.51554e-08,0.00548703,0.0407255,-2.91937e-05,0.0394755,2,2968
12,7.40621e-22,1,4719,137.15,-4.81606e-06,9.81092e-06,-2.73242e-08,1.09293e-05,113,109.19,-42.07,1.0833e+07,1e+06,-1.93291e-08,1.66435e-07,-5.46489e-08,0.00556198,0.0402933,-2.47476e-05,0.0390035,2,2969
12,7.40621e-22,1,4720,137.15,-4.8354e-06,9.82038e-06,-2.7441e-08,1.09463e-05,113,109.19,-42.07,1.0833e+07,1e+06,-1.9911e-08,1.67116e-07,-5.48821e-08,0.00543449,0.0403528,-2.30042e-05,0.0390643,2,2970
12,7.40621e-22,1,4721,137.15,-4.85588e-06,9.83238e-06,-2.7859e-08,1.09661e-05,113,109.19,-42.07,1.0833e+07,1e+06,-2.15074e-08,1.69861e-07,-5.57179e-08,0.00515052,0.0407948,-2.58393e-05,0.0395421,2,2971
12,7.40621e-22,1,4722,137.15,-4.87842e-06,9.84869e-06,-2.85273e-08,1.09907e-05,113,109.19,-42.07,1.0833e+07,1e+06,-2.39749e-08,1.74285e-07,-5.70535e-08,0.00472474,0.0415361,-3.36873e-05,0.0403572,2,2972
12,7.40621e-22,1,4723,137.15,-4.90383e-06,9.87076e-06,-2.93981e-08,1.10218e-05,113,109.19,-42.07,1.0833e+07,1e+06,-2.72528e-08,1.80101e-07,-5.87956e-08,0.00415499,0.0425141,-4.73862e-05,0.0414606,2,2973
12,7.40621e-22,1,4724,137.15,-4.93292e-06,9.8997e-06,-3.04264e-08,1.10607e-05,113,109.19,-42.07,1.0833e+07,1e+06,-3.12982e-08,1.87039e-07,-6.08381e-08,0.00343439,0.0436768,-6.81616e-05,0.0428207,2,2974
12,7.40621e-22,1,4725,137.15,-4.96643e-06,9.93604e-06,-3.15432e-08,1.11082e-05,113,109.19,-42.07,1.0833e+07,1e+06,-3.59984e-08,1.94665e-07,-6.2958e-08,0.00257095,0.0449749,-0.000103144,0.0444191,2,2975
12,7.40621e-22,1,4726,137.15,-5.00492e-06,9.97794e-06,-3.20516e-08,1.11629e-05,113,109.19,-42.07,1.0833e+07,1e+06,-3.98046e-08,2.01827e-07,-6.44317e-08,0.00195879,0.0464418,-2.51008e-05,0.0461026,2,2976
12,7.40621e-22,1,4727,137.15,-5.04604e-06,1.00183e-05,-3.28455e-08,1.12174e-05,113,109.19,-42.07,1.0833e+07,1e+06,-4.11135e-08,2.01472e-07,-6.52798e-08,0.00137978,0.0462992,-0.000548588,0.0465548,2,2977
12,6.51135e-22,1,4728,137.15,-5.08715e-06,1.00477e-05,-3.09009e-08,1.12622e-05,111.312,109.19,-42.07,8.89556e+06,906250,-5.18441e-08,2.01678e-07,-6.21053e-08,0.000469348,0.0419586,8.58206e-05,0.0429128,2,2978
12,4.42334e-22,2,4729,35.75,-5.14972e-06,1.00887e-05,-3.68585e-08,1.13271e-05,107.375,-59.17,80.08,4.37488e+06,687500,-7.88956e-08,2.25602e-07,-7.38949e-08,-0.000518902,0.0325068,0.0009835,0.0336908,3,1749
12,3.26421e-22,2,4730,35.75,-5.24494e-06,1.01845e-05,-4.75811e-08,1.14558e-05,104.812,-59.17,80.08,1.79162e+06,562500,-9.91272e-08,2.51395e-07,-9.4598e-08,-0.00119754,0.0255156,0.000257343,0.0267839,3,1750
12,4.29512e-22,2,4731,35.75,-5.34798e-06,1.03035e-05,-4.9601e-08,1.16088e-05,105.25,-59.17,80.08,3.72906e+06,656250,-9.99346e-08,2.60297e-07,-9.94364e-08,-0.00045135,0.0275011,-1.70485e-05,0.0285324,3,1751
12,6.28893e-22,1,4732,97.4,-5.44481e-06,1.04079e-05,-4.93471e-08,1.17461e-05,106.75,-41.8,1.73,7.60394e+06,843750,-9.56343e-08,2.70763e-07,-9.92155e-08,0.00158187,0.0338397,0.000431694,0.0336805,2,2979
12,7.58412e-22,1,4733,97.4,-5.53925e-06,1.05051e-05,-4.94721e-08,1.18762e-05,108.062,-41.8,1.73,1.01872e+07,968750,-9.13144e-08,2.72297e-07,-9.91841e-08,0.00213315,0.0381196,-0.000176761,0.0378496,2,2980
12,7.84839e-22,1,4734,97.4,-5.62743e-06,1.05914e-05,-4.85902e-08,1.19937e-05,108.938,-41.8,1.73,1.0833e+07,1e+06,-8.12696e-08,2.62284e-07,-9.63166e-08,0.0028004,0.0398051,-0.000621069,0.0394717,2,2981
12,7.74635e-22,1,4735,97.4,-5.70179e-06,1.06453e-05,-4.58737e-08,1.20762e-05,109.875,-41.8,1.73,1.0833e+07,1e+06,-6.27603e-08,2.45654e-07,-9.11611e-08,0.00466098,0.0418386,-0.00102798,0.041074,2,2982
12,7.57628e-22,1,4736,137.15,-5.75296e-06,1.06739e-05,-4.23449e-08,1.21256e-05,111.438,109.19,-42.07,1.0833e+07,1e+06,-4.11727e-08,2.33e-07,-8.53125e-08,0.00643046,0.0473184,-0.000950062,0.0458222,2,2983
12,7.44023e-22,1,4737,137.15,-5.78413e-06,1.07232e-05,-4.01028e-08,1.21838e-05,112.688,109.19,-42.07,1.0833e+07,1e+06,-2.94621e-08,2.28441e-07,-8.03143e-08,0.00710956,0.0513873,0.000324807,0.0484477,2,2984
12,7.21453e-22,1,4738,137.15,-5.81188e-06,1.0808e-05,-4.14434e-08,1.22716e-05,113.188,109.19,-42.07,1.01872e+07,968750,-2.67534e-08,2.27146e-07,-8.18925e-08,0.00642131,0.0509012,0.000681854,0.0480034,2,2985
12,6.4478e-22,1,4739,137.15,-5.83764e-06,1.09012e-05,-5.00146e-08,1.23659e-05,113.938,109.19,-42.07,7.60394e+06,843750,-1.87903e-08,2.28247e-07,-1.02357e-07,0.00419283,0.0461919,4.28017e-06,0.0454767,2,2986
12,5.2215e-22,2,4740,85.61,-5.84946e-06,1.09935e-05,-6.94535e-08,1.2453e-05,115.438,90.62,-39.24,3.72906e+06,656250,-2.98135e-09,2.28022e-07,-1.39161e-07,0.000558824,0.0380518,-0.000642834,0.0401849,3,1752
12,4.14996e-22,2,4741,85.61,-5.8436e-06,1.10931e-05,-8.03705e-08,1.25384e-05,117.688,90.62,-39.24,1.14581e+06,531250,8.29672e-09,2.24551e-07,-1.58067e-07,-0.000673773,0.0327447,-0.000472621,0.0356729,3,1753
12,3.57727e-22,2,4742,94.25,-5.83287e-06,1.11739e-05,-7.73444e-08,1.26049e-05,119.75,20.61,141.14,500000,500000,1.098e-08,2.1168e-07,-1.54931e-07,-0.000260678,0.0295287,-0.000957306,0.0321968,3,1754
12,3.34867e-22,2,4743,94.25,-5.82164e-06,1.12255e-05,-7.21506e-08,1.26455e-05,120.875,20.61,141.14,500000,500000,1.05504e-08,2.00884e-07,-1.45265e-07,0.00041479,0.0278535,-0.000609344,0.0293939,3,1755
12,3.19627e-22,2,4744,94.25,-5.81177e-06,1.12449e-05,-6.88398e-08,1.26582e-05,121.625,20.61,141.14,500000,500000,7.83485e-09,1.98482e-07,-1.3786e-07,0.000839144,0.0275,0.000275715,0.0277396,3,1756
12,3.12007e-22,2,4745,94.25,-5.80597e-06,1.12244e-05,-6.97158e-08,1.26373e-05,122,20.61,141.14,500000,500000,4.73622e-09,2.00913e-07,-1.39141e-07,0.000477656,0.0271521,0.000170603,0.0271332,3,1757
12,3.12007e-22,2,4746,94.25,-5.80229e-06,1.11701e-05,-7.05823e-08,1.25874e-05,122,20.61,141.14,500000,500000,2.62417e-09,2.03773e-07,-1.41122e-07,0.000256787,0.0270141,1.45835e-05,0.0270289,3,1758
12,3.12007e-22,2,4747,94.25,-5.80072e-06,1.10815e-05,-7.02495e-08,1.25082e-05,122,20.61,141.14,500000,500000,1.08961e-09,2.03641e-07,-1.40564e-07,0.000150316,0.0266532,1.85048e-05,0.0266193,3,1759
12,5.69008e-22,1,4748,71.87,-2.0367e-08,8.98873e-06,-2.69233e-08,8.98879e-06,27,-131.18,-164.33,1.0833e+07,1e+06,-4.06966e-08,1.65728e-07,-5.38455e-08,0.00491423,0.029821,0.000551347,0.0274893,2,2987
12,5.69008e-22,1,4749,71.87,-6.10262e-08,9.04784e-06,-2.85566e-08,9.04809e-06,27,-131.18,-164.33,1.0833e+07,1e+06,-4.07261e-08,1.6616e-07,-5.7119e-08,0.00502363,0.0293363,-0.00049621,0.0275002,2,2988
12,5.69008e-22,1,4750,71.87,-1.01819e-07,9.10879e-06,-2.78038e-08,9.10941e-06,27,-131.18,-164.33,1.0833e+07,1e+06,-4.07415e-08,1.66705e-07,-5.56066e-08,0.00525916,0.0296087,7.84394e-06,0.0273616,2,2989
12,5.69008e-22,1,4751,71.87,-1.42509e-07,9.17185e-06,-2.7984e-08,9.173e-06,27,-131.18,-164.33,1.0833e+07,1e+06,-4.03176e-08,1.6728e-07,-5.59683e-08,0.00544881,0.0297375,5.53264e-06,0.027427,2,2990
12,5.69008e-22,1,4752,71.87,-1.82454e-07,9.23741e-06,-2.82542e-08,9.23925e-06,27,-131.18,-164.33,1.0833e+07,1e+06,-3.94873e-08,1.67893e-07,-5.65084e-08,0.00573909,0.0298933,6.91343e-06,0.0274887,2,2991
12,5.69008e-22,1,4753,71.87,-2.21484e-07,9.30565e-06,-2.86031e-08,9.30833e-06,27,-131.18,-164.33,1.0833e+07,1e+06,-3.85669e-08,1.68636e-07,-5.72059e-08,0.00606508,0.030052,1.10811e-06,0.0275576,2,2992
12,5.69008e-22,1,4754,71.87,-2.59588e-07,9.37689e-06,-2.90385e-08,9.38052e-06,27,-131.18,-164.33,1.0833e+07,1e+06,-3.77315e-08,1.69699e-07,-5.80764e-08,0.00640099,0.0302322,-5.81684e-06,0.0276652,2,2993
12,5.69008e-22,1,4755,71.87,-2.96947e-07,9.45153e-06,-2.95853e-08,9.45624e-06,27,-131.18,-164.33,1.0833e+07,1e+06,-3.71779e-08,1.71344e-07,-5.917e-08,0.00671979,0.0304685,-1.28736e-05,0.0278644,2,2994
12,5.69008e-22,1,4756,71.87,-3.33944e-07,9.53002e-06,-3.02731e-08,9.53592e-06,27,-131.18,-164.33,1.0833e+07,1e+06,-3.71106e-08,1.73886e-07,-6.05457e-08,0.00699646,0.0308099,-1.9562e-05,0.0282186,2,2995
12,5.69008e-22,1,4757,71.87,-3.71168e-07,9.61271e-06,-3.11307e-08,9.61992e-06,27,-131.18,-164.33,1.0833e+07,1e+06,-3.7726e-08,1.77652e-07,-6.22613e-08,0.0072091,0.0313149,-2.59083e-05,0.0287909,2,2996
12,5.69008e-22,1,4758,71.87,-4.09396e-07,9.6997e-06,-3.21815e-08,9.70839e-06,27,-131.18,-164.33,1.0833e+07,1e+06,-3.92076e-08,1.82955e-07,-6.43632e-08,0.00733753,0.0320454,-3.26222e-05,0.0296332,2,2997
12,5.69008e-22,1,4759,71.87,-4.49583e-07,9.79066e-06,-3.34389e-08,9.80103e-06,27,-131.18,-164.33,1.0833e+07,1e+06,-4.17372e-08,1.90077e-07,-6.68771e-08,0.00735888,0.0330626,-4.06745e-05,0.0307806,2,2998
12,5.69008e-22,1,4760,71.87,-4.9287e-07,9.88464e-06,-3.48995e-08,9.89698e-06,27,-131.18,-164.33,1.0833e+07,1e+06,-4.55089e-08,1.99265e-07,-6.97934e-08,0.00724345,0.0344261,-4.95749e-05,0.032255,2,2999
12,5.69008e-22,1,4761,71.87,-5.40601e-07,9.97982e-06,-3.65292e-08,9.99451e-06,27,-131.18,-164.33,1.0833e+07,1e+06,-5.07396e-08,2.10702e-07,-7.30461e-08,0.00694904,0.036192,-5.69589e-05,0.034075,2,3000
12,5.69008e-22,1,4762,71.87,-5.9435e-07,1.00732e-05,-3.82552e-08,1.00908e-05,27,-131.18,-164.33,1.0833e+07,1e+06,-5.7609e-08,2.24487e-07,-7.64727e-08,0.00643446,0.0384261,-4.69338e-05,0.0362835,2,3001
12,5.69008e-22,1,4763,71.87,-6.55819e-07,1.01607e-05,-3.98655e-08,1.01819e-05,27,-131.18,-164.33,1.0833e+07,1e+06,-6.59651e-08,2.4041e-07,-7.97976e-08,0.00571525,0.0411949,6.38914e-06,0.0389755,2,3002
12,5.69008e-22,1,4764,71.87,-7.2628e-07,1.02369e-05,-4.13335e-08,1.02627e-05,27,-131.18,-164.33,1.0833e+07,1e+06,-7.39738e-08,2.56932e-07,-8.19449e-08,0.00513961,0.044562,0.00037018,0.0421162,2,3003
12,5.69008e-22,1,4765,71.87,-8.03767e-07,1.02961e-05,-3.96811e-08,1.03275e-05,27,-131.18,-164.33,1.0833e+07,1e+06,-7.59916e-08,2.6513e-07,-7.92571e-08,0.0056198,0.0471732,0.00167495,0.0437361,2,3004
12,5.02155e-22,1,4766,71.87,-8.78263e-07,1.03405e-05,-4.33388e-08,1.03778e-05,29.75,-131.18,-164.33,8.24975e+06,875000,-7.1627e-08,2.56627e-07,-8.81402e-08,0.00521257,0.0403824,0.000900633,0.0386075,2,3005
12,3.68448e-22,2,4767,95.55,-9.4702e-07,1.03181e-05,-5.99065e-08,1.03617e-05,35.25,20.95,172.44,3.08325e+06,625000,-7.19434e-08,2.61859e-07,-1.1997e-07,0.00425562,0.0267677,-0.000235042,0.0260506,3,1760
12,3.01595e-22,2,4768,95.55,-1.02215e-06,1.02328e-05,-7.19632e-08,1.0284e-05,38,20.95,172.44,500000,500000,-8.07388e-08,2.85263e-07,-1.43343e-07,0.00411219,0.0212422,0.000219614,0.0193511,3,1761
12,3.01595e-22,2,4769,95.55,-1.1085e-06,1.01434e-05,-7.51709e-08,1.02041e-05,38,20.95,172.44,500000,500000,-9.06245e-08,3.0234e-07,-1.50724e-07,0.0035896,0.02205,-0.00014505,0.0206348,3,1762
12,3.01595e-22,2,4770,95.55,-1.2034e-06,1.00484e-05,-7.88784e-08,1.01205e-05,38,20.95,172.44,500000,500000,-9.82212e-08,3.18521e-07,-1.583e-07,0.00331493,0.0229567,-0.000355521,0.0217787,3,1763
12,3.01595e-22,2,4771,95.55,-1.30494e-06,9.95544e-06,-8.09115e-08,1.00409e-05,38,20.95,172.44,500000,500000,-1.01544e-07,3.25171e-07,-1.61304e-07,0.00322453,0.0233302,-0.000503829,0.0223011,3,1764
12,3.05496e-22,2,4772,95.55,-1.40649e-06,9.86691e-06,-7.76521e-08,9.96696e-06,37.625,20.95,172.44,500000,500000,-9.81434e-08,3.15019e-07,-1.53973e-07,0.00300183,0.0240363,-0.000744785,0.0234189,3,1765
12,3.42245e-22,2,4773,95.55,-1.50123e-06,9.79568e-06,-6.69355e-08,9.91027e-06,38.3125,20.95,172.44,1.14581e+06,531250,-9.23604e-08,2.91347e-07,-1.32988e-07,0.00262714,0.0251728,-0.00023878,0.024787,3,1766
12,4.69739e-22,2,4774,95.55,-1.59121e-06,9.76761e-06,-4.9777e-08,9.89649e-06,42.9375,20.95,172.44,3.72906e+06,656250,-8.24823e-08,2.44731e-07,-9.98587e-08,0.0013728,0.0257789,-0.000392088,0.0264987,3,1767
12,6.62931e-22,1,4775,130.6,-1.66619e-06,9.81771e-06,-3.21692e-08,9.95814e-06,49.6875,117.2,-48.36,7.60394e+06,843750,-6.7264e-08,1.91011e-07,-6.61398e-08,-0.000331721,0.0275476,-0.000601114,0.0290688,2,3006
12,7.94326e-22,1,4776,130.6,-1.72574e-06,9.93813e-06,-2.55369e-08,1.00869e-05,53.9375,117.2,-48.36,1.01872e+07,968750,-5.98904e-08,1.75984e-07,-5.11838e-08,-0.000681078,0.0319425,0.000496951,0.0323836,2,3007
12,8.27175e-22,1,4777,130.6,-1.78597e-06,1.00652e-05,-2.72787e-08,1.02225e-05,55,117.2,-48.36,1.0833e+07,1e+06,-6.13612e-08,1.86725e-07,-5.37474e-08,-0.000491933,0.0354847,0.000507324,0.0355451,2,3008
12,8.27175e-22,1,4778,130.6,-1.84846e-06,1.01777e-05,-2.83733e-08,1.03442e-05,55,117.2,-48.36,1.0833e+07,1e+06,-6.31733e-08,1.93346e-07,-5.70036e-08,-0.000514848,0.0367404,4.38409e-05,0.0370747,2,3009
12,8.27175e-22,1,4779,130.6,-1.91232e-06,1.02842e-05,-2.9249e-08,1.04605e-05,55,117.2,-48.36,1.0833e+07,1e+06,-6.40669e-08,1.98489e-07,-5.84312e-08,-0.000301154,0.0378827,8.69348e-05,0.0381109,2,3010
12,8.27175e-22,1,4780,130.6,-1.97659e-06,1.03853e-05,-2.96204e-08,1.05717e-05,55,117.2,-48.36,1.0833e+07,1e+06,-6.36835e-08,2.00343e-07,-5.92393e-08,-3.41616e-05,0.0383545,5.68236e-05,0.0384789,2,3011
12,8.27175e-22,1,4781,130.6,-2.03969e-06,1.04819e-05,-2.98198e-08,1.06785e-05,55,117.2,-48.36,1.0833e+07,1e+06,-6.21191e-08,2.0013e-07,-5.96269e-08,0.000396969,0.0384107,4.72375e-05,0.0383161,2,3012
12,8.27175e-22,1,4782,130.6,-2.10083e-06,1.05764e-05,-3.00051e-08,1.07831e-05,55,117.2,-48.36,1.0833e+07,1e+06,-6.00251e-08,1.9928e-07,-6.00149e-08,0.000931043,0.0383035,4.42686e-05,0.0379177,2,3013
12,8.27175e-22,1,4783,130.6,-2.15974e-06,1.06714e-05,-3.02919e-08,1.08878e-05,55,117.2,-48.36,1.0833e+07,1e+06,-5.77651e-08,1.98608e-07,-6.05781e-08,0.00153686,0.0382023,4.77473e-05,0.0374893,2,3014
12,8.27175e-22,1,4784,130.6,-2.21636e-06,1.07688e-05,-3.06537e-08,1.09945e-05,55,117.2,-48.36,1.0833e+07,1e+06,-5.55459e-08,1.98838e-07,-6.13945e-08,0.00223164,0.0382656,9.93329e-05,0.0371773,2,3015
12,8.27175e-22,1,4785,130.6,-2.27083e-06,1.08721e-05,-3.19894e-08,1.11068e-05,55,117.2,-48.36,1.0833e+07,1e+06,-5.4373e-08,2.01435e-07,-6.39059e-08,0.00281431,0.038507,-0.000101062,0.0372611,2,3016
12,6.97761e-22,1,4786,130.6,-2.32511e-06,1.09847e-05,-3.35905e-08,1.12281e-05,58,117.2,-48.36,8.24975e+06,875000,-6.52402e-08,2.13009e-07,-6.72037e-08,0.00299835,0.03587,-3.23388e-05,0.0353327,2,3017
12,4.38933e-22,2,4787,119,-2.40131e-06,1.10205e-05,-4.19404e-08,1.12791e-05,64,105.96,84.4,3.08325e+06,625000,-8.76826e-08,2.42865e-07,-8.39031e-08,0.00291185,0.0282684,0.000536311,0.0276234,3,1768
12,3.0952e-22,2,4788,119,-2.50047e-06,1.09517e-05,-5.12541e-08,1.12336e-05,67,105.96,84.4,500000,500000,-9.82158e-08,2.61519e-07,-1.02376e-07,0.00251071,0.0226888,0.000268295,0.0215422,3,1769
12,3.0952e-22,2,4789,119,-2.59774e-06,1.08561e-05,-5.31702e-08,1.11628e-05,67,105.96,84.4,500000,500000,-9.50108e-08,2.60422e-07,-1.06384e-07,0.00258185,0.0222881,-0.000196664,0.0212351,3,1770
12,3.0952e-22,2,4790,119,-2.69049e-06,1.07585e-05,-5.39822e-08,1.109e-05,67,105.96,84.4,500000,500000,-9.24179e-08,2.62746e-07,-1.0797e-07,0.00314828,0.0230082,-9.06857e-05,0.021724,3,1771
12,3.0952e-22,2,4791,119,-2.78258e-06,1.06651e-05,-5.46066e-08,1.10222e-05,67,105.96,84.4,500000,500000,-9.2188e-08,2.66145e-07,-1.09215e-07,0.00340116,0.0236899,-2.90295e-05,0.0223614,3,1772
12,3.0952e-22,2,4792,119,-2.87487e-06,1.05766e-05,-5.52286e-08,1.09604e-05,67,105.96,84.4,500000,500000,-9.23861e-08,2.69518e-07,-1.10462e-07,0.00358528,0.0243011,-1.82399e-05,0.0230245,3,1773
12,3.0952e-22,2,4793,119,-2.96735e-06,1.04926e-05,-5.5806e-08,1.09043e-05,67,105.96,84.4,500000,500000,-9.24986e-08,2.72591e-07,-1.11614e-07,0.00376672,0.0248656,-8.25713e-06,0.0236666,3,1774
12,3.0952e-22,2,4794,119,-3.05987e-06,1.04122e-05,-5.63401e-08,1.08527e-05,67,105.96,84.4,500000,500000,-9.24141e-08,2.75303e-07,-1.12682e-07,0.00395415,0.0253851,7.26172e-06,0.0242699,3,1775
12,3.0952e-22,2,4795,119,-3.15218e-06,1.03336e-05,-5.6908e-08,1.08038e-05,67,105.96,84.4,500000,500000,-9.19141e-08,2.77714e-07,-1.13812e-07,0.00418322,0.0258693,3.83444e-05,0.0248004,3,1776
12,3.0952e-22,2,4796,119,-3.24369e-06,1.02533e-05,-5.76122e-08,1.07543e-05,67,105.96,84.4,500000,500000,-9.0587e-08,2.79647e-07,-1.15276e-07,0.00449257,0.0262763,7.25583e-05,0.0251595,3,1777
12,3.0952e-22,2,4797,119,-3.33335e-06,1.01661e-05,-5.87281e-08,1.06988e-05,67,105.96,84.4,500000,500000,-8.82214e-08,2.81025e-07,-1.1762e-07,0.00485332,0.026502,7.15311e-05,0.0252082,3,1778
12,3.0952e-22,2,4798,119,-3.42014e-06,1.00642e-05,-6.16801e-08,1.06297e-05,67,105.96,84.4,500000,500000,-8.68699e-08,2.83471e-07,-1.22709e-07,0.00495261,0.0262782,-0.000343855,0.0249919,3,1779
12,3.37594e-22,2,4799,119,-3.50709e-06,9.93283e-06,-5.79648e-08,1.05339e-05,67.5625,105.96,84.4,2.43744e+06,593750,-8.52591e-08,2.83446e-07,-1.15455e-07,0.00514361,0.0301783,0.000547863,0.0282174,3,1780
12,4.03103e-22,1,4800,73.93,-3.59066e-06,9.86155e-06,-4.50475e-08,1.0495e-05,68.875,-115.96,-166.85,6.95812e+06,812500,-8.04013e-08,2.56174e-07,-9.14334e-08,0.0036495,0.0346375,0.000686711,0.0332751,2,3018
12,4.49894e-22,1,4801,73.93,-3.66789e-06,9.90112e-06,-3.77695e-08,1.05587e-05,69.8125,-115.96,-166.85,1.01872e+07,968750,-7.76081e-08,2.31995e-07,-7.60477e-08,0.0022213,0.0362616,-0.000142564,0.03561,2,3019
12,4.59252e-22,1,4802,73.93,-3.74587e-06,9.97258e-06,-3.75196e-08,1.06529e-05,70,-115.96,-166.85,1.0833e+07,1e+06,-7.84471e-08,2.35236e-07,-7.36123e-08,0.00268677,0.0381585,0.000385256,0.036646,2,3020
12,4.78965e-22,1,4803,73.93,-3.82479e-06,1.00416e-05,-3.53742e-08,1.07454e-05,70.6875,-115.96,-166.85,1.0833e+07,1e+06,-7.59255e-08,2.29276e-07,-7.06743e-08,0.00278793,0.037396,0.0007983,0.035845,2,3021
12,5.77529e-22,1,4804,73.93,-3.89772e-06,1.00895e-05,-3.59815e-08,1.08163e-05,74.125,-115.96,-166.85,1.0833e+07,1e+06,-7.08088e-08,2.23316e-07,-7.31644e-08,0.00331445,0.0352277,0.000787824,0.0339322,2,3022
12,7.15519e-22,1,4805,91.26,-3.9664e-06,1.00952e-05,-4.12956e-08,1.08465e-05,78.9375,-49.63,-179.82,1.0833e+07,1e+06,-7.00298e-08,2.26208e-07,-8.24081e-08,0.00364911,0.03259,0.00032861,0.0312226,2,3023
12,7.74657e-22,1,4806,91.26,-4.03778e-06,1.0081e-05,-4.3247e-08,1.08597e-05,81,-49.63,-179.82,1.0833e+07,1e+06,-7.25171e-08,2.26688e-07,-8.6012e-08,0.00308791,0.0306247,7.35924e-05,0.0291913,2,3024
12,7.74657e-22,1,4807,91.26,-4.11144e-06,1.00725e-05,-4.24568e-08,1.08793e-05,81,-49.63,-179.82,1.0833e+07,1e+06,-7.35979e-08,2.24826e-07,-8.49823e-08,0.00260168,0.0301957,4.05607e-05,0.028966,2,3025
12,7.74657e-22,1,4808,91.26,-4.18498e-06,1.00641e-05,-4.18438e-08,1.08997e-05,81,-49.63,-179.82,1.0833e+07,1e+06,-7.29676e-08,2.2148e-07,-8.36621e-08,0.00243089,0.0296924,2.26419e-05,0.0285558,2,3026
12,7.74657e-22,1,4809,91.26,-4.25737e-06,1.00545e-05,-4.11337e-08,1.09188e-05,81,-49.63,-179.82,1.0833e+07,1e+06,-7.16964e-08,2.17802e-07,-8.22704e-08,0.0024098,0.0292087,2.42766e-05,0.028101,2,3027
12,7.74657e-22,1,4810,91.26,-4.32837e-06,1.0043e-05,-4.05364e-08,1.09361e-05,81,-49.63,-179.82,1.0833e+07,1e+06,-7.03088e-08,2.14503e-07,-8.10821e-08,0.00245824,0.0287999,2.61249e-05,0.0276996,2,3028
12,7.74657e-22,1,4811,91.26,-4.39799e-06,1.00296e-05,-4.01452e-08,1.09515e-05,81,-49.63,-179.82,1.0833e+07,1e+06,-6.90884e-08,2.12113e-07,-8.0297e-08,0.00255115,0.0285227,1.99315e-05,0.0274239,2,3029
12,7.74657e-22,1,4812,91.26,-4.46655e-06,1.00136e-05,-4.00066e-08,1.09647e-05,81,-49.63,-179.82,1.0833e+07,1e+06,-6.83136e-08,2.11025e-07,-8.00026e-08,0.00265463,0.0284181,1.17983e-05,0.0273339,2,3030
12,7.74657e-22,1,4813,91.26,-4.53462e-06,9.99389e-06,-4.00699e-08,1.09746e-05,81,-49.63,-179.82,1.0833e+07,1e+06,-6.81828e-08,2.11249e-07,-8.00822e-08,0.00272556,0.0284778,1.77535e-05,0.0274608,2,3031
12,7.74657e-22,1,4814,91.26,-4.60291e-06,9.9684e-06,-3.97922e-08,1.09799e-05,81,-49.63,-179.82,1.0833e+07,1e+06,-6.80142e-08,2.11991e-07,-7.95912e-08,0.0029389,0.0287392,0.000237478,0.0277211,2,3032
12,7.66148e-22,1,4815,91.26,-4.67065e-06,9.93533e-06,-3.9045e-08,1.09785e-05,89,-49.63,-179.82,1.0833e+07,1e+06,-5.8071e-08,2.09751e-07,-7.82205e-08,0.00331015,0.033629,-0.000525467,0.0332622,2,3033
12,7.4913e-22,1,4816,137.15,-4.71906e-06,9.93327e-06,-3.37945e-08,1.09973e-05,105,109.19,-42.07,1.0833e+07,1e+06,-3.78336e-08,1.98433e-07,-6.75472e-08,0.00427714,0.0420483,-0.000199665,0.0413148,2,3034
12,7.40621e-22,1,4817,137.15,-4.74631e-06,9.95521e-06,-2.86721e-08,1.10288e-05,113,109.19,-42.07,1.0833e+07,1e+06,-2.47868e-08,1.82576e-07,-5.72724e-08,0.00518743,0.0441209,0.000517757,0.0426965,2,3035
12,7.40621e-22,1,4818,137.15,-4.76863e-06,9.96369e-06,-2.8011e-08,1.10461e-05,113,109.19,-42.07,1.0833e+07,1e+06,-2.08072e-08,1.72082e-07,-5.60649e-08,0.00552189,0.0417174,-4.41977e-05,0.0405612,2,3036
12,7.40621e-22,1,4819,137.15,-4.78793e-06,9.96984e-06,-2.74751e-08,1.106e-05,113,109.19,-42.07,1.0833e+07,1e+06,-1.89155e-08,1.67325e-07,-5.49469e-08,0.00574472,0.0406043,-2.00747e-05,0.039289,2,3037
12,7.40621e-22,1,4820,137.15,-4.80646e-06,9.97716e-06,-2.73606e-08,1.10746e-05,113,109.19,-42.07,1.0833e+07,1e+06,-1.87427e-08,1.65912e-07,-5.47205e-08,0.00568598,0.0401543,-1.39102e-05,0.0387743,2,3038
12,7.40621e-22,1,4821,137.15,-4.82541e-06,9.98745e-06,-2.75769e-08,1.10921e-05,113,109.19,-42.07,1.0833e+07,1e+06,-1.9583e-08,1.66867e-07,-5.51543e-08,0.00549445,0.040186,-1.18636e-05,0.0387815,2,3039
12,7.40621e-22,1,4822,137.15,-4.84563e-06,1.00023e-05,-2.80809e-08,1.11142e-05,113,109.19,-42.07,1.0833e+07,1e+06,-2.1168e-08,1.69694e-07,-5.61636e-08,0.00521125,0.040586,-1.36156e-05,0.0391805,2,3040
12,7.40621e-22,1,4823,137.15,-4.86775e-06,1.0023e-05,-2.88419e-08,1.11426e-05,113,109.19,-42.07,1.0833e+07,1e+06,-2.33606e-08,1.74063e-07,-5.76869e-08,0.00485179,0.0412755,-2.00595e-05,0.0398896,2,3041
12,7.40621e-22,1,4824,137.15,-4.89235e-06,1.00509e-05,-2.98357e-08,1.11784e-05,113,109.19,-42.07,1.0833e+07,1e+06,-2.6098e-08,1.79737e-07,-5.96714e-08,0.00441693,0.0421956,-3.31207e-05,0.0408573,2,3042
12,7.40621e-22,1,4825,137.15,-4.91995e-06,1.00868e-05,-3.10221e-08,1.12228e-05,113,109.19,-42.07,1.0833e+07,1e+06,-2.93572e-08,1.86532e-07,-6.20651e-08,0.00389743,0.0433059,-5.7942e-05,0.0420612,2,3043
12,7.40621e-22,1,4826,137.15,-4.95106e-06,1.0131e-05,-3.25075e-08,1.12761e-05,113,109.19,-42.07,1.0833e+07,1e+06,-3.3247e-08,1.94319e-07,-6.48619e-08,0.00323999,0.0445964,-0.000145378,0.0435682,2,3044
12,7.40621e-22,1,4827,137.15,-4.98644e-06,1.01812e-05,-3.39967e-08,1.13368e-05,113,109.19,-42.07,1.0833e+07,1e+06,-3.73843e-08,2.03512e-07,-6.79513e-08,0.00255353,0.0464978,-0.000385725,0.0459129,2,3045
12,7.10793e-22,1,4828,137.15,-5.02583e-06,1.0221e-05,-3.42868e-08,1.13899e-05,112.438,109.19,-42.07,1.01872e+07,968750,-4.36629e-08,2.11371e-07,-6.78595e-08,0.00193021,0.046994,-0.000100747,0.0468989,2,3046
12,5.61649e-22,1,4829,137.15,-5.07377e-06,1.02543e-05,-3.40839e-08,1.14409e-05,109.625,109.19,-42.07,6.95812e+06,812500,-6.39529e-08,2.26061e-07,-7.01676e-08,0.00112772,0.0409472,0.00102743,0.0414009,2,3047
12,3.52848e-22,2,4830,35.75,-5.15374e-06,1.03349e-05,-4.79282e-08,1.15488e-05,105.688,-59.17,80.08,2.43744e+06,593750,-9.41814e-08,2.61501e-07,-9.59147e-08,9.47365e-05,0.0306998,0.000508513,0.0315638,3,1781
12,2.63362e-22,2,4831,35.75,-5.26213e-06,1.04587e-05,-5.89857e-08,1.1708e-05,104,-59.17,80.08,500000,500000,-1.10205e-07,2.82105e-07,-1.15942e-07,-0.00115088,0.0252074,-0.000666038,0.0263547,3,1782
12,2.96592e-22,2,4832,35.75,-5.37415e-06,1.05745e-05,-5.47359e-08,1.18619e-05,104.25,-59.17,80.08,1.14581e+06,531250,-1.11386e-07,2.78714e-07,-1.10503e-07,-0.00156552,0.0257746,-0.00016759,0.0270075,3,1783
12,4.59341e-22,2,4833,35.75,-5.4849e-06,1.06861e-05,-5.2425e-08,1.20117e-05,105.812,-59.17,80.08,4.37488e+06,687500,-1.03591e-07,2.75198e-07,-1.04823e-07,-0.000489363,0.0313129,-0.000604738,0.0328445,3,1784
12,6.78346e-22,1,4834,97.4,-5.58133e-06,1.07757e-05,-4.72428e-08,1.21355e-05,108.812,-41.8,1.73,8.89556e+06,906250,-8.03213e-08,2.54008e-07,-9.35578e-08,0.00114016,0.0390381,-0.00127503,0.0403565,2,3048
12,7.6103e-22,1,4835,137.15,-5.64554e-06,1.08348e-05,-3.89311e-08,1.22175e-05,111.125,109.19,-42.07,1.0833e+07,1e+06,-5.23894e-08,2.21366e-07,-7.78985e-08,0.00337694,0.0421299,-0.000359642,0.0415872,2,3049
12,7.50825e-22,1,4836,137.15,-5.68611e-06,1.08679e-05,-3.51109e-08,1.22656e-05,112.062,109.19,-42.07,1.0833e+07,1e+06,-3.72215e-08,2.06875e-07,-7.09009e-08,0.00493217,0.0438114,0.000207812,0.0420903,2,3050
12,7.44023e-22,1,4837,137.15,-5.71999e-06,1.08898e-05,-3.48962e-08,1.23007e-05,112.688,109.19,-42.07,1.0833e+07,1e+06,-3.48504e-08,2.11805e-07,-7.02604e-08,0.00465242,0.0476069,0.000628486,0.045584,2,3051
12,7.40621e-22,1,4838,137.15,-5.75581e-06,1.09444e-05,-3.69717e-08,1.23657e-05,113,109.19,-42.07,1.0833e+07,1e+06,-3.90282e-08,2.20711e-07,-7.44865e-08,0.00322019,0.0494477,0.000469074,0.04786,2,3052
12,6.83116e-22,1,4839,137.15,-5.79804e-06,1.10404e-05,-4.49881e-08,1.24704e-05,113.562,109.19,-42.07,8.89556e+06,906250,-3.63251e-08,2.3412e-07,-9.09102e-08,0.00194525,0.0487806,0.000380099,0.0483718,2,3053
12,5.48938e-22,2,4840,85.61,-5.82846e-06,1.1143e-05,-6.98447e-08,1.25754e-05,114.875,90.62,-39.24,4.37488e+06,687500,-1.75518e-08,2.50084e-07,-1.3827e-07,-0.00094574,0.0428834,0.000162144,0.0448388,3,1785
12,4.53097e-22,2,4841,85.61,-5.83315e-06,1.12378e-05,-9.40717e-08,1.26619e-05,115.812,90.62,-39.24,1.14581e+06,531250,2.93728e-09,2.53712e-07,-1.85884e-07,-0.00416124,0.0350892,-0.00104705,0.0391846,3,1786
12,4.26308e-22,2,4842,85.61,-5.82258e-06,1.13296e-05,-9.36632e-08,1.27385e-05,116.375,90.62,-39.24,500000,500000,1.17174e-08,2.42245e-07,-1.8869e-07,-0.00355148,0.0319346,-0.00109912,0.0355523,3,1787
12,4.11068e-22,2,4843,85.61,-5.80971e-06,1.1394e-05,-8.75009e-08,1.279e-05,117.125,90.62,-39.24,500000,500000,1.32013e-08,2.26752e-07,-1.75121e-07,-0.00203043,0.0301879,-0.00105784,0.033081,3,1788
12,3.88208e-22,2,4844,85.61,-5.79618e-06,1.14325e-05,-8.0231e-08,1.28182e-05,118.25,90.62,-39.24,500000,500000,1.21694e-08,2.12265e-07,-1.59923e-07,-0.000806457,0.0286185,-0.000846106,0.0307909,3,1789
12,3.50107e-22,2,4845,94.25,-5.78537e-06,1.14465e-05,-7.18843e-08,1.28257e-05,120.125,20.61,141.14,500000,500000,7.78159e-09,2.05042e-07,-1.44778e-07,0.000281187,0.0282318,-6.97759e-05,0.0292086,3,1790
12,3.19627e-22,2,4846,94.25,-5.78062e-06,1.14281e-05,-7.09679e-08,1.28071e-05,121.625,20.61,141.14,500000,500000,3.72256e-09,2.06938e-07,-1.42026e-07,0.000335706,0.0281521,0.000201442,0.0283582,3,1791
12,3.12007e-22,2,4847,94.25,-5.77793e-06,1.13769e-05,-7.25862e-08,1.27602e-05,122,20.61,141.14,500000,500000,2.05325e-09,2.10255e-07,-1.44863e-07,0.000153536,0.0279381,0.000100686,0.0279528,3,1792
12,3.12007e-22,2,4848,94.25,-5.77651e-06,1.12891e-05,-7.31899e-08,1.26814e-05,122,20.61,141.14,500000,500000,1.00507e-09,2.12201e-07,-1.46435e-07,0.000104422,0.0277985,7.45622e-06,0.0278006,3,1793
12,5.69008e-22,1,4849,71.87,-2.17372e-08,9.15472e-06,-2.6735e-08,9.15478e-06,27,-131.18,-164.33,1.0833e+07,1e+06,-4.34004e-08,1.66738e-07,-5.3469e-08,0.00427154,0.029789,0.0005733,0.0277003,2,3054
12,5.69008e-22,1,4850,71.87,-6.50636e-08,9.21426e-06,-2.83976e-08,9.21453e-06,27,-131.18,-164.33,1.0833e+07,1e+06,-4.32632e-08,1.6715e-07,-5.68012e-08,0.00442408,0.029334,-0.000503987,0.0277132,2,3055
12,5.69008e-22,1,4851,71.87,-1.08264e-07,9.27559e-06,-2.75615e-08,9.27626e-06,27,-131.18,-164.33,1.0833e+07,1e+06,-4.29017e-08,1.67298e-07,-5.51223e-08,0.00472622,0.0295993,1.3318e-05,0.0275384,2,3056
12,5.69008e-22,1,4852,71.87,-1.50867e-07,9.33891e-06,-2.7653e-08,9.34017e-06,27,-131.18,-164.33,1.0833e+07,1e+06,-4.18825e-08,1.67161e-07,-5.53065e-08,0.00500672,0.029668,1.01979e-05,0.0275082,2,3057
12,5.69008e-22,1,4853,71.87,-1.92029e-07,9.40465e-06,-2.78189e-08,9.40666e-06,27,-131.18,-164.33,1.0833e+07,1e+06,-4.02894e-08,1.66839e-07,-5.56379e-08,0.00541157,0.0297283,1.08547e-05,0.0274278,2,3058
12,5.69008e-22,1,4854,71.87,-2.31446e-07,9.47317e-06,-2.80624e-08,9.47603e-06,27,-131.18,-164.33,1.0833e+07,1e+06,-3.85081e-08,1.6653e-07,-5.61244e-08,0.00586764,0.0297681,3.78379e-06,0.0273243,2,3059
12,5.69008e-22,1,4855,71.87,-2.69045e-07,9.54499e-06,-2.84058e-08,9.54882e-06,27,-131.18,-164.33,1.0833e+07,1e+06,-3.67841e-08,1.6654e-07,-5.68106e-08,0.00634169,0.0298214,-4.46158e-06,0.0272493,2,3060
12,5.69008e-22,1,4856,71.87,-3.05014e-07,9.62085e-06,-2.88886e-08,9.62572e-06,27,-131.18,-164.33,1.0833e+07,1e+06,-3.53817e-08,1.67256e-07,-5.77759e-08,0.00680057,0.0299419,-1.23733e-05,0.0272799,2,3061
12,5.69008e-22,1,4857,71.87,-3.39808e-07,9.70155e-06,-2.95541e-08,9.70755e-06,27,-131.18,-164.33,1.0833e+07,1e+06,-3.45563e-08,1.69107e-07,-5.91073e-08,0.00721669,0.0301993,-1.89035e-05,0.0275052,2,3062
12,5.69008e-22,1,4858,71.87,-3.74126e-07,9.78783e-06,-3.04434e-08,9.79502e-06,27,-131.18,-164.33,1.0833e+07,1e+06,-3.45239e-08,1.72512e-07,-6.08871e-08,0.00757152,0.0306711,-2.38407e-05,0.0280092,2,3063
12,5.69008e-22,1,4859,71.87,-4.08856e-07,9.88013e-06,-3.15913e-08,9.88863e-06,27,-131.18,-164.33,1.0833e+07,1e+06,-3.54463e-08,1.77834e-07,-6.3185e-08,0.00785534,0.0314339,-2.85866e-05,0.0288542,2,3064
12,5.69008e-22,1,4860,71.87,-4.45019e-07,9.97845e-06,-3.30261e-08,9.98843e-06,27,-131.18,-164.33,1.0833e+07,1e+06,-3.74638e-08,1.85379e-07,-6.60552e-08,0.00805838,0.032556,-3.67631e-05,0.0300784,2,3065
12,5.69008e-22,1,4861,71.87,-4.83784e-07,1.00822e-05,-3.47687e-08,1.00938e-05,27,-131.18,-164.33,1.0833e+07,1e+06,-4.07977e-08,1.95476e-07,-6.95417e-08,0.00815122,0.0341042,-5.36958e-05,0.031712,2,3066
12,5.69008e-22,1,4862,71.87,-5.26614e-07,1.01898e-05,-3.68386e-08,1.02035e-05,27,-131.18,-164.33,1.0833e+07,1e+06,-4.58556e-08,2.08624e-07,-7.36789e-08,0.0080715,0.0361694,-7.94973e-05,0.0338134,2,3067
12,5.69008e-22,1,4863,71.87,-5.75495e-07,1.02989e-05,-3.9238e-08,1.0315e-05,27,-131.18,-164.33,1.0833e+07,1e+06,-5.33172e-08,2.25512e-07,-7.84434e-08,0.00770011,0.0388774,-0.00010503,0.036496,2,3068
12,5.69008e-22,1,4864,71.87,-6.33249e-07,1.04052e-05,-4.1859e-08,1.04245e-05,27,-131.18,-164.33,1.0833e+07,1e+06,-6.35704e-08,2.46732e-07,-8.37744e-08,0.00696873,0.0424157,-0.000118537,0.0399765,2,3069
12,5.69008e-22,1,4865,71.87,-7.02635e-07,1.05014e-05,-4.3764e-08,1.0525e-05,27,-131.18,-164.33,1.0833e+07,1e+06,-7.39317e-08,2.70933e-07,-8.70969e-08,0.00657164,0.0473093,0.000598148,0.0442802,2,3070
12,5.52294e-22,1,4866,71.87,-7.81112e-07,1.0569e-05,-4.64176e-08,1.05979e-05,27.6875,-131.18,-164.33,1.01872e+07,968750,-7.78079e-08,2.89745e-07,-9.24223e-08,0.00708531,0.0502002,0.00117132,0.0470957,2,3071
12,4.68728e-22,1,4867,71.87,-8.58251e-07,1.05954e-05,-5.29691e-08,1.06302e-05,31.125,-131.18,-164.33,6.95812e+06,812500,-7.55442e-08,2.76088e-07,-1.06942e-07,0.00504917,0.0395589,-0.000717806,0.039276,2,3072
12,3.51735e-22,2,4868,95.55,-9.322e-07,1.05758e-05,-6.45196e-08,1.0617e-05,35.9375,20.95,172.44,2.43744e+06,593750,-7.77214e-08,2.70144e-07,-1.29519e-07,0.00308336,0.0250815,-0.00104939,0.0252022,3,1794
12,3.01595e-22,2,4869,95.55,-1.01369e-06,1.05202e-05,-7.30478e-08,1.05692e-05,38,20.95,172.44,500000,500000,-8.63926e-08,2.92603e-07,-1.45619e-07,0.00352891,0.0216311,0.000167404,0.0199983,3,1795
12,3.01595e-22,2,4870,95.55,-1.10499e-06,1.04491e-05,-7.59167e-08,1.05076e-05,38,20.95,172.44,500000,500000,-9.41109e-08,3.07534e-07,-1.51691e-07,0.00345285,0.0224094,-5.82725e-05,0.0209766,3,1796
12,3.01595e-22,2,4871,95.55,-1.20192e-06,1.03699e-05,-7.87278e-08,1.04396e-05,38,20.95,172.44,500000,500000,-9.88987e-08,3.20567e-07,-1.57531e-07,0.00356344,0.0233079,-6.15542e-05,0.0218283,3,1797
12,3.01595e-22,2,4872,95.55,-1.30278e-06,1.02869e-05,-8.11719e-08,1.03693e-05,38,20.95,172.44,500000,500000,-1.02844e-07,3.30753e-07,-1.62912e-07,0.00346044,0.0239269,-0.000218397,0.0225651,3,1798
12,3.01595e-22,2,4873,95.55,-1.4076e-06,1.02033e-05,-8.31999e-08,1.03002e-05,38,20.95,172.44,500000,500000,-1.07575e-07,3.38687e-07,-1.6674e-07,0.00308059,0.0242944,-0.000467244,0.0232214,3,1799
12,3.01595e-22,2,4874,95.55,-1.51793e-06,1.01272e-05,-8.23514e-08,1.02407e-05,38,20.95,172.44,500000,500000,-1.11532e-07,3.38563e-07,-1.63659e-07,0.00274743,0.0242113,-0.000468805,0.0233361,3,1800
12,3.34444e-22,2,4875,95.55,-1.63067e-06,1.00599e-05,-7.25048e-08,1.01914e-05,39.0625,20.95,172.44,1.14581e+06,531250,-1.06856e-07,3.16352e-07,-1.43488e-07,0.00290752,0.0249464,-0.000106824,0.0242554,3,1801
12,4.98688e-22,2,4876,95.55,-1.73165e-06,1.00373e-05,-5.12596e-08,1.01857e-05,44.375,20.95,172.44,4.37488e+06,687500,-8.47756e-08,2.52311e-07,-1.02948e-07,0.00239302,0.0276959,-0.00123943,0.0282632,3,1802
12,7.28629e-22,1,4877,130.6,-1.80022e-06,1.01186e-05,-3.12822e-08,1.02776e-05,51.8125,117.2,-48.36,8.89556e+06,906250,-5.8993e-08,1.92109e-07,-6.41419e-08,0.00203619,0.0319962,-0.000457119,0.031855,2,3073
12,8.27175e-22,1,4878,130.6,-1.84963e-06,1.02507e-05,-2.69276e-08,1.04163e-05,55,117.2,-48.36,1.0833e+07,1e+06,-5.22481e-08,1.8433e-07,-5.37278e-08,0.00205135,0.0357271,0.00106142,0.0342604,2,3074
12,8.27175e-22,1,4879,130.6,-1.90471e-06,1.03703e-05,-2.94266e-08,1.05439e-05,55,117.2,-48.36,1.0833e+07,1e+06,-5.73965e-08,1.942e-07,-5.83669e-08,0.00122209,0.0374588,0.000199911,0.0368322,2,3075
12,8.27175e-22,1,4880,130.6,-1.96442e-06,1.04823e-05,-2.96321e-08,1.06648e-05,55,117.2,-48.36,1.0833e+07,1e+06,-6.0059e-08,1.98637e-07,-5.94318e-08,0.000828761,0.0383334,7.02376e-05,0.0380296,2,3076
12,8.27175e-22,1,4881,130.6,-2.02483e-06,1.05846e-05,-2.96513e-08,1.07765e-05,55,117.2,-48.36,1.0833e+07,1e+06,-5.97988e-08,1.98559e-07,-5.92441e-08,0.000891255,0.0384526,7.19353e-05,0.038166,2,3077
12,8.27175e-22,1,4882,130.6,-2.08402e-06,1.06803e-05,-2.95463e-08,1.08818e-05,55,117.2,-48.36,1.0833e+07,1e+06,-5.83656e-08,1.96887e-07,-5.91122e-08,0.00114768,0.0381818,3.32985e-05,0.0377884,2,3078
12,8.27175e-22,1,4883,130.6,-2.14156e-06,1.07736e-05,-2.95785e-08,1.09845e-05,55,117.2,-48.36,1.0833e+07,1e+06,-5.68387e-08,1.95543e-07,-5.91625e-08,0.00147363,0.0379267,2.84834e-05,0.0373432,2,3079
12,8.27175e-22,1,4884,130.6,-2.1977e-06,1.08678e-05,-2.97348e-08,1.10878e-05,55,117.2,-48.36,1.0833e+07,1e+06,-5.56079e-08,1.94753e-07,-5.94719e-08,0.00176796,0.0377146,1.12931e-05,0.0369529,2,3080
12,8.27175e-22,1,4885,130.6,-2.25278e-06,1.09654e-05,-2.99981e-08,1.11944e-05,55,117.2,-48.36,1.0833e+07,1e+06,-5.4929e-08,1.94904e-07,-5.99874e-08,0.00200561,0.0376201,2.40565e-05,0.0366935,2,3081
12,8.27175e-22,1,4886,130.6,-2.30756e-06,1.10706e-05,-3.04694e-08,1.13085e-05,55,117.2,-48.36,1.0833e+07,1e+06,-5.53256e-08,1.96242e-07,-6.10957e-08,0.00209274,0.0374501,2.38428e-05,0.0365006,2,3082
12,7.30115e-22,1,4887,130.6,-2.36343e-06,1.11931e-05,-3.19149e-08,1.144e-05,57.25,117.2,-48.36,8.89556e+06,906250,-6.29595e-08,1.99425e-07,-6.43697e-08,0.00152208,0.0341322,-0.000786685,0.0346752,2,3083
12,5.0364e-22,2,4888,119,-2.43348e-06,1.12637e-05,-4.11177e-08,1.15236e-05,62.5,105.96,84.4,4.37488e+06,687500,-7.86029e-08,2.28648e-07,-8.14812e-08,0.00235726,0.0289639,-0.000778748,0.0297528,3,1803
12,3.41873e-22,2,4889,119,-2.52064e-06,1.12143e-05,-5.05864e-08,1.14942e-05,66.25,105.96,84.4,1.14581e+06,531250,-8.79255e-08,2.53569e-07,-1.00597e-07,0.00334265,0.0241533,-7.09166e-05,0.0233385,3,1804
12,3.0952e-22,2,4890,119,-2.60933e-06,1.11126e-05,-5.24532e-08,1.1415e-05,67,105.96,84.4,500000,500000,-8.79979e-08,2.52776e-07,-1.05459e-07,0.00314469,0.0217727,-0.000121963,0.0204534,3,1805
12,3.0952e-22,2,4891,119,-2.69663e-06,1.10175e-05,-5.30645e-08,1.13428e-05,67,105.96,84.4,500000,500000,-8.80604e-08,2.56028e-07,-1.06169e-07,0.00336931,0.0225014,-3.90169e-05,0.0210861,3,1806
12,3.0952e-22,2,4892,119,-2.78545e-06,1.09279e-05,-5.35529e-08,1.12775e-05,67,105.96,84.4,500000,500000,-8.90554e-08,2.59789e-07,-1.07148e-07,0.00345443,0.0231181,6.13205e-06,0.0217184,3,1807
12,3.0952e-22,2,4893,119,-2.87474e-06,1.0843e-05,-5.42935e-08,1.12178e-05,67,105.96,84.4,500000,500000,-8.92117e-08,2.63339e-07,-1.08578e-07,0.00365034,0.0237432,6.24386e-06,0.0223834,3,1808
12,3.0952e-22,2,4894,119,-2.96387e-06,1.07621e-05,-5.50611e-08,1.11629e-05,67,105.96,84.4,500000,500000,-8.88173e-08,2.66759e-07,-1.10116e-07,0.00393465,0.0243856,3.10898e-05,0.0230431,3,1809
12,3.0952e-22,2,4895,119,-3.05238e-06,1.06844e-05,-5.58784e-08,1.1112e-05,67,105.96,84.4,500000,500000,-8.78547e-08,2.69777e-07,-1.11784e-07,0.00427393,0.0249848,5.90241e-05,0.0236419,3,1810
12,3.0952e-22,2,4896,119,-3.13958e-06,1.06082e-05,-5.69445e-08,1.10632e-05,67,105.96,84.4,500000,500000,-8.63122e-08,2.72785e-07,-1.13911e-07,0.00468678,0.0255656,7.8711e-05,0.0241788,3,1811
12,3.0952e-22,2,4897,119,-3.225e-06,1.05306e-05,-5.85196e-08,1.10136e-05,67,105.96,84.4,500000,500000,-8.44568e-08,2.769e-07,-1.17062e-07,0.00520789,0.0262024,9.92024e-05,0.024667,3,1812
12,3.0952e-22,2,4898,119,-3.30849e-06,1.04468e-05,-6.08195e-08,1.09584e-05,67,105.96,84.4,500000,500000,-8.23847e-08,2.82717e-07,-1.2176e-07,0.00584847,0.026884,0.000110992,0.0250526,3,1813
12,3.0952e-22,2,4899,119,-3.38977e-06,1.03513e-05,-6.48277e-08,1.08924e-05,67,105.96,84.4,500000,500000,-8.27224e-08,2.91783e-07,-1.30354e-07,0.00606502,0.0272607,-0.000426573,0.0255045,3,1814
12,3.18878e-22,2,4900,119,-3.47394e-06,1.02343e-05,-6.87589e-08,1.08081e-05,67.1875,105.96,84.4,1.14581e+06,531250,-8.74192e-08,3.12076e-07,-1.36017e-07,0.00659506,0.0307877,-1.86577e-05,0.0286892,3,1815
12,3.56311e-22,2,4901,119,-3.56461e-06,1.01391e-05,-5.9729e-08,1.07476e-05,67.9375,105.96,84.4,3.72906e+06,656250,-9.0191e-08,3.03611e-07,-1.18259e-07,0.00542102,0.0350029,0.000938813,0.0332738,3,1816
12,4.12461e-22,1,4902,73.93,-3.65432e-06,1.01395e-05,-4.36937e-08,1.0778e-05,69.0625,-115.96,-166.85,7.60394e+06,843750,-8.67425e-08,2.63104e-07,-8.90588e-08,0.00284795,0.0367419,0.00088949,0.035937,2,3084
12,4.49894e-22,1,4903,73.93,-3.73809e-06,1.02089e-05,-3.69954e-08,1.08718e-05,69.8125,-115.96,-166.85,1.01872e+07,968750,-7.92748e-08,2.41392e-07,-7.48492e-08,0.00302661,0.0386155,0.00105189,0.0368798,2,3085
12,4.78965e-22,1,4904,73.93,-3.81287e-06,1.02713e-05,-3.63893e-08,1.09562e-05,70.6875,-115.96,-166.85,1.0833e+07,1e+06,-7.06793e-08,2.30754e-07,-7.26365e-08,0.00417903,0.0383023,0.000861351,0.0361064,2,3086
12,5.77529e-22,1,4905,73.93,-3.87945e-06,1.03075e-05,-3.87729e-08,1.10135e-05,74.125,-115.96,-166.85,1.0833e+07,1e+06,-6.80337e-08,2.2113e-07,-7.70874e-08,0.00340373,0.0346603,-0.000386857,0.0340266,2,3087
12,7.15519e-22,1,4906,91.26,-3.94894e-06,1.03168e-05,-4.17352e-08,1.10469e-05,78.9375,-49.63,-179.82,1.0833e+07,1e+06,-7.25814e-08,2.23227e-07,-8.34179e-08,0.00238726,0.0314251,-0.000487567,0.0310599,2,3088
12,7.74657e-22,1,4907,91.26,-4.02462e-06,1.03086e-05,-4.29418e-08,1.10665e-05,81,-49.63,-179.82,1.0833e+07,1e+06,-7.61435e-08,2.28732e-07,-8.59365e-08,0.00227853,0.0306157,0.00014521,0.0294709,2,3089
12,7.74657e-22,1,4908,91.26,-4.10122e-06,1.02988e-05,-4.29301e-08,1.10854e-05,81,-49.63,-179.82,1.0833e+07,1e+06,-7.59629e-08,2.27534e-07,-8.57423e-08,0.0022128,0.0303965,2.17975e-05,0.0293422,2,3090
12,7.74657e-22,1,4909,91.26,-4.17654e-06,1.0287e-05,-4.23131e-08,1.11026e-05,81,-49.63,-179.82,1.0833e+07,1e+06,-7.45849e-08,2.24317e-07,-8.46253e-08,0.00227056,0.0299956,6.82445e-06,0.0289347,2,3091
12,7.74657e-22,1,4910,91.26,-4.25039e-06,1.02735e-05,-4.16232e-08,1.11181e-05,81,-49.63,-179.82,1.0833e+07,1e+06,-7.30889e-08,2.20668e-07,-8.32483e-08,0.00231797,0.0295471,2.3735e-05,0.0284794,2,3092
12,7.74657e-22,1,4911,91.26,-4.32272e-06,1.02585e-05,-4.1004e-08,1.11321e-05,81,-49.63,-179.82,1.0833e+07,1e+06,-7.14697e-08,2.17272e-07,-8.20209e-08,0.00242404,0.0291526,3.95562e-05,0.0280687,2,3093
12,7.74657e-22,1,4912,91.26,-4.39333e-06,1.02424e-05,-4.0567e-08,1.1145e-05,81,-49.63,-179.82,1.0833e+07,1e+06,-6.97327e-08,2.14489e-07,-8.11663e-08,0.00262022,0.0288643,3.69114e-05,0.0277524,2,3094
12,7.74657e-22,1,4913,91.26,-4.46219e-06,1.02254e-05,-4.04513e-08,1.11567e-05,81,-49.63,-179.82,1.0833e+07,1e+06,-6.82485e-08,2.13011e-07,-8.09142e-08,0.00287516,0.0287598,1.46886e-05,0.02762,2,3095
12,7.74657e-22,1,4914,91.26,-4.52983e-06,1.02065e-05,-4.07954e-08,1.11666e-05,81,-49.63,-179.82,1.0833e+07,1e+06,-6.76857e-08,2.13988e-07,-8.17174e-08,0.00311775,0.0289522,-5.5156e-05,0.0278495,2,3096
12,7.74657e-22,1,4915,91.26,-4.59756e-06,1.01835e-05,-4.14803e-08,1.11733e-05,81,-49.63,-179.82,1.0833e+07,1e+06,-6.83352e-08,2.18175e-07,-8.30773e-08,0.00342092,0.0296451,2.77642e-05,0.0287005,2,3097
12,7.66148e-22,1,4916,91.26,-4.6665e-06,1.01493e-05,-4.10746e-08,1.11708e-05,89,-49.63,-179.82,1.0833e+07,1e+06,-5.87336e-08,2.18234e-07,-8.16537e-08,0.00392029,0.035291,-0.00062272,0.0350453,2,3098
12,7.4913e-22,1,4917,137.15,-4.71502e-06,1.01333e-05,-3.41568e-08,1.11766e-05,105,109.19,-42.07,1.0833e+07,1e+06,-3.62365e-08,2.00132e-07,-6.82079e-08,0.00495233,0.0428133,-0.000333475,0.0422357,2,3099
12,7.40621e-22,1,4918,137.15,-4.73897e-06,1.01366e-05,-2.80665e-08,1.11897e-05,113,109.19,-42.07,1.0833e+07,1e+06,-2.16812e-08,1.78657e-07,-5.64773e-08,0.00581645,0.0436549,0.000345366,0.0423263,2,3100
12,7.40621e-22,1,4919,137.15,-4.75839e-06,1.01346e-05,-2.77994e-08,1.11961e-05,113,109.19,-42.07,1.0833e+07,1e+06,-1.8775e-08,1.6981e-07,-5.55749e-08,0.00595736,0.041394,-3.23133e-05,0.0401306,2,3101
12,7.40621e-22,1,4920,137.15,-4.77652e-06,1.01365e-05,-2.7397e-08,1.12056e-05,113,109.19,-42.07,1.0833e+07,1e+06,-1.82268e-08,1.66202e-07,-5.47934e-08,0.00586098,0.040336,-6.94925e-06,0.0389378,2,3102
12,7.40621e-22,1,4921,137.15,-4.79484e-06,1.01427e-05,-2.73554e-08,1.1219e-05,113,109.19,-42.07,1.0833e+07,1e+06,-1.87496e-08,1.65338e-07,-5.47108e-08,0.00563513,0.0399107,-2.3726e-06,0.0384715,2,3103
12,7.40621e-22,1,4922,137.15,-4.81402e-06,1.01541e-05,-2.76157e-08,1.12375e-05,113,109.19,-42.07,1.0833e+07,1e+06,-1.98713e-08,1.66523e-07,-5.52327e-08,0.00537491,0.0399395,1.40315e-06,0.0384789,2,3104
12,7.40621e-22,1,4923,137.15,-4.83458e-06,1.01718e-05,-2.81463e-08,1.12623e-05,113,109.19,-42.07,1.0833e+07,1e+06,-2.14231e-08,1.69347e-07,-5.62959e-08,0.00509839,0.0403167,4.5097e-06,0.0388396,2,3105
12,7.40621e-22,1,4924,137.15,-4.85687e-06,1.01968e-05,-2.89255e-08,1.12945e-05,113,109.19,-42.07,1.0833e+07,1e+06,-2.32527e-08,1.73517e-07,-5.78569e-08,0.00482785,0.0409708,7.41375e-06,0.0394721,2,3106
12,7.40621e-22,1,4925,137.15,-4.88109e-06,1.02302e-05,-2.99429e-08,1.13351e-05,113,109.19,-42.07,1.0833e+07,1e+06,-2.5212e-08,1.78801e-07,-5.9893e-08,0.00458841,0.0418476,8.59073e-06,0.0403142,2,3107
12,7.40621e-22,1,4926,137.15,-4.90729e-06,1.02728e-05,-3.11881e-08,1.13847e-05,113,109.19,-42.07,1.0833e+07,1e+06,-2.71756e-08,1.85068e-07,-6.23958e-08,0.00440686,0.0429215,9.11886e-06,0.0413335,2,3108
12,7.40621e-22,1,4927,137.15,-4.93544e-06,1.03247e-05,-3.27752e-08,1.14437e-05,113,109.19,-42.07,1.0833e+07,1e+06,-2.89324e-08,1.92517e-07,-6.5631e-08,0.00432685,0.0442638,-3.54823e-05,0.0426212,2,3109
12,7.40621e-22,1,4928,137.15,-4.96516e-06,1.0385e-05,-3.62031e-08,1.15109e-05,113,109.19,-42.07,1.0833e+07,1e+06,-3.24324e-08,2.03126e-07,-7.22235e-08,0.00362735,0.0461764,-0.00099268,0.0453583,2,3110
12,6.51135e-22,1,4929,137.15,-5.0003e-06,1.04411e-05,-3.72838e-08,1.15767e-05,111.312,109.19,-42.07,8.89556e+06,906250,-4.97373e-08,2.27857e-07,-7.50706e-08,0.00268716,0.046875,0.000180716,0.0466544,2,3111
12,4.42334e-22,2,4930,35.75,-5.06463e-06,1.04998e-05,-4.5829e-08,1.16576e-05,107.375,-59.17,80.08,4.37488e+06,687500,-8.18126e-08,2.66165e-07,-9.13229e-08,0.00177619,0.0389705,0.00135993,0.0389816,3,1817
12,2.93191e-22,2,4931,35.75,-5.16393e-06,1.06117e-05,-5.85674e-08,1.18016e-05,104.562,-59.17,80.08,1.14581e+06,531250,-1.03835e-07,2.90665e-07,-1.16879e-07,0.000743216,0.0290204,-0.000182314,0.0294462,3,1818
12,2.63362e-22,2,4932,35.75,-5.2723e-06,1.07487e-05,-6.05007e-08,1.19723e-05,104,-59.17,80.08,500000,500000,-1.08299e-07,2.90685e-07,-1.21234e-07,-4.11225e-05,0.0261495,-0.000546442,0.0265437,3,1819
12,2.63362e-22,2,4933,35.75,-5.38053e-06,1.08609e-05,-5.67562e-08,1.21207e-05,104,-59.17,80.08,500000,500000,-1.07658e-07,2.84459e-07,-1.13372e-07,-0.000133605,0.0262268,0.000420252,0.026244,3,1820
12,3.86078e-22,2,4934,35.75,-5.48762e-06,1.09583e-05,-5.0914e-08,1.22556e-05,105.938,-59.17,80.08,3.08325e+06,625000,-9.23827e-08,2.59936e-07,-1.01172e-07,-6.7256e-05,0.0308656,-0.001221,0.0325755,3,1821
12,6.28109e-22,1,4935,137.15,-5.56529e-06,1.10132e-05,-3.91654e-08,1.23395e-05,110.125,109.19,-42.07,8.24975e+06,875000,-5.93031e-08,2.20181e-07,-7.80673e-08,0.00145143,0.039774,-0.000904348,0.0406955,2,3112
12,7.44023e-22,1,4936,137.15,-5.60623e-06,1.10341e-05,-2.95864e-08,1.23767e-05,112.688,109.19,-42.07,1.0833e+07,1e+06,-3.68385e-08,1.94181e-07,-6.04192e-08,0.00319176,0.0434041,0.00144868,0.0414471,2,3113
12,7.40621e-22,1,4937,137.15,-5.63897e-06,1.10591e-05,-3.0535e-08,1.24138e-05,113,109.19,-42.07,1.0833e+07,1e+06,-3.58937e-08,1.92722e-07,-6.14748e-08,0.00265478,0.0437151,0.000896504,0.0421289,2,3114
12,7.40621e-22,1,4938,137.15,-5.67801e-06,1.10975e-05,-3.40746e-08,1.24658e-05,113,109.19,-42.07,1.0833e+07,1e+06,-4.28972e-08,2.07341e-07,-6.76944e-08,0.00140229,0.0461537,0.000402354,0.0453858,2,3115
12,7.40621e-22,1,4939,137.15,-5.72476e-06,1.11646e-05,-3.7164e-08,1.25469e-05,113,109.19,-42.07,1.0833e+07,1e+06,-4.98819e-08,2.19391e-07,-7.45694e-08,-0.000164451,0.0473648,-0.000139094,0.0476719,2,3116
12,6.83116e-22,1,4940,137.15,-5.77778e-06,1.12762e-05,-4.42079e-08,1.26703e-05,113.562,109.19,-42.07,8.89556e+06,906250,-4.58399e-08,2.28638e-07,-9.00351e-08,-0.00132005,0.0456474,-7.40224e-05,0.0472148,2,3117
12,5.48938e-22,2,4941,85.61,-5.81644e-06,1.14013e-05,-7.02298e-08,1.27995e-05,114.875,90.62,-39.24,4.37488e+06,687500,-2.18605e-08,2.45627e-07,-1.39127e-07,-0.00282775,0.0404849,-0.000199496,0.043645,3,1822
12,4.53097e-22,2,4942,85.61,-5.8215e-06,1.15009e-05,-9.54792e-08,1.28907e-05,115.812,90.62,-39.24,1.14581e+06,531250,3.86733e-09,2.56668e-07,-1.89613e-07,-0.00414562,0.0350645,-0.00105989,0.0390514,3,1823
12,4.33928e-22,2,4943,85.61,-5.80871e-06,1.15776e-05,-9.80533e-08,1.29534e-05,116,90.62,-39.24,500000,500000,1.38298e-08,2.47453e-07,-1.96052e-07,-0.00365551,0.0320254,-0.00110347,0.0352658,3,1824
12,4.33928e-22,2,4944,85.61,-5.79384e-06,1.16274e-05,-9.21548e-08,1.29913e-05,116,90.62,-39.24,500000,500000,1.4918e-08,2.33356e-07,-1.83776e-07,-0.00267226,0.0302563,-0.000623795,0.03248,3,1825
12,4.26308e-22,2,4945,85.61,-5.77887e-06,1.165e-05,-8.52518e-08,1.30049e-05,116.375,90.62,-39.24,500000,500000,1.39965e-08,2.19375e-07,-1.70929e-07,-0.00188973,0.0285416,-0.000550638,0.0303025,3,1826
12,3.95828e-22,2,4946,85.61,-5.76585e-06,1.1655e-05,-7.86285e-08,1.30035e-05,117.875,90.62,-39.24,500000,500000,1.03036e-08,2.11648e-07,-1.57638e-07,-0.000820673,0.0281652,-0.000461168,0.0296412,3,1827
12,3.50107e-22,2,4947,94.25,-5.75827e-06,1.16382e-05,-7.46061e-08,1.29851e-05,120.125,20.61,141.14,500000,500000,5.15488e-09,2.13055e-07,-1.49736e-07,-2.20909e-05,0.0287922,-0.000147837,0.0296401,3,1828
12,3.19627e-22,2,4948,94.25,-5.75554e-06,1.15906e-05,-7.49418e-08,1.29412e-05,121.625,20.61,141.14,500000,500000,2.00898e-09,2.17238e-07,-1.49843e-07,9.02539e-05,0.0289169,3.80735e-06,0.0291527,3,1829
12,3.12007e-22,2,4949,94.25,-5.75425e-06,1.15059e-05,-7.6922e-08,1.28648e-05,122,20.61,141.14,500000,500000,1.16258e-09,2.2201e-07,-1.53738e-07,4.82717e-05,0.0290204,-4.50885e-05,0.0290637,3,1830
12,5.69008e-22,1,4950,71.87,-2.36547e-08,9.32221e-06,-2.65993e-08,9.32228e-06,27,-131.18,-164.33,1.0833e+07,1e+06,-4.71946e-08,1.68805e-07,-5.31979e-08,0.00343125,0.0298778,0.000602679,0.0281275,2,3118
12,5.69008e-22,1,4951,71.87,-7.07345e-08,9.38214e-06,-2.82988e-08,9.38245e-06,27,-131.18,-164.33,1.0833e+07,1e+06,-4.68779e-08,1.69146e-07,-5.66035e-08,0.00362695,0.0294423,-0.000519246,0.0281307,2,3119
12,5.69008e-22,1,4952,71.87,-1.17411e-07,9.44339e-06,-2.7339e-08,9.44416e-06,27,-131.18,-164.33,1.0833e+07,1e+06,-4.61161e-08,1.68789e-07,-5.46777e-08,0.00399364,0.0296926,1.87025e-05,0.0279127,2,3120
12,5.69008e-22,1,4953,71.87,-1.62967e-07,9.50617e-06,-2.73073e-08,9.50761e-06,27,-131.18,-164.33,1.0833e+07,1e+06,-4.4464e-08,1.67784e-07,-5.46157e-08,0.00435981,0.0296816,1.49537e-05,0.0277705,2,3121
12,5.69008e-22,1,4954,71.87,-2.06338e-07,9.57108e-06,-2.73301e-08,9.57335e-06,27,-131.18,-164.33,1.0833e+07,1e+06,-4.20581e-08,1.66329e-07,-5.46607e-08,0.00487311,0.0296176,1.48994e-05,0.0275202,2,3122
12,5.69008e-22,1,4955,71.87,-2.47083e-07,9.63871e-06,-2.74283e-08,9.64191e-06,27,-131.18,-164.33,1.0833e+07,1e+06,-3.9367e-08,1.64748e-07,-5.4856e-08,0.00545073,0.0295022,6.141e-06,0.0272058,2,3123
12,5.69008e-22,1,4956,71.87,-2.85073e-07,9.70997e-06,-2.76428e-08,9.71419e-06,27,-131.18,-164.33,1.0833e+07,1e+06,-3.67279e-08,1.635e-07,-5.52841e-08,0.00605001,0.0293901,-4.02501e-06,0.0269041,2,3124
12,5.69008e-22,1,4957,71.87,-3.20539e-07,9.78604e-06,-2.80327e-08,9.79133e-06,27,-131.18,-164.33,1.0833e+07,1e+06,-3.44991e-08,1.63141e-07,-5.60631e-08,0.00662897,0.0293613,-1.31513e-05,0.0267258,2,3125
12,5.69008e-22,1,4958,71.87,-3.54071e-07,9.86823e-06,-2.86573e-08,9.87462e-06,27,-131.18,-164.33,1.0833e+07,1e+06,-3.30072e-08,1.64255e-07,-5.73124e-08,0.00715557,0.0295133,-1.91285e-05,0.0267955,2,3126
12,5.69008e-22,1,4959,71.87,-3.86553e-07,9.95773e-06,-2.95668e-08,9.96528e-06,27,-131.18,-164.33,1.0833e+07,1e+06,-3.24873e-08,1.67352e-07,-5.91331e-08,0.00761469,0.0299465,-2.10564e-05,0.0272221,2,3127
12,5.69008e-22,1,4960,71.87,-4.19045e-07,1.00554e-05,-3.07974e-08,1.00641e-05,27,-131.18,-164.33,1.0833e+07,1e+06,-3.30472e-08,1.72791e-07,-6.15974e-08,0.00801036,0.030747,-2.05064e-05,0.0280718,2,3128
12,5.69008e-22,1,4961,71.87,-4.52647e-07,1.01614e-05,-3.23764e-08,1.01715e-05,27,-131.18,-164.33,1.0833e+07,1e+06,-3.4689e-08,1.8079e-07,-6.47604e-08,0.0083616,0.0319808,-2.21299e-05,0.0293682,2,3129
12,5.69008e-22,1,4962,71.87,-4.88423e-07,1.02756e-05,-3.43442e-08,1.02872e-05,27,-131.18,-164.33,1.0833e+07,1e+06,-3.74454e-08,1.91581e-07,-6.86968e-08,0.00868043,0.0337059,-3.46443e-05,0.0311261,2,3130
12,5.69008e-22,1,4963,71.87,-5.27538e-07,1.03971e-05,-3.67633e-08,1.04105e-05,27,-131.18,-164.33,1.0833e+07,1e+06,-4.16737e-08,2.05716e-07,-7.35426e-08,0.00892183,0.036009,-7.04981e-05,0.0334113,2,3131
12,5.69008e-22,1,4964,71.87,-5.71771e-07,1.05243e-05,-3.97311e-08,1.05399e-05,27,-131.18,-164.33,1.0833e+07,1e+06,-4.80144e-08,2.24488e-07,-7.95775e-08,0.00904168,0.039118,-0.00012847,0.0364197,2,3132
12,5.69008e-22,1,4965,71.87,-6.23567e-07,1.06542e-05,-4.35183e-08,1.06725e-05,27,-131.18,-164.33,1.0833e+07,1e+06,-5.76161e-08,2.49381e-07,-8.67722e-08,0.00884467,0.043354,-0.00015385,0.0404295,2,3133
12,5.69008e-22,1,4966,71.87,-6.87003e-07,1.07787e-05,-4.55645e-08,1.08007e-05,27,-131.18,-164.33,1.0833e+07,1e+06,-7.07327e-08,2.82202e-07,-9.21012e-08,0.00863284,0.0497309,0.000806869,0.0457852,2,3134
12,5.18868e-22,1,4967,71.87,-7.65032e-07,1.08756e-05,-5.56772e-08,1.09026e-05,29.0625,-131.18,-164.33,8.89556e+06,906250,-8.27899e-08,3.18228e-07,-1.11182e-07,0.00811214,0.0512463,0.000382999,0.0488348,2,3135
12,4.01875e-22,2,4968,95.55,-8.52583e-07,1.08926e-05,-7.15794e-08,1.09262e-05,33.875,20.95,172.44,4.37488e+06,687500,-8.77817e-08,3.19965e-07,-1.41482e-07,0.00519626,0.0372149,-0.0016652,0.0377191,3,1831
12,3.18309e-22,2,4969,95.55,-9.40596e-07,1.08584e-05,-7.65375e-08,1.08994e-05,37.3125,20.95,172.44,1.14581e+06,531250,-8.74566e-08,3.01933e-07,-1.53465e-07,0.00310168,0.0237966,-0.00134341,0.023678,3,1832
12,3.01595e-22,2,4970,95.55,-1.0275e-06,1.0818e-05,-7.61222e-08,1.0867e-05,38,20.95,172.44,500000,500000,-8.82168e-08,3.0217e-07,-1.52798e-07,0.00359635,0.0221874,-0.000221003,0.0207888,3,1833
12,3.01595e-22,2,4971,95.55,-1.11703e-06,1.07585e-05,-7.70506e-08,1.08166e-05,38,20.95,172.44,500000,500000,-9.1846e-08,3.09254e-07,-1.54103e-07,0.00381965,0.0226851,-4.30831e-05,0.0211004,3,1834
12,3.01595e-22,2,4972,95.55,-1.21119e-06,1.06895e-05,-7.8499e-08,1.07582e-05,38,20.95,172.44,500000,500000,-9.68877e-08,3.18569e-07,-1.5705e-07,0.0037359,0.0232844,-4.37619e-06,0.0216963,3,1835
12,3.01595e-22,2,4973,95.55,-1.3108e-06,1.0617e-05,-8.0287e-08,1.06979e-05,38,20.95,172.44,500000,500000,-1.02502e-07,3.28526e-07,-1.60579e-07,0.00349481,0.0238992,-3.82722e-05,0.0224018,3,1836
12,3.01595e-22,2,4974,95.55,-1.41619e-06,1.05443e-05,-8.19911e-08,1.06393e-05,38,20.95,172.44,500000,500000,-1.07646e-07,3.38035e-07,-1.64076e-07,0.00326476,0.0245252,-7.08916e-05,0.0231144,3,1837
12,3.01595e-22,2,4975,95.55,-1.5261e-06,1.04728e-05,-8.26785e-08,1.05837e-05,38,20.95,172.44,500000,500000,-1.12527e-07,3.43301e-07,-1.65678e-07,0.00277928,0.0246961,-0.000265548,0.0235862,3,1838
12,3.01595e-22,2,4976,95.55,-1.64125e-06,1.04003e-05,-8.01651e-08,1.05293e-05,38,20.95,172.44,500000,500000,-1.15959e-07,3.42287e-07,-1.59588e-07,0.00280578,0.0249053,0.000186175,0.0236414,3,1839
12,4.00142e-22,2,4977,95.55,-1.75802e-06,1.03223e-05,-6.74794e-08,1.04712e-05,41.1875,20.95,172.44,2.43744e+06,593750,-1.0342e-07,3.09906e-07,-1.33357e-07,0.00350477,0.0288067,-0.00054594,0.0282629,3,1840
12,6.30083e-22,1,4978,130.6,-1.84809e-06,1.03223e-05,-4.29211e-08,1.04866e-05,48.625,117.2,-48.36,6.95812e+06,812500,-7.44176e-08,2.37971e-07,-8.76717e-08,0.00294413,0.0332851,-0.000847485,0.0334753,2,3136
12,7.94326e-22,1,4979,130.6,-1.90685e-06,1.04339e-05,-2.86138e-08,1.06067e-05,53.9375,117.2,-48.36,1.01872e+07,968750,-5.67805e-08,1.95012e-07,-5.88709e-08,0.00218774,0.0358314,0.000847688,0.0347822,2,3137
12,8.27175e-22,1,4980,130.6,-1.96165e-06,1.05661e-05,-2.968e-08,1.07467e-05,55,117.2,-48.36,1.0833e+07,1e+06,-5.63676e-08,1.98004e-07,-5.80955e-08,0.00204786,0.0384504,0.000912963,0.0370391,2,3138
12,8.27175e-22,1,4981,130.6,-2.01959e-06,1.06814e-05,-3.02682e-08,1.08707e-05,55,117.2,-48.36,1.0833e+07,1e+06,-5.75383e-08,2.00474e-07,-6.01748e-08,0.00172651,0.0390804,0.000217192,0.038298,2,3139
12,8.27175e-22,1,4982,130.6,-2.07672e-06,1.07824e-05,-2.96472e-08,1.09806e-05,55,117.2,-48.36,1.0833e+07,1e+06,-5.61572e-08,1.96637e-07,-5.93569e-08,0.00174038,0.0384212,5.05892e-05,0.0377774,2,3140
12,8.27175e-22,1,4983,130.6,-2.1319e-06,1.08756e-05,-2.94179e-08,1.10827e-05,55,117.2,-48.36,1.0833e+07,1e+06,-5.4771e-08,1.94054e-07,-5.88503e-08,0.00190229,0.0379458,2.23084e-05,0.0372358,2,3141
12,8.27175e-22,1,4984,130.6,-2.18627e-06,1.09675e-05,-2.93209e-08,1.11833e-05,55,117.2,-48.36,1.0833e+07,1e+06,-5.42309e-08,1.92655e-07,-5.86372e-08,0.0019424,0.0375876,1.99271e-05,0.0368144,2,3142
12,8.27175e-22,1,4985,130.6,-2.24036e-06,1.10609e-05,-2.93263e-08,1.12856e-05,55,117.2,-48.36,1.0833e+07,1e+06,-5.41158e-08,1.9182e-07,-5.86727e-08,0.00191165,0.0372674,-3.09827e-06,0.0364645,2,3143
12,8.27175e-22,1,4986,130.6,-2.2945e-06,1.11586e-05,-2.9453e-08,1.13921e-05,55,117.2,-48.36,1.0833e+07,1e+06,-5.45535e-08,1.91467e-07,-5.88242e-08,0.00178023,0.0369405,-1.22345e-05,0.0361447,2,3144
12,8.27175e-22,1,4987,130.6,-2.34947e-06,1.12646e-05,-2.90925e-08,1.1507e-05,55,117.2,-48.36,1.0833e+07,1e+06,-5.49014e-08,1.90615e-07,-5.81943e-08,0.0017441,0.0364225,0.000259554,0.0354676,2,3145
12,7.94821e-22,1,4988,130.6,-2.4043e-06,1.13835e-05,-2.91601e-08,1.16347e-05,55.75,117.2,-48.36,1.01872e+07,968750,-5.4948e-08,1.83e-07,-5.83111e-08,0.00133834,0.0333397,-0.000465252,0.0333499,2,3146
12,6.33054e-22,1,4989,130.6,-2.45937e-06,1.14778e-05,-3.36743e-08,1.17383e-05,59.5,117.2,-48.36,6.95813e+06,812500,-6.29259e-08,1.98632e-07,-6.74489e-08,0.00234456,0.0301595,-0.000722355,0.0307963,2,3147
12,4.0658e-22,2,4990,119,-2.53015e-06,1.14588e-05,-4.37904e-08,1.17349e-05,64.75,105.96,84.4,2.43744e+06,593750,-7.89146e-08,2.33269e-07,-8.76582e-08,0.00344114,0.0254378,0.000200089,0.0247546,3,1841
12,3.0952e-22,2,4991,119,-2.61719e-06,1.13617e-05,-5.07096e-08,1.16594e-05,67,105.96,84.4,500000,500000,-8.76811e-08,2.47603e-07,-1.01284e-07,0.00298507,0.0213668,0.000159002,0.0200032,3,1842
12,3.0952e-22,2,4992,119,-2.70551e-06,1.12706e-05,-5.18036e-08,1.15909e-05,67,105.96,84.4,500000,500000,-8.77868e-08,2.5097e-07,-1.03637e-07,0.00306707,0.0218697,-4.65435e-05,0.02057,3,1843
12,3.0952e-22,2,4993,119,-2.79277e-06,1.11846e-05,-5.25183e-08,1.15282e-05,67,105.96,84.4,500000,500000,-8.67651e-08,2.53712e-07,-1.05052e-07,0.00339142,0.0224888,-8.14136e-06,0.0210933,3,1844
12,3.0952e-22,2,4994,119,-2.87904e-06,1.11032e-05,-5.34026e-08,1.14705e-05,67,105.96,84.4,500000,500000,-8.61503e-08,2.57282e-07,-1.06777e-07,0.00371235,0.0231738,1.41984e-05,0.0217385,3,1845
12,3.0952e-22,2,4995,119,-2.96507e-06,1.10261e-05,-5.44594e-08,1.1418e-05,67,105.96,84.4,500000,500000,-8.59294e-08,2.61835e-07,-1.08903e-07,0.00404133,0.0239199,4.59873e-05,0.0224564,3,1846
12,3.0952e-22,2,4996,119,-3.0509e-06,1.09518e-05,-5.5708e-08,1.13689e-05,67,105.96,84.4,500000,500000,-8.53079e-08,2.66579e-07,-1.1146e-07,0.00444375,0.0246545,8.29048e-05,0.0231221,3,1847
12,3.0952e-22,2,4997,119,-3.13568e-06,1.08792e-05,-5.72027e-08,1.13222e-05,67,105.96,84.4,500000,500000,-8.40102e-08,2.70922e-07,-1.1454e-07,0.00489335,0.0252973,6.10209e-05,0.0236888,3,1848
12,3.0952e-22,2,4998,119,-3.21892e-06,1.08071e-05,-5.9406e-08,1.12765e-05,67,105.96,84.4,500000,500000,-8.30542e-08,2.77085e-07,-1.18852e-07,0.00538877,0.0260385,-2.43552e-06,0.0243198,3,1849
12,3.0952e-22,2,4999,119,-3.30179e-06,1.07316e-05,-6.24617e-08,1.12282e-05,67,105.96,84.4,500000,500000,-8.37574e-08,2.87192e-07,-1.24832e-07,0.00590543,0.0270013,-5.05107e-05,0.0250713,3,1850
12,3.0952e-22,2,5000,119,-3.38644e-06,1.06478e-05,-6.61311e-08,1.11735e-05,67,105.96,84.4,500000,500000,-8.75759e-08,3.00298e-07,-1.32541e-07,0.00604654,0.027825,-0.000355663,0.0258988,3,1851
12,3.0952e-22,2,5001,119,-3.47694e-06,1.0557e-05,-7.07236e-08,1.1115e-05,67,105.96,84.4,500000,500000,-9.40939e-08,3.20149e-07,-1.42e-07,0.00629481,0.0295246,-0.00068431,0.02766,3,1852
12,3.47949e-22,2,5002,119,-3.57463e-06,1.04688e-05,-7.06059e-08,1.10625e-05,68.0625,105.96,84.4,1.79162e+06,562500,-9.4454e-08,3.29861e-07,-1.4009e-07,0.00710334,0.0338464,-0.000318085,0.0321384,3,1853
12,4.43524e-22,2,5003,119,-3.66585e-06,1.04273e-05,-6.04265e-08,1.10531e-05,70.5625,105.96,84.4,5.6665e+06,750000,-8.17467e-08,3.01455e-07,-1.19782e-07,0.00726472,0.0385277,-0.000421579,0.0375085,3,1854
12,5.19387e-22,1,5004,73.93,-3.73812e-06,1.04554e-05,-4.8522e-08,1.11036e-05,72.375,-115.96,-166.85,9.54138e+06,937500,-6.71402e-08,2.58883e-07,-9.80589e-08,0.00680971,0.0396983,-0.0010384,0.0387005,2,3148
12,5.77529e-22,1,5005,73.93,-3.80013e-06,1.05031e-05,-4.38305e-08,1.11695e-05,74.125,-115.96,-166.85,1.0833e+07,1e+06,-6.39404e-08,2.37356e-07,-8.80177e-08,0.00575209,0.0376237,-0.00104426,0.0366452,2,3149
12,6.76093e-22,1,5006,91.26,-3.866e-06,1.05318e-05,-4.35022e-08,1.1219e-05,77.5625,-49.63,-179.82,1.0833e+07,1e+06,-6.90303e-08,2.29641e-07,-8.66183e-08,0.00377807,0.0337561,-0.000856372,0.0333042,2,3150
12,7.54944e-22,1,5007,91.26,-3.93819e-06,1.05416e-05,-4.32916e-08,1.12533e-05,80.3125,-49.63,-179.82,1.0833e+07,1e+06,-7.34965e-08,2.28153e-07,-8.67623e-08,0.00274347,0.0311911,-0.00027976,0.0303025,2,3151
12,7.74657e-22,1,5008,91.26,-4.01299e-06,1.05385e-05,-4.33521e-08,1.12768e-05,81,-49.63,-179.82,1.0833e+07,1e+06,-7.51857e-08,2.30101e-07,-8.68352e-08,0.00268443,0.0309372,0.000125249,0.0296284,2,3152
12,7.74657e-22,1,5009,91.26,-4.08857e-06,1.05275e-05,-4.3295e-08,1.12937e-05,81,-49.63,-179.82,1.0833e+07,1e+06,-7.56143e-08,2.29166e-07,-8.65296e-08,0.00247822,0.0307102,3.40388e-05,0.0295371,2,3153
12,7.74657e-22,1,5010,91.26,-4.16422e-06,1.05128e-05,-4.27935e-08,1.13076e-05,81,-49.63,-179.82,1.0833e+07,1e+06,-7.55788e-08,2.27052e-07,-8.55831e-08,0.00227773,0.0303593,2.43868e-05,0.0292835,2,3154
12,7.74657e-22,1,5011,91.26,-4.23972e-06,1.04958e-05,-4.22508e-08,1.13199e-05,81,-49.63,-179.82,1.0833e+07,1e+06,-7.52869e-08,2.24656e-07,-8.45062e-08,0.00211978,0.0299963,3.61838e-05,0.0290044,2,3155
12,7.74657e-22,1,5012,91.26,-4.3148e-06,1.04776e-05,-4.17225e-08,1.13313e-05,81,-49.63,-179.82,1.0833e+07,1e+06,-7.45238e-08,2.22126e-07,-8.34612e-08,0.00207889,0.0296617,5.38342e-05,0.0287297,2,3156
12,7.74657e-22,1,5013,91.26,-4.38877e-06,1.04586e-05,-4.12503e-08,1.13422e-05,81,-49.63,-179.82,1.0833e+07,1e+06,-7.28533e-08,2.19307e-07,-8.25377e-08,0.0022566,0.0293663,6.0162e-05,0.028438,2,3157
12,7.74657e-22,1,5014,91.26,-4.4605e-06,1.04396e-05,-4.09098e-08,1.13527e-05,81,-49.63,-179.82,1.0833e+07,1e+06,-7.05641e-08,2.16459e-07,-8.20064e-08,0.00258232,0.0290936,-6.51734e-06,0.0281612,2,3158
12,7.74657e-22,1,5015,91.26,-4.5299e-06,1.04219e-05,-4.11943e-08,1.13638e-05,81,-49.63,-179.82,1.0833e+07,1e+06,-6.95066e-08,2.16532e-07,-8.26053e-08,0.0028643,0.0291717,-0.000103361,0.0282731,2,3159
12,7.7253e-22,1,5016,91.26,-4.59952e-06,1.04047e-05,-4.14887e-08,1.13761e-05,83,-49.63,-179.82,1.0833e+07,1e+06,-6.70148e-08,2.17981e-07,-8.26663e-08,0.00321388,0.0309284,-0.000286263,0.0305199,2,3160
12,7.61894e-22,1,5017,91.26,-4.66393e-06,1.03718e-05,-3.91379e-08,1.13722e-05,93,-49.63,-179.82,1.0833e+07,1e+06,-5.21111e-08,2.13187e-07,-7.76798e-08,0.00443779,0.0375377,-0.000636402,0.0375861,2,3161
12,7.47003e-22,1,5018,137.15,-4.70374e-06,1.03335e-05,-3.22301e-08,1.13538e-05,107,109.19,-42.07,1.0833e+07,1e+06,-2.98589e-08,1.93227e-07,-6.46095e-08,0.00588353,0.0433395,-0.000268767,0.0427884,2,3162
12,7.40621e-22,1,5019,137.15,-4.72365e-06,1.03125e-05,-2.76952e-08,1.13429e-05,113,109.19,-42.07,1.0833e+07,1e+06,-1.91404e-08,1.74142e-07,-5.57215e-08,0.00622613,0.0428346,0.000152063,0.0416169,2,3163
12,7.40621e-22,1,5020,137.15,-4.74202e-06,1.03033e-05,-2.75911e-08,1.13422e-05,113,109.19,-42.07,1.0833e+07,1e+06,-1.85399e-08,1.68201e-07,-5.51504e-08,0.00591761,0.040934,-2.99167e-06,0.0396026,2,3164
12,7.40621e-22,1,5021,137.15,-4.76073e-06,1.03022e-05,-2.72819e-08,1.13491e-05,113,109.19,-42.07,1.0833e+07,1e+06,-1.90951e-08,1.65505e-07,-5.45742e-08,0.00555664,0.0399729,-6.84558e-06,0.0385985,2,3165
12,7.40621e-22,1,5022,137.15,-4.78021e-06,1.03078e-05,-2.72775e-08,1.13623e-05,113,109.19,-42.07,1.0833e+07,1e+06,-2.00806e-08,1.65085e-07,-5.4557e-08,0.00522815,0.0396051,1.15491e-06,0.0382193,2,3166
12,7.40621e-22,1,5023,137.15,-4.80089e-06,1.03205e-05,-2.75464e-08,1.13825e-05,113,109.19,-42.07,1.0833e+07,1e+06,-2.14428e-08,1.66446e-07,-5.50945e-08,0.0049105,0.0396498,7.28067e-06,0.0382644,2,3167
12,7.40621e-22,1,5024,137.15,-4.82309e-06,1.0341e-05,-2.80576e-08,1.14105e-05,113,109.19,-42.07,1.0833e+07,1e+06,-2.30724e-08,1.69275e-07,-5.61173e-08,0.00461335,0.0400259,1.58893e-05,0.0386394,2,3168
12,7.40621e-22,1,5025,137.15,-4.84703e-06,1.03701e-05,-2.8783e-08,1.14469e-05,113,109.19,-42.07,1.0833e+07,1e+06,-2.48036e-08,1.73286e-07,-5.75695e-08,0.00436457,0.0406713,2.9165e-05,0.0392686,2,3169
12,7.40621e-22,1,5026,137.15,-4.8727e-06,1.04085e-05,-2.97042e-08,1.14927e-05,113,109.19,-42.07,1.0833e+07,1e+06,-2.64095e-08,1.78212e-07,-5.94147e-08,0.00421115,0.0415362,4.92222e-05,0.0400818,2,3170
12,7.40621e-22,1,5027,137.15,-4.89985e-06,1.0457e-05,-3.08316e-08,1.15481e-05,113,109.19,-42.07,1.0833e+07,1e+06,-2.76516e-08,1.8394e-07,-6.16548e-08,0.00421703,0.0426094,8.34008e-05,0.0410375,2,3171
12,7.40621e-22,1,5028,137.15,-4.928e-06,1.0516e-05,-3.2187e-08,1.16135e-05,113,109.19,-42.07,1.0833e+07,1e+06,-2.808e-08,1.90876e-07,-6.4617e-08,0.00451369,0.0440138,0.00013969,0.0421967,2,3172
12,7.40621e-22,1,5029,137.15,-4.95601e-06,1.05874e-05,-3.65751e-08,1.169e-05,113,109.19,-42.07,1.0833e+07,1e+06,-3.0438e-08,2.02156e-07,-7.30482e-08,0.00407853,0.045822,-0.000990059,0.0447747,2,3173
12,6.21306e-22,1,5030,137.15,-4.98888e-06,1.06767e-05,-3.89293e-08,1.17849e-05,110.75,109.19,-42.07,8.24975e+06,875000,-5.17308e-08,2.33952e-07,-7.89433e-08,0.0034627,0.0458453,0.000433969,0.045148,2,3174
12,3.82677e-22,2,5031,35.75,-5.05947e-06,1.07866e-05,-5.26807e-08,1.19143e-05,106.25,-59.17,80.08,3.08325e+06,625000,-8.84099e-08,2.82542e-07,-1.04344e-07,0.00258239,0.0366228,0.00113106,0.0359235,3,1855
12,2.63362e-22,2,5032,35.75,-5.1657e-06,1.09163e-05,-6.34514e-08,1.2077e-05,104,-59.17,80.08,500000,500000,-1.06278e-07,2.99729e-07,-1.2559e-07,0.00121928,0.0275094,-0.000362697,0.0272609,3,1856
12,2.63362e-22,2,5033,35.75,-5.27203e-06,1.10401e-05,-5.74422e-08,1.22344e-05,104,-59.17,80.08,500000,500000,-1.03627e-07,2.8568e-07,-1.16311e-07,0.00086823,0.0262486,0.000363465,0.0256879,3,1857
12,2.93191e-22,2,5034,35.75,-5.37295e-06,1.11434e-05,-5.35235e-08,1.23712e-05,104.562,-59.17,80.08,1.14581e+06,531250,-9.31534e-08,2.65523e-07,-1.0638e-07,0.000979698,0.0267177,6.24454e-05,0.0268133,3,1858
12,4.42334e-22,2,5035,35.75,-5.45834e-06,1.1206e-05,-4.45942e-08,1.24648e-05,107.375,-59.17,80.08,4.37488e+06,687500,-6.96554e-08,2.2733e-07,-8.8448e-08,0.000763774,0.0319796,-0.00164289,0.0339513,3,1859
12,6.51135e-22,1,5036,137.15,-5.51227e-06,1.12161e-05,-3.19723e-08,1.24974e-05,111.312,109.19,-42.07,8.89556e+06,906250,-4.60094e-08,1.94991e-07,-6.52194e-08,0.0012142,0.0398252,-0.000336624,0.0404496,2,3175
12,7.40621e-22,1,5037,137.15,-5.55035e-06,1.12232e-05,-2.89271e-08,1.25207e-05,113,109.19,-42.07,1.0833e+07,1e+06,-3.96651e-08,1.89247e-07,-5.81439e-08,0.00133275,0.0428979,0.0010947,0.0418593,2,3176
12,7.40621e-22,1,5038,137.15,-5.5916e-06,1.12534e-05,-3.24747e-08,1.2566e-05,113,109.19,-42.07,1.0833e+07,1e+06,-4.27225e-08,1.95673e-07,-6.42717e-08,0.000604052,0.043324,2.9521e-05,0.0431189,2,3177
12,7.40621e-22,1,5039,137.15,-5.6358e-06,1.13044e-05,-3.43607e-08,1.26315e-05,113,109.19,-42.07,1.0833e+07,1e+06,-4.65532e-08,2.05888e-07,-6.89194e-08,7.88035e-05,0.0448298,-8.99101e-05,0.0449126,2,3178
12,7.40621e-22,1,5040,137.15,-5.6847e-06,1.13832e-05,-3.66943e-08,1.27238e-05,113,109.19,-42.07,1.0833e+07,1e+06,-5.01837e-08,2.14424e-07,-7.29858e-08,-0.000505884,0.045615,0.000125661,0.0459638,2,3179
12,7.21453e-22,1,5041,137.15,-5.73617e-06,1.14977e-05,-3.90648e-08,1.28492e-05,113.188,109.19,-42.07,1.01872e+07,968750,-4.85906e-08,2.13897e-07,-7.78702e-08,-0.000973151,0.0435229,0.000204054,0.044635,2,3180
12,6.4478e-22,1,5042,137.15,-5.78188e-06,1.16342e-05,-4.95974e-08,1.29918e-05,113.938,109.19,-42.07,7.60394e+06,843750,-3.40712e-08,2.17826e-07,-1.01026e-07,-0.00127023,0.0401072,-0.00031156,0.0424679,2,3181
12,5.46747e-22,2,5043,85.61,-5.80431e-06,1.17511e-05,-6.98748e-08,1.31067e-05,115.375,90.62,-39.24,4.37488e+06,687500,-8.70893e-09,2.28373e-07,-1.39653e-07,-0.00135515,0.0369944,-0.000442733,0.0396991,3,1860
12,5.04029e-22,2,5044,85.61,-5.7993e-06,1.18245e-05,-8.0199e-08,1.31703e-05,116.75,90.62,-39.24,3.08325e+06,625000,9.78278e-09,2.23523e-07,-1.59285e-07,-0.00140288,0.0335903,-0.000412872,0.0357542,3,1861
12,4.84861e-22,2,5045,85.61,-5.78474e-06,1.18608e-05,-7.9765e-08,1.31965e-05,116.938,90.62,-39.24,2.43744e+06,593750,1.43979e-08,2.14649e-07,-1.60347e-07,-0.00132707,0.0310939,-0.00041248,0.0326733,3,1862
12,4.50906e-22,2,5046,85.61,-5.7705e-06,1.18713e-05,-8.26945e-08,1.31997e-05,116.312,90.62,-39.24,1.14581e+06,531250,1.4333e-08,2.13857e-07,-1.65146e-07,-0.00167536,0.0287207,-0.0004302,0.0301945,3,1863
12,4.26308e-22,2,5047,85.61,-5.75608e-06,1.18698e-05,-8.38573e-08,1.31921e-05,116.375,90.62,-39.24,500000,500000,1.27659e-08,2.13576e-07,-1.6685e-07,-0.00183858,0.0274137,-0.000707454,0.0290933,3,1864
12,3.95828e-22,2,5048,85.61,-5.74497e-06,1.18543e-05,-7.97453e-08,1.31732e-05,117.875,90.62,-39.24,500000,500000,7.63083e-09,2.143e-07,-1.59505e-07,-0.00119267,0.027995,-0.000708316,0.0295944,3,1865
12,3.50107e-22,2,5049,94.25,-5.74082e-06,1.18114e-05,-7.76258e-08,1.31328e-05,120.125,20.61,141.14,500000,500000,2.07069e-09,2.1928e-07,-1.55581e-07,-0.000662568,0.0287642,-0.000609534,0.029899,3,1866
12,3.19627e-22,2,5050,94.25,-5.74083e-06,1.17331e-05,-8.01347e-08,1.30625e-05,121.625,20.61,141.14,500000,500000,-3.89165e-10,2.27805e-07,-1.60253e-07,-0.000597636,0.0294029,-0.000731353,0.0302125,3,1867
12,5.69008e-22,1,5051,71.87,-2.60553e-08,9.49232e-06,-2.65517e-08,9.4924e-06,27,-131.18,-164.33,1.0833e+07,1e+06,-5.19593e-08,1.72014e-07,-5.3103e-08,0.00243424,0.0301158,0.000637483,0.0287982,2,3182
12,5.69008e-22,1,5052,71.87,-7.78633e-08,9.55255e-06,-2.82938e-08,9.55291e-06,27,-131.18,-164.33,1.0833e+07,1e+06,-5.14828e-08,1.72246e-07,-5.65924e-08,0.00266553,0.0296865,-0.000542679,0.0287818,2,3183
12,5.69008e-22,1,5053,71.87,-1.29021e-07,9.61317e-06,-2.71695e-08,9.61407e-06,27,-131.18,-164.33,1.0833e+07,1e+06,-5.03549e-08,1.71305e-07,-5.43392e-08,0.00308213,0.0299129,2.35411e-05,0.0285205,2,3184
12,5.69008e-22,1,5054,71.87,-1.78573e-07,9.67447e-06,-2.69769e-08,9.67616e-06,27,-131.18,-164.33,1.0833e+07,1e+06,-4.80984e-08,1.69301e-07,-5.39554e-08,0.00351341,0.0298007,1.995e-05,0.0282576,2,3185
12,5.69008e-22,1,5055,71.87,-2.25218e-07,9.73731e-06,-2.68103e-08,9.73995e-06,27,-131.18,-164.33,1.0833e+07,1e+06,-4.48895e-08,1.66518e-07,-5.36222e-08,0.00411306,0.0295778,1.94697e-05,0.0278133,2,3186
12,5.69008e-22,1,5056,71.87,-2.68352e-07,9.80266e-06,-2.67129e-08,9.80637e-06,27,-131.18,-164.33,1.0833e+07,1e+06,-4.12857e-08,1.63421e-07,-5.34257e-08,0.00478906,0.0292613,8.73564e-06,0.0272469,2,3187
12,5.69008e-22,1,5057,71.87,-3.07789e-07,9.87199e-06,-2.67527e-08,9.87682e-06,27,-131.18,-164.33,1.0833e+07,1e+06,-3.77402e-08,1.60677e-07,-5.35032e-08,0.00548801,0.0289341,-4.15181e-06,0.0266657,2,3188
12,5.69008e-22,1,5058,71.87,-3.43832e-07,9.94713e-06,-2.70166e-08,9.95311e-06,27,-131.18,-164.33,1.0833e+07,1e+06,-3.47438e-08,1.59086e-07,-5.40295e-08,0.00615589,0.0287135,-1.55312e-05,0.026228,2,3189
12,5.69008e-22,1,5059,71.87,-3.77277e-07,1.00301e-05,-2.75856e-08,1.00372e-05,27,-131.18,-164.33,1.0833e+07,1e+06,-3.27319e-08,1.59454e-07,-5.51677e-08,0.00675274,0.0287378,-2.14259e-05,0.0261119,2,3190
12,5.69008e-22,1,5060,71.87,-4.09296e-07,1.01225e-05,-2.85178e-08,1.01308e-05,27,-131.18,-164.33,1.0833e+07,1e+06,-3.19751e-08,1.62402e-07,-5.70339e-08,0.00726422,0.0291362,-1.98422e-05,0.0264615,2,3191
12,5.69008e-22,1,5061,71.87,-4.41227e-07,1.02257e-05,-2.98376e-08,1.02353e-05,27,-131.18,-164.33,1.0833e+07,1e+06,-3.25272e-08,1.68222e-07,-5.96752e-08,0.00770157,0.0299948,-1.35723e-05,0.0273386,2,3192
12,5.69008e-22,1,5062,71.87,-4.7435e-07,1.034e-05,-3.15461e-08,1.0351e-05,27,-131.18,-164.33,1.0833e+07,1e+06,-3.42807e-08,1.76946e-07,-6.30973e-08,0.0080948,0.0313554,-8.36079e-06,0.028732,2,3193
12,5.69008e-22,1,5063,71.87,-5.09788e-07,1.04653e-05,-3.36634e-08,1.04778e-05,27,-131.18,-164.33,1.0833e+07,1e+06,-3.70382e-08,1.88634e-07,-6.73416e-08,0.00850363,0.0332656,-4.57646e-06,0.0306241,2,3194
12,5.69008e-22,1,5064,71.87,-5.48427e-07,1.06012e-05,-3.62887e-08,1.06155e-05,27,-131.18,-164.33,1.0833e+07,1e+06,-4.06977e-08,2.03587e-07,-7.26269e-08,0.008982,0.0357904,-2.96852e-05,0.0330559,2,3195
12,5.69008e-22,1,5065,71.87,-5.91184e-07,1.07478e-05,-3.95534e-08,1.07642e-05,27,-131.18,-164.33,1.0833e+07,1e+06,-4.61213e-08,2.22937e-07,-7.90726e-08,0.00940599,0.0390927,-4.79159e-05,0.0361683,2,3196
12,5.69008e-22,1,5066,71.87,-6.40669e-07,1.09039e-05,-4.3313e-08,1.09228e-05,27,-131.18,-164.33,1.0833e+07,1e+06,-5.43188e-08,2.50747e-07,-8.72232e-08,0.00989789,0.0440959,0.000138679,0.040586,2,3197
12,5.65591e-22,1,5067,71.87,-6.99821e-07,1.10658e-05,-4.6422e-08,1.1088e-05,27.9375,-131.18,-164.33,1.0833e+07,1e+06,-6.33179e-08,2.80876e-07,-9.37194e-08,0.00955282,0.0515888,0.000244759,0.0478973,2,3198
12,4.95322e-22,1,5068,71.87,-7.67305e-07,1.12055e-05,-5.71381e-08,1.12319e-05,31.625,-131.18,-164.33,8.24975e+06,875000,-7.81512e-08,3.08881e-07,-1.13616e-07,0.00701898,0.0506603,-0.00124094,0.049893,2,3199
12,3.65032e-22,2,5069,95.55,-8.56124e-07,1.12353e-05,-7.69132e-08,1.12681e-05,36.1875,20.95,172.44,3.08325e+06,625000,-9.54248e-08,3.34691e-07,-1.51781e-07,0.0046437,0.035612,-0.00129699,0.035733,3,1868
12,3.01595e-22,2,5070,95.55,-9.58155e-07,1.11797e-05,-8.32157e-08,1.1221e-05,38,20.95,172.44,500000,500000,-9.6228e-08,3.28388e-07,-1.66174e-07,0.0038457,0.0241813,-0.000444608,0.022883,3,1869
12,3.01595e-22,2,5071,95.55,-1.04858e-06,1.11245e-05,-7.86702e-08,1.11741e-05,38,20.95,172.44,500000,500000,-8.82649e-08,3.08834e-07,-1.58451e-07,0.00392073,0.0226124,-0.000567838,0.0212957,3,1870
12,3.01595e-22,2,5072,95.55,-1.13468e-06,1.10676e-05,-7.80392e-08,1.11259e-05,38,20.95,172.44,500000,500000,-8.90647e-08,3.09903e-07,-1.56316e-07,0.00414586,0.0229086,-8.40402e-05,0.021212,3,1871
12,3.01595e-22,2,5073,95.55,-1.22671e-06,1.10071e-05,-7.84895e-08,1.10755e-05,38,20.95,172.44,500000,500000,-9.53127e-08,3.17347e-07,-1.57037e-07,0.00382751,0.0233166,2.49237e-05,0.0216572,3,1872
12,3.01595e-22,2,5074,95.55,-1.32531e-06,1.09439e-05,-7.95699e-08,1.10241e-05,38,20.95,172.44,500000,500000,-1.00788e-07,3.25509e-07,-1.5916e-07,0.00356225,0.0238,4.26969e-05,0.022217,3,1873
12,3.01595e-22,2,5075,95.55,-1.42828e-06,1.08793e-05,-8.08576e-08,1.0973e-05,38,20.95,172.44,500000,500000,-1.03989e-07,3.32265e-07,-1.61806e-07,0.00345706,0.0242819,4.58393e-05,0.022726,3,1874
12,3.01595e-22,2,5076,95.55,-1.53329e-06,1.08138e-05,-8.22372e-08,1.09223e-05,38,20.95,172.44,500000,500000,-1.05243e-07,3.37491e-07,-1.64741e-07,0.00349109,0.0247078,1.90884e-05,0.0231508,3,1875
12,3.01595e-22,2,5077,95.55,-1.63877e-06,1.07444e-05,-8.36421e-08,1.0869e-05,38,20.95,172.44,500000,500000,-1.08027e-07,3.42972e-07,-1.67423e-07,0.00339399,0.0249665,-0.000135923,0.0235635,3,1876
12,3.34444e-22,2,5078,95.55,-1.74934e-06,1.06571e-05,-8.20344e-08,1.08001e-05,39.0625,20.95,172.44,1.14581e+06,531250,-1.11654e-07,3.50768e-07,-1.64104e-07,0.00365092,0.0281501,-0.000267235,0.0271417,3,1877
12,4.65839e-22,2,5079,95.55,-1.86208e-06,1.05946e-05,-6.82307e-08,1.07572e-05,43.3125,20.95,172.44,3.72906e+06,656250,-1.02339e-07,3.19661e-07,-1.34882e-07,0.00318351,0.0332611,-0.000748562,0.0334637,3,1878
12,6.62931e-22,1,5080,130.6,-1.95402e-06,1.06407e-05,-4.467e-08,1.08188e-05,49.6875,117.2,-48.36,7.60394e+06,843750,-7.91083e-08,2.48419e-07,-8.98249e-08,0.00171256,0.0360845,-0.000959977,0.0369577,2,3200
12,7.94326e-22,1,5081,130.6,-2.0203e-06,1.07664e-05,-3.1856e-08,1.09543e-05,53.9375,117.2,-48.36,1.01872e+07,968750,-6.10185e-08,2.09105e-07,-6.48533e-08,0.00199497,0.038648,0.000174075,0.0380305,2,3201
12,8.27175e-22,1,5082,130.6,-2.07606e-06,1.08832e-05,-3.04959e-08,1.10795e-05,55,117.2,-48.36,1.0833e+07,1e+06,-5.38272e-08,2.00446e-07,-6.02765e-08,0.00285146,0.0394605,0.000487594,0.0380292,2,3202
12,8.27175e-22,1,5083,130.6,-2.12795e-06,1.09778e-05,-2.97974e-08,1.11822e-05,55,117.2,-48.36,1.0833e+07,1e+06,-5.14795e-08,1.94278e-07,-5.98172e-08,0.00284553,0.0382904,-2.28596e-06,0.0371793,2,3203
12,8.27175e-22,1,5084,130.6,-2.17902e-06,1.10684e-05,-2.95077e-08,1.12809e-05,55,117.2,-48.36,1.0833e+07,1e+06,-5.14538e-08,1.92039e-07,-5.89533e-08,0.00267143,0.0377572,3.61541e-05,0.0366711,2,3204
12,8.27175e-22,1,5085,130.6,-2.23086e-06,1.11589e-05,-2.92299e-08,1.13798e-05,55,117.2,-48.36,1.0833e+07,1e+06,-5.21958e-08,1.9063e-07,-5.84724e-08,0.00234081,0.0372806,1.55156e-05,0.0363099,2,3205
12,8.27175e-22,1,5086,130.6,-2.28341e-06,1.12514e-05,-2.90697e-08,1.14808e-05,55,117.2,-48.36,1.0833e+07,1e+06,-5.27895e-08,1.89558e-07,-5.81356e-08,0.00209027,0.036869,1.9055e-05,0.0359603,2,3206
12,8.27175e-22,1,5087,130.6,-2.33644e-06,1.13483e-05,-2.88846e-08,1.15864e-05,55,117.2,-48.36,1.0833e+07,1e+06,-5.27499e-08,1.88038e-07,-5.77389e-08,0.00200054,0.0363691,7.13208e-05,0.0354215,2,3207
12,8.27175e-22,1,5088,130.6,-2.38891e-06,1.14518e-05,-2.8172e-08,1.16983e-05,55,117.2,-48.36,1.0833e+07,1e+06,-5.02866e-08,1.83957e-07,-5.62335e-08,0.0024623,0.0355364,0.000386418,0.0341579,2,3208
12,8.27175e-22,1,5089,130.6,-2.43701e-06,1.15591e-05,-2.72673e-08,1.18133e-05,55,117.2,-48.36,1.0833e+07,1e+06,-4.55574e-08,1.74225e-07,-5.40943e-08,0.00304441,0.0335045,0.000416607,0.0318461,2,3209
12,6.97761e-22,1,5090,130.6,-2.48002e-06,1.16609e-05,-2.75715e-08,1.19218e-05,58,117.2,-48.36,8.24975e+06,875000,-5.32796e-08,1.80536e-07,-5.5958e-08,0.0033464,0.0305561,0.000491519,0.0294739,2,3210
12,4.38933e-22,2,5091,119,-2.54357e-06,1.16808e-05,-3.80112e-08,1.19546e-05,64,105.96,84.4,3.08325e+06,625000,-7.60283e-08,2.18533e-07,-7.64629e-08,0.00326598,0.0253281,0.000830729,0.0242047,3,1879
12,3.0952e-22,2,5092,119,-2.63208e-06,1.16078e-05,-4.90392e-08,1.19026e-05,67,105.96,84.4,500000,500000,-8.83449e-08,2.43501e-07,-9.73693e-08,0.00272533,0.0210952,0.000334452,0.0197618,3,1880
12,3.0952e-22,2,5093,119,-2.72026e-06,1.15194e-05,-5.07571e-08,1.18364e-05,67,105.96,84.4,500000,500000,-8.62911e-08,2.44705e-07,-1.01524e-07,0.00283182,0.0210865,-0.000138367,0.0199067,3,1881
12,3.0952e-22,2,5094,119,-2.80466e-06,1.14354e-05,-5.16001e-08,1.17744e-05,67,105.96,84.4,500000,500000,-8.42857e-08,2.48049e-07,-1.03214e-07,0.0034019,0.0219325,-2.46487e-05,0.0205196,3,1882
12,3.0952e-22,2,5095,119,-2.88883e-06,1.13576e-05,-5.24033e-08,1.17193e-05,67,105.96,84.4,500000,500000,-8.44297e-08,2.52293e-07,-1.04917e-07,0.00365471,0.0226423,1.44811e-05,0.0211858,3,1883
12,3.0952e-22,2,5096,119,-2.97352e-06,1.12858e-05,-5.37482e-08,1.16711e-05,67,105.96,84.4,500000,500000,-8.51771e-08,2.57934e-07,-1.07531e-07,0.003883,0.023398,-1.66379e-05,0.0219657,3,1884
12,3.0952e-22,2,5097,119,-3.05918e-06,1.12175e-05,-5.55516e-08,1.16273e-05,67,105.96,84.4,500000,500000,-8.59805e-08,2.65414e-07,-1.11053e-07,0.00426059,0.0243133,9.37697e-06,0.0227891,3,1885
12,3.0952e-22,2,5098,119,-3.14548e-06,1.115e-05,-5.72484e-08,1.15854e-05,67,105.96,84.4,500000,500000,-8.58353e-08,2.71779e-07,-1.14456e-07,0.00475895,0.0250745,4.83832e-05,0.0233608,3,1886
12,3.0952e-22,2,5099,119,-3.23085e-06,1.10848e-05,-5.87764e-08,1.15462e-05,67,105.96,84.4,500000,500000,-8.54779e-08,2.7737e-07,-1.17403e-07,0.00528136,0.0257598,9.53585e-05,0.0238212,3,1887
12,3.0952e-22,2,5100,119,-3.31644e-06,1.10212e-05,-6.09612e-08,1.15095e-05,67,105.96,84.4,500000,500000,-8.75507e-08,2.88366e-07,-1.21827e-07,0.00579264,0.0269589,0.000265561,0.0247051,3,1888
12,3.0952e-22,2,5101,119,-3.40596e-06,1.09519e-05,-6.33989e-08,1.14695e-05,67,105.96,84.4,500000,500000,-9.13837e-08,3.0071e-07,-1.27012e-07,0.0060247,0.0280442,0.000338554,0.0255796,3,1889
12,3.38591e-22,2,5102,119,-3.49921e-06,1.08746e-05,-6.55294e-08,1.14239e-05,67.875,105.96,84.4,1.14581e+06,531250,-9.22834e-08,3.06186e-07,-1.31752e-07,0.00602331,0.0292097,-0.000559906,0.0276465,3,1890
12,4.54875e-22,2,5103,119,-3.59052e-06,1.07988e-05,-6.67774e-08,1.13803e-05,71.375,105.96,84.4,3.72906e+06,656250,-8.54704e-08,3.10486e-07,-1.33672e-07,0.00772071,0.0340178,-0.00132258,0.0330748,3,1891
12,6.09589e-22,1,5104,91.26,-3.67015e-06,1.07424e-05,-6.38791e-08,1.13523e-05,75.9375,-49.63,-179.82,7.60394e+06,843750,-7.19064e-08,3.02943e-07,-1.26823e-07,0.0102403,0.0400535,-0.00107185,0.0380245,2,3211
12,6.86448e-22,1,5105,91.26,-3.73434e-06,1.07267e-05,-5.67618e-08,1.13583e-05,78.0625,-49.63,-179.82,1.01872e+07,968750,-6.23468e-08,2.75121e-07,-1.12815e-07,0.00987526,0.0404045,-0.00113526,0.0380987,2,3212
12,7.15519e-22,1,5106,91.26,-3.79484e-06,1.0746e-05,-4.98592e-08,1.13964e-05,78.9375,-49.63,-179.82,1.0833e+07,1e+06,-6.32965e-08,2.4991e-07,-9.98684e-08,0.00729948,0.0366948,-0.000994894,0.0351346,2,3213
12,7.54944e-22,1,5107,91.26,-3.86093e-06,1.07668e-05,-4.58399e-08,1.14382e-05,80.3125,-49.63,-179.82,1.0833e+07,1e+06,-6.74743e-08,2.38388e-07,-9.22391e-08,0.00545689,0.033644,-0.000102061,0.0318559,2,3214
12,7.74657e-22,1,5108,91.26,-3.92979e-06,1.07731e-05,-4.45666e-08,1.14676e-05,81,-49.63,-179.82,1.0833e+07,1e+06,-6.94496e-08,2.335e-07,-8.92308e-08,0.00463884,0.0321567,0.000292278,0.0300716,2,3215
12,7.74657e-22,1,5109,91.26,-3.99983e-06,1.07688e-05,-4.41586e-08,1.14877e-05,81,-49.63,-179.82,1.0833e+07,1e+06,-7.12226e-08,2.31058e-07,-8.82977e-08,0.00388403,0.0314899,8.73179e-05,0.0297581,2,3216
12,7.74657e-22,1,5110,91.26,-4.07223e-06,1.07571e-05,-4.36852e-08,1.15022e-05,81,-49.63,-179.82,1.0833e+07,1e+06,-7.36889e-08,2.30008e-07,-8.74672e-08,0.00308961,0.0310326,7.53273e-06,0.0296408,2,3217
12,7.74657e-22,1,5111,91.26,-4.14721e-06,1.07411e-05,-4.34117e-08,1.1514e-05,81,-49.63,-179.82,1.0833e+07,1e+06,-7.6257e-08,2.29995e-07,-8.67607e-08,0.0023899,0.030782,2.83918e-05,0.0296642,2,3218
12,7.74657e-22,1,5112,91.26,-4.22475e-06,1.07228e-05,-4.31602e-08,1.15251e-05,81,-49.63,-179.82,1.0833e+07,1e+06,-7.84615e-08,2.30424e-07,-8.63126e-08,0.0018356,0.030648,5.90689e-05,0.0297599,2,3219
12,7.74657e-22,1,5113,91.26,-4.30413e-06,1.07027e-05,-4.28301e-08,1.15358e-05,81,-49.63,-179.82,1.0833e+07,1e+06,-7.94249e-08,2.29636e-07,-8.56885e-08,0.00149283,0.0304256,6.51246e-05,0.0297463,2,3220
12,7.74657e-22,1,5114,91.26,-4.3836e-06,1.0681e-05,-4.23008e-08,1.15457e-05,81,-49.63,-179.82,1.0833e+07,1e+06,-7.8707e-08,2.26793e-07,-8.45948e-08,0.00140139,0.030021,5.01488e-05,0.0295235,2,3221
12,7.74657e-22,1,5115,91.26,-4.46154e-06,1.06583e-05,-4.14168e-08,1.15545e-05,81,-49.63,-179.82,1.0833e+07,1e+06,-7.66229e-08,2.21985e-07,-8.29243e-08,0.00149197,0.029425,3.34125e-05,0.0290093,2,3222
12,7.7253e-22,1,5116,91.26,-4.53684e-06,1.06396e-05,-3.98285e-08,1.15666e-05,83,-49.63,-179.82,1.0833e+07,1e+06,-7.10011e-08,2.13879e-07,-7.96596e-08,0.00174931,0.0297645,-0.000176559,0.0296361,2,3223
12,7.64021e-22,1,5117,91.26,-4.60355e-06,1.06195e-05,-3.61855e-08,1.15744e-05,91,-49.63,-179.82,1.0833e+07,1e+06,-5.58785e-08,2.01219e-07,-7.18667e-08,0.0029869,0.0337041,-0.000270257,0.033913,2,3224
12,7.51257e-22,1,5118,137.15,-4.6486e-06,1.05757e-05,-3.08317e-08,1.15523e-05,103,109.19,-42.07,1.0833e+07,1e+06,-3.55008e-08,1.88318e-07,-6.2021e-08,0.00499366,0.0400309,-1.72902e-05,0.0400004,2,3225
12,7.42749e-22,1,5119,137.15,-4.67455e-06,1.05198e-05,-2.76442e-08,1.15116e-05,111,109.19,-42.07,1.0833e+07,1e+06,-2.37864e-08,1.78354e-07,-5.56447e-08,0.00576832,0.0430553,0.000212079,0.0425015,2,3226
12,7.40621e-22,1,5120,137.15,-4.69617e-06,1.04848e-05,-2.71809e-08,1.14885e-05,113,109.19,-42.07,1.0833e+07,1e+06,-2.16167e-08,1.71304e-07,-5.40149e-08,0.00534388,0.0419363,0.000144062,0.0410387,2,3227
12,7.40621e-22,1,5121,137.15,-4.71778e-06,1.0471e-05,-2.7107e-08,1.14847e-05,113,109.19,-42.07,1.0833e+07,1e+06,-2.16155e-08,1.67254e-07,-5.42446e-08,0.00497648,0.0403408,-1.3476e-05,0.039272,2,3228
12,7.40621e-22,1,5122,137.15,-4.7394e-06,1.04676e-05,-2.70116e-08,1.14905e-05,113,109.19,-42.07,1.0833e+07,1e+06,-2.19867e-08,1.65282e-07,-5.40143e-08,0.0047116,0.0395588,-1.39995e-05,0.0384095,2,3229
12,7.40621e-22,1,5123,137.15,-4.76175e-06,1.04729e-05,-2.70819e-08,1.15046e-05,113,109.19,-42.07,1.0833e+07,1e+06,-2.29907e-08,1.65214e-07,-5.41653e-08,0.00439888,0.039257,-5.83196e-06,0.0380916,2,3230
12,7.40621e-22,1,5124,137.15,-4.78539e-06,1.0487e-05,-2.73807e-08,1.15273e-05,113,109.19,-42.07,1.0833e+07,1e+06,-2.44917e-08,1.66786e-07,-5.47611e-08,0.00405468,0.0393332,1.85062e-06,0.0381865,2,3231
12,7.40621e-22,1,5125,137.15,-4.81074e-06,1.05103e-05,-2.78799e-08,1.1559e-05,113,109.19,-42.07,1.0833e+07,1e+06,-2.63595e-08,1.69758e-07,-5.5759e-08,0.00370031,0.0397305,1.17992e-05,0.0386222,2,3232
12,7.40621e-22,1,5126,137.15,-4.8381e-06,1.05434e-05,-2.85427e-08,1.16005e-05,113,109.19,-42.07,1.0833e+07,1e+06,-2.84346e-08,1.73852e-07,-5.70831e-08,0.0033637,0.0403961,2.69971e-05,0.0393337,2,3233
12,7.40621e-22,1,5127,137.15,-4.86761e-06,1.05867e-05,-2.93311e-08,1.16521e-05,113,109.19,-42.07,1.0833e+07,1e+06,-3.05298e-08,1.78789e-07,-5.866e-08,0.00308141,0.0412813,5.11112e-05,0.0402553,2,3234
12,7.40621e-22,1,5128,137.15,-4.89916e-06,1.06406e-05,-3.02537e-08,1.17144e-05,113,109.19,-42.07,1.0833e+07,1e+06,-3.25309e-08,1.84459e-07,-6.04935e-08,0.00287921,0.0423633,8.10399e-05,0.041353,2,3235
12,7.40621e-22,1,5129,137.15,-4.93267e-06,1.07064e-05,-3.13571e-08,1.17881e-05,113,109.19,-42.07,1.0833e+07,1e+06,-3.43824e-08,1.91477e-07,-6.28107e-08,0.00280819,0.0437588,0.000169088,0.042669,2,3236
12,7.40621e-22,1,5130,137.15,-4.96793e-06,1.07893e-05,-3.47408e-08,1.18781e-05,113,109.19,-42.07,1.0833e+07,1e+06,-3.78143e-08,2.02445e-07,-6.96277e-08,0.00221768,0.0453496,-0.000474341,0.0448065,2,3237
12,6.51135e-22,1,5131,137.15,-5.0083e-06,1.0909e-05,-3.72194e-08,1.20038e-05,111.312,109.19,-42.07,8.89556e+06,906250,-5.30936e-08,2.23805e-07,-7.47737e-08,0.00158868,0.0445216,0.000144407,0.0446983,2,3238
12,4.72163e-22,2,5132,35.75,-5.07412e-06,1.10649e-05,-4.63508e-08,1.2173e-05,107.938,-59.17,80.08,5.02069e+06,718750,-7.74946e-08,2.50545e-07,-9.27773e-08,0.000539574,0.0361223,-0.000666317,0.0377098,3,1892
12,3.82677e-22,2,5133,35.75,-5.16329e-06,1.12112e-05,-5.34651e-08,1.23431e-05,106.25,-59.17,80.08,3.08325e+06,625000,-9.0093e-08,2.5716e-07,-1.06247e-07,-0.0010689,0.0287325,-0.00242912,0.0316214,3,1893
12,3.82677e-22,2,5134,35.75,-5.2543e-06,1.13201e-05,-4.83252e-08,1.24802e-05,106.25,-59.17,80.08,3.08325e+06,625000,-8.82737e-08,2.43723e-07,-9.60619e-08,-0.00144149,0.0275491,-0.00151386,0.0300294,3,1894
12,4.42334e-22,2,5135,35.75,-5.33983e-06,1.13919e-05,-4.16325e-08,1.25814e-05,107.375,-59.17,80.08,4.37488e+06,687500,-7.47767e-08,2.15572e-07,-8.30116e-08,-0.00143204,0.0282112,-0.00178447,0.0311821,3,1895
12,5.91478e-22,1,5136,137.15,-5.40386e-06,1.14129e-05,-3.23492e-08,1.26276e-05,110.188,109.19,-42.07,7.60394e+06,843750,-5.50274e-08,1.86347e-07,-6.55773e-08,-0.00117851,0.033495,-0.00138659,0.0361272,2,3239
12,7.10793e-22,1,5137,137.15,-5.44989e-06,1.14031e-05,-2.75104e-08,1.26386e-05,112.438,109.19,-42.07,1.01872e+07,968750,-4.58034e-08,1.81936e-07,-5.54008e-08,-0.000617474,0.0398247,0.000376271,0.0405834,2,3240
12,7.40621e-22,1,5138,137.15,-5.49546e-06,1.14126e-05,-2.94569e-08,1.26668e-05,113,109.19,-42.07,1.0833e+07,1e+06,-4.65596e-08,1.89631e-07,-5.84506e-08,-0.000730226,0.0422389,0.000437657,0.0426022,2,3241
12,7.40621e-22,1,5139,137.15,-5.54301e-06,1.14504e-05,-3.17446e-08,1.27215e-05,113,109.19,-42.07,1.0833e+07,1e+06,-4.84115e-08,1.96415e-07,-6.36097e-08,-0.000988721,0.0428661,-4.38278e-05,0.0434686,2,3242
12,7.40621e-22,1,5140,137.15,-5.59229e-06,1.15093e-05,-3.35396e-08,1.2796e-05,113,109.19,-42.07,1.0833e+07,1e+06,-4.97899e-08,2.02823e-07,-6.70324e-08,-0.00103577,0.0436537,1.2521e-05,0.0442232,2,3243
12,7.40621e-22,1,5141,137.15,-5.64259e-06,1.15935e-05,-3.50962e-08,1.28938e-05,113,109.19,-42.07,1.0833e+07,1e+06,-4.92934e-08,2.05992e-07,-7.00241e-08,-0.000781104,0.0435697,0.000175528,0.0440141,2,3244
12,7.40621e-22,1,5142,137.15,-5.69087e-06,1.1704e-05,-3.59943e-08,1.30143e-05,113,109.19,-42.07,1.0833e+07,1e+06,-4.59836e-08,2.01701e-07,-7.1077e-08,-0.000222298,0.0417538,0.000424658,0.04207,2,3245
12,7.19262e-22,1,5143,137.15,-5.73455e-06,1.1837e-05,-3.63135e-08,1.3153e-05,113.688,109.19,-42.07,1.01872e+07,968750,-3.77308e-08,1.9581e-07,-7.22626e-08,0.000510497,0.0403342,0.00113986,0.0406126,2,3246
12,6.72162e-22,1,5144,137.15,-5.76633e-06,1.19577e-05,-4.22417e-08,1.32755e-05,116.062,109.19,-42.07,8.89556e+06,906250,-1.91205e-08,1.88789e-07,-8.61282e-08,0.000364411,0.0383864,0.000903336,0.0395868,2,3247
12,6.42039e-22,1,5145,9.52003,-5.7728e-06,1.20246e-05,-5.1709e-08,1.33387e-05,118.75,63.66,-15.5,8.24975e+06,875000,2.02437e-09,1.78236e-07,-1.04396e-07,-0.000112653,0.0353305,1.42975e-05,0.0368274,2,3248
12,6.03703e-22,1,5146,9.52004,-5.76229e-06,1.20567e-05,-5.70355e-08,1.33631e-05,119.125,63.66,-15.5,6.95812e+06,812500,9.95748e-09,1.76685e-07,-1.14185e-07,-0.000135717,0.0331684,0.000140275,0.0339741,2,3249
12,5.35793e-22,2,5147,85.61,-5.75288e-06,1.20778e-05,-6.35572e-08,1.3378e-05,117.875,90.62,-39.24,4.37488e+06,687500,8.28625e-09,1.86448e-07,-1.26842e-07,-0.000895388,0.0305385,0.000280933,0.0315298,3,1896
12,5.01838e-22,2,5148,85.61,-5.74571e-06,1.20822e-05,-6.82082e-08,1.3379e-05,117.25,90.62,-39.24,3.08325e+06,625000,6.53353e-09,1.92367e-07,-1.35558e-07,-0.00160803,0.0287324,5.54652e-05,0.029972,3,1897
12,4.94218e-22,2,5149,85.61,-5.73981e-06,1.20668e-05,-6.66282e-08,1.33626e-05,117.625,90.62,-39.24,3.08325e+06,625000,3.90473e-09,1.92697e-07,-1.32894e-07,-0.00142345,0.028796,-3.336e-05,0.0299485,3,1898
12,4.63738e-22,2,5150,85.61,-5.7379e-06,1.20292e-05,-6.45565e-08,1.33277e-05,119.125,90.62,-39.24,3.08325e+06,625000,-4.10777e-10,1.96917e-07,-1.29478e-07,-0.000926598,0.029661,-5.50702e-06,0.0306234,3,1899
12,4.25637e-22,2,5151,94.25,-5.74063e-06,1.19616e-05,-6.74633e-08,1.32679e-05,121,20.61,141.14,3.08325e+06,625000,-3.66192e-09,2.07948e-07,-1.34792e-07,-0.000860423,0.0311097,-0.000449538,0.0321718,3,1900
12,5.69008e-22,1,5152,71.87,-2.88053e-08,9.66623e-06,-2.66292e-08,9.66631e-06,27,-131.18,-164.33,1.0833e+07,1e+06,-5.74335e-08,1.76357e-07,-5.32583e-08,0.00135102,0.0305242,0.000674991,0.0297138,2,3250
12,5.69008e-22,1,5153,71.87,-8.60617e-08,9.72663e-06,-2.84169e-08,9.72705e-06,27,-131.18,-164.33,1.0833e+07,1e+06,-5.68477e-08,1.76449e-07,-5.68368e-08,0.00160283,0.0300838,-0.000574464,0.02967,2,3251
12,5.69008e-22,1,5154,71.87,-1.42501e-07,9.786e-06,-2.70926e-08,9.78707e-06,27,-131.18,-164.33,1.0833e+07,1e+06,-5.54581e-08,1.74889e-07,-5.41861e-08,0.00203975,0.0302755,2.64344e-05,0.0293733,2,3252
12,5.69008e-22,1,5155,71.87,-1.96978e-07,9.84478e-06,-2.67028e-08,9.84678e-06,27,-131.18,-164.33,1.0833e+07,1e+06,-5.27284e-08,1.71824e-07,-5.34077e-08,0.00249471,0.0300416,2.47423e-05,0.0289953,2,3253
12,5.69008e-22,1,5156,71.87,-2.47957e-07,9.90412e-06,-2.62976e-08,9.90726e-06,27,-131.18,-164.33,1.0833e+07,1e+06,-4.88364e-08,1.67567e-07,-5.25968e-08,0.00313391,0.0296239,2.47145e-05,0.0283466,2,3254
12,5.69008e-22,1,5157,71.87,-2.94651e-07,9.96555e-06,-2.59429e-08,9.96994e-06,27,-131.18,-164.33,1.0833e+07,1e+06,-4.44136e-08,1.62718e-07,-5.18871e-08,0.00385936,0.029052,1.16095e-05,0.0274928,2,3255
12,5.69008e-22,1,5158,71.87,-3.36785e-07,1.00313e-05,-2.5747e-08,1.0037e-05,27,-131.18,-164.33,1.0833e+07,1e+06,-4.00435e-08,1.58219e-07,-5.14929e-08,0.00461044,0.0284481,-4.34849e-06,0.0265761,2,3256
12,5.69008e-22,1,5159,71.87,-3.74738e-07,1.01042e-05,-2.58419e-08,1.01112e-05,27,-131.18,-164.33,1.0833e+07,1e+06,-3.63855e-08,1.55214e-07,-5.16798e-08,0.00532108,0.0279833,-1.88825e-05,0.0258202,2,3257
12,5.69008e-22,1,5160,71.87,-4.09556e-07,1.01871e-05,-2.63415e-08,1.01954e-05,27,-131.18,-164.33,1.0833e+07,1e+06,-3.40229e-08,1.54835e-07,-5.26785e-08,0.00594267,0.0278561,-2.52047e-05,0.0254841,2,3258
12,5.69008e-22,1,5161,71.87,-4.42783e-07,1.02825e-05,-2.73101e-08,1.02921e-05,27,-131.18,-164.33,1.0833e+07,1e+06,-3.32795e-08,1.57851e-07,-5.46183e-08,0.00645994,0.0282348,-1.94301e-05,0.0257641,2,3259
12,5.69008e-22,1,5162,71.87,-4.76115e-07,1.03918e-05,-2.8746e-08,1.04028e-05,27,-131.18,-164.33,1.0833e+07,1e+06,-3.41383e-08,1.64379e-07,-5.74924e-08,0.00688511,0.0291851,-9.13357e-06,0.0267045,2,3260
12,5.69008e-22,1,5163,71.87,-5.1106e-07,1.05153e-05,-3.06104e-08,1.05278e-05,27,-131.18,-164.33,1.0833e+07,1e+06,-3.64257e-08,1.74136e-07,-6.12143e-08,0.00723491,0.0306885,-4.59661e-06,0.0282351,2,3261
12,5.69008e-22,1,5164,71.87,-5.48966e-07,1.06529e-05,-3.2863e-08,1.0667e-05,27,-131.18,-164.33,1.0833e+07,1e+06,-4.01202e-08,1.87072e-07,-6.57307e-08,0.00751152,0.0327512,-1.86253e-06,0.0303051,2,3262
12,5.69008e-22,1,5165,71.87,-5.913e-07,1.08042e-05,-3.55615e-08,1.08205e-05,27,-131.18,-164.33,1.0833e+07,1e+06,-4.50649e-08,2.03596e-07,-7.11578e-08,0.00779604,0.035495,1.97846e-05,0.0329652,2,3263
12,5.69008e-22,1,5166,71.87,-6.39096e-07,1.09701e-05,-3.85936e-08,1.09888e-05,27,-131.18,-164.33,1.0833e+07,1e+06,-5.11138e-08,2.23784e-07,-7.7541e-08,0.00813272,0.0389127,0.000110064,0.0361696,2,3264
12,5.65591e-22,1,5167,71.87,-6.93528e-07,1.11557e-05,-4.20698e-08,1.11773e-05,27.9375,-131.18,-164.33,1.0833e+07,1e+06,-5.56145e-08,2.47181e-07,-8.42164e-08,0.00832404,0.0449967,-0.000107719,0.0423235,2,3265
12,5.51927e-22,1,5168,71.87,-7.50325e-07,1.13405e-05,-4.12092e-08,1.13654e-05,31.6875,-131.18,-164.33,1.0833e+07,1e+06,-5.2248e-08,2.52514e-07,-8.14734e-08,0.00725098,0.0524692,-0.000834912,0.0510609,2,3266
12,4.91538e-22,1,5169,125.44,-7.98024e-07,1.14933e-05,-4.04936e-08,1.15211e-05,36.5625,67.45,-41.35,8.89556e+06,906250,-5.63637e-08,2.50596e-07,-8.18412e-08,0.00495292,0.0511702,-0.00163333,0.0517194,2,3267
12,3.84794e-22,2,5170,95.55,-8.63052e-07,1.1562e-05,-5.73862e-08,1.15943e-05,38.5625,20.95,172.44,4.37488e+06,687500,-8.14485e-08,2.88923e-07,-1.14515e-07,0.00393317,0.0386324,-0.000722203,0.038824,3,1901
12,3.14892e-22,2,5171,95.55,-9.60921e-07,1.15152e-05,-7.46413e-08,1.15555e-05,38.25,20.95,172.44,1.14581e+06,531250,-9.81119e-08,3.17916e-07,-1.48365e-07,0.00363287,0.026553,-9.95659e-05,0.0256484,3,1902
12,3.01595e-22,2,5172,95.55,-1.05928e-06,1.14357e-05,-7.76331e-08,1.14849e-05,38,20.95,172.44,500000,500000,-9.50765e-08,3.12815e-07,-1.56055e-07,0.00349784,0.0227393,-0.000453476,0.0215922,3,1903
12,3.01595e-22,2,5173,95.55,-1.15107e-06,1.13783e-05,-7.82253e-08,1.14366e-05,38,20.95,172.44,500000,500000,-9.32756e-08,3.13778e-07,-1.56389e-07,0.00378407,0.0231126,-9.69693e-05,0.0215399,3,1904
12,3.01595e-22,2,5174,95.55,-1.24583e-06,1.13242e-05,-7.85593e-08,1.13928e-05,38,20.95,172.44,500000,500000,-9.65396e-08,3.18309e-07,-1.57175e-07,0.00365334,0.0233609,-1.39733e-05,0.0217786,3,1905
12,3.01595e-22,2,5175,95.55,-1.34415e-06,1.1268e-05,-7.9352e-08,1.13481e-05,38,20.95,172.44,500000,500000,-9.93081e-08,3.23355e-07,-1.58745e-07,0.00359395,0.0236802,2.22117e-05,0.0220958,3,1906
12,3.01595e-22,2,5176,95.55,-1.44444e-06,1.12088e-05,-8.04846e-08,1.13018e-05,38,20.95,172.44,500000,500000,-1.00314e-07,3.27868e-07,-1.61032e-07,0.00368959,0.0240615,5.49336e-05,0.022416,3,1907
12,3.01595e-22,2,5177,95.55,-1.54478e-06,1.11478e-05,-8.20944e-08,1.12546e-05,38,20.95,172.44,500000,500000,-1.0017e-07,3.32154e-07,-1.64365e-07,0.00382561,0.0244341,5.30309e-06,0.0227662,3,1908
12,3.01595e-22,2,5178,95.55,-1.64478e-06,1.10863e-05,-8.4825e-08,1.12079e-05,38,20.95,172.44,500000,500000,-1.03714e-07,3.40062e-07,-1.71115e-07,0.00328325,0.0245789,-0.000594649,0.0234764,3,1909
12,3.01595e-22,2,5179,95.55,-1.75221e-06,1.10239e-05,-9.05956e-08,1.11626e-05,38,20.95,172.44,500000,500000,-1.17055e-07,3.63875e-07,-1.82056e-07,0.0024506,0.0258504,-0.00122901,0.0254636,3,1910
12,3.41459e-22,2,5180,95.55,-1.87889e-06,1.09617e-05,-8.35649e-08,1.11218e-05,39.4375,20.95,172.44,1.14581e+06,531250,-1.24554e-07,3.7209e-07,-1.63869e-07,0.0034038,0.0319488,-0.000199107,0.0311685,3,1911
12,5.12718e-22,2,5181,95.55,-2.00132e-06,1.09307e-05,-5.94084e-08,1.11126e-05,45.125,20.95,172.44,4.37488e+06,687500,-1.00142e-07,3.0417e-07,-1.16546e-07,0.00314819,0.037662,-0.00190888,0.0386043,3,1912
12,7.35644e-22,1,5182,130.6,-2.07918e-06,1.09843e-05,-3.74919e-08,1.11794e-05,52.1875,117.2,-48.36,8.89556e+06,906250,-6.23704e-08,2.22301e-07,-7.69115e-08,0.00326235,0.0390294,-0.00188701,0.0393649,2,3268
12,8.27175e-22,1,5183,130.6,-2.12606e-06,1.10823e-05,-2.98308e-08,1.12845e-05,55,117.2,-48.36,1.0833e+07,1e+06,-4.64677e-08,1.96632e-07,-6.07899e-08,0.00463936,0.0391387,0.000524755,0.0369059,2,3269
12,8.27175e-22,1,5184,130.6,-2.17211e-06,1.11709e-05,-3.04246e-08,1.13802e-05,55,117.2,-48.36,1.0833e+07,1e+06,-4.74233e-08,1.93426e-07,-6.0635e-08,0.00394553,0.0383225,4.86456e-05,0.0366356,2,3270
12,8.27175e-22,1,5185,130.6,-2.22091e-06,1.12597e-05,-2.96653e-08,1.14767e-05,55,117.2,-48.36,1.0833e+07,1e+06,-4.96287e-08,1.91096e-07,-5.94144e-08,0.00311899,0.0375425,1.1846e-05,0.036208,2,3271
12,8.27175e-22,1,5186,130.6,-2.27137e-06,1.13488e-05,-2.92942e-08,1.15739e-05,55,117.2,-48.36,1.0833e+07,1e+06,-5.11492e-08,1.89593e-07,-5.86013e-08,0.0025588,0.0370109,7.87163e-06,0.0358993,2,3272
12,8.27175e-22,1,5187,130.6,-2.3232e-06,1.144e-05,-2.89549e-08,1.16736e-05,55,117.2,-48.36,1.0833e+07,1e+06,-5.21997e-08,1.88182e-07,-5.78957e-08,0.0021499,0.0365242,3.33688e-05,0.0355508,2,3273
12,8.27175e-22,1,5188,130.6,-2.37577e-06,1.15347e-05,-2.84755e-08,1.17768e-05,55,117.2,-48.36,1.0833e+07,1e+06,-5.21033e-08,1.85487e-07,-5.6954e-08,0.00196247,0.0358399,8.35872e-05,0.0348929,2,3274
12,8.27175e-22,1,5189,130.6,-2.42741e-06,1.16325e-05,-2.76707e-08,1.18831e-05,55,117.2,-48.36,1.0833e+07,1e+06,-5.03352e-08,1.80061e-07,-5.54487e-08,0.00200748,0.034697,0.000114439,0.0336914,2,3275
12,8.27175e-22,1,5190,130.6,-2.47644e-06,1.1732e-05,-2.69378e-08,1.19905e-05,55,117.2,-48.36,1.0833e+07,1e+06,-4.80853e-08,1.73482e-07,-5.40635e-08,0.00208712,0.0332348,3.77261e-05,0.032255,2,3276
12,7.30115e-22,1,5191,130.6,-2.52358e-06,1.18388e-05,-2.76985e-08,1.21049e-05,57.25,117.2,-48.36,8.89556e+06,906250,-5.28493e-08,1.72207e-07,-5.56609e-08,0.0017022,0.029749,-0.000654046,0.0299841,2,3277
12,5.0364e-22,2,5192,119,-2.58214e-06,1.18959e-05,-3.66086e-08,1.21729e-05,62.5,105.96,84.4,4.37488e+06,687500,-6.69857e-08,2.00187e-07,-7.2654e-08,0.00241455,0.0252527,-0.000703596,0.0257009,3,1913
12,3.41873e-22,2,5193,119,-2.65755e-06,1.18487e-05,-4.63681e-08,1.21432e-05,66.25,105.96,84.4,1.14581e+06,531250,-7.786e-08,2.28577e-07,-9.23331e-08,0.00318681,0.0215527,-0.000143081,0.0207245,3,1914
12,3.0952e-22,2,5194,119,-2.73786e-06,1.176e-05,-4.9005e-08,1.20746e-05,67,105.96,84.4,500000,500000,-8.12881e-08,2.3497e-07,-9.83448e-08,0.00299042,0.0202688,-0.000128433,0.0190417,3,1915
12,3.0952e-22,2,5195,119,-2.82013e-06,1.16807e-05,-5.01909e-08,1.20165e-05,67,105.96,84.4,500000,500000,-8.3874e-08,2.42926e-07,-1.0046e-07,0.00315897,0.0213778,-4.47929e-05,0.0200612,3,1916
12,3.0952e-22,2,5196,119,-2.90561e-06,1.16078e-05,-5.1016e-08,1.19661e-05,67,105.96,84.4,500000,500000,-8.58623e-08,2.48854e-07,-1.02053e-07,0.00331521,0.0221202,3.70335e-05,0.0207384,3,1917
12,3.0952e-22,2,5197,119,-2.99185e-06,1.1542e-05,-5.18649e-08,1.19236e-05,67,105.96,84.4,500000,500000,-8.67824e-08,2.53907e-07,-1.03568e-07,0.00362168,0.0228262,0.00011869,0.0213264,3,1918
12,3.0952e-22,2,5198,119,-3.07917e-06,1.14826e-05,-5.31585e-08,1.18884e-05,67,105.96,84.4,500000,500000,-8.87312e-08,2.62614e-07,-1.06295e-07,0.00401622,0.0239217,0.000314154,0.0221977,3,1919
12,3.0952e-22,2,5199,119,-3.16932e-06,1.14227e-05,-5.43939e-08,1.18544e-05,67,105.96,84.4,500000,500000,-9.08988e-08,2.6999e-07,-1.09159e-07,0.00418741,0.0246773,0.000367351,0.0228619,3,1920
12,3.38591e-22,2,5200,119,-3.26097e-06,1.13619e-05,-5.49081e-08,1.18207e-05,67.875,105.96,84.4,1.14581e+06,531250,-8.99449e-08,2.69154e-07,-1.10176e-07,0.00405236,0.0252366,-0.000227449,0.0241101,3,1921
12,3.96733e-22,2,5201,119,-3.34921e-06,1.13083e-05,-5.7082e-08,1.1794e-05,69.625,105.96,84.4,2.43744e+06,593750,-8.51375e-08,2.70254e-07,-1.13849e-07,0.00460206,0.0267383,-0.00108361,0.0262293,3,1922
12,4.25804e-22,2,5202,119,-3.43124e-06,1.12492e-05,-5.99084e-08,1.1761e-05,70.5,105.96,84.4,3.08325e+06,625000,-7.83305e-08,2.74655e-07,-1.19131e-07,0.00610463,0.0281884,-0.00135432,0.0273595,3,1923
12,4.83946e-22,2,5203,119,-3.50587e-06,1.11694e-05,-5.94802e-08,1.17068e-05,72.25,105.96,84.4,4.37488e+06,687500,-7.02712e-08,2.73911e-07,-1.18475e-07,0.00793429,0.0308221,-0.00105917,0.0295602,3,1924
12,6.29302e-22,1,5204,91.26,-3.57179e-06,1.10897e-05,-5.6451e-08,1.16509e-05,76.625,-49.63,-179.82,7.60394e+06,843750,-6.54131e-08,2.7536e-07,-1.13419e-07,0.00958756,0.0360407,-0.000173228,0.0334989,2,3278
12,7.45586e-22,1,5205,91.26,-3.63669e-06,1.10332e-05,-5.42546e-08,1.16172e-05,80.125,-49.63,-179.82,1.01872e+07,968750,-6.77888e-08,2.79766e-07,-1.09358e-07,0.00980221,0.0397049,0.000783023,0.03567,2,3279
12,7.74657e-22,1,5206,91.26,-3.70736e-06,1.10056e-05,-5.2824e-08,1.16134e-05,81,-49.63,-179.82,1.0833e+07,1e+06,-7.05129e-08,2.74206e-07,-1.0557e-07,0.00863271,0.0391304,0.000876308,0.0353328,2,3280
12,7.74657e-22,1,5207,91.26,-3.77772e-06,1.10029e-05,-5.02815e-08,1.16335e-05,81,-49.63,-179.82,1.0833e+07,1e+06,-6.8303e-08,2.58438e-07,-1.00292e-07,0.00754481,0.0365285,0.000462085,0.0336757,2,3281
12,7.74657e-22,1,5208,91.26,-3.84397e-06,1.10085e-05,-4.79423e-08,1.16604e-05,81,-49.63,-179.82,1.0833e+07,1e+06,-6.63318e-08,2.45321e-07,-9.56999e-08,0.00669076,0.0344054,0.000190274,0.0320245,2,3282
12,7.74657e-22,1,5209,91.26,-3.91038e-06,1.10086e-05,-4.65029e-08,1.16826e-05,81,-49.63,-179.82,1.0833e+07,1e+06,-6.74281e-08,2.38584e-07,-9.34381e-08,0.00562529,0.0330221,-0.000123015,0.0310138,2,3283
12,7.74657e-22,1,5210,91.26,-3.97882e-06,1.10006e-05,-4.57416e-08,1.16982e-05,81,-49.63,-179.82,1.0833e+07,1e+06,-6.93646e-08,2.32779e-07,-9.13993e-08,0.00443743,0.0317135,-0.000453117,0.0302435,2,3284
12,7.74657e-22,1,5211,91.26,-4.04911e-06,1.09875e-05,-4.51227e-08,1.171e-05,81,-49.63,-179.82,1.0833e+07,1e+06,-7.25523e-08,2.30279e-07,-8.94782e-08,0.00333649,0.0309753,-0.000481308,0.0298877,2,3285
12,7.74657e-22,1,5212,91.26,-4.12393e-06,1.09728e-05,-4.45743e-08,1.17222e-05,81,-49.63,-179.82,1.0833e+07,1e+06,-7.79609e-08,2.34276e-07,-8.94246e-08,0.00230257,0.0311756,-0.000320573,0.030332,2,3286
12,7.74657e-22,1,5213,91.26,-4.20503e-06,1.09567e-05,-4.46132e-08,1.1736e-05,81,-49.63,-179.82,1.0833e+07,1e+06,-8.31734e-08,2.39116e-07,-8.95441e-08,0.00140248,0.0315726,-6.12516e-05,0.0309526,2,3287
12,7.74657e-22,1,5214,91.26,-4.29028e-06,1.09368e-05,-4.45425e-08,1.17483e-05,81,-49.63,-179.82,1.0833e+07,1e+06,-8.54974e-08,2.40229e-07,-8.9006e-08,0.000900819,0.0315916,8.77748e-05,0.0311668,2,3288
12,7.74657e-22,1,5215,91.26,-4.37603e-06,1.09121e-05,-4.37908e-08,1.1757e-05,81,-49.63,-179.82,1.0833e+07,1e+06,-8.44109e-08,2.36345e-07,-8.77986e-08,0.000782449,0.0310143,-4.93252e-06,0.0308616,2,3289
12,7.74657e-22,1,5216,91.26,-4.4591e-06,1.08836e-05,-4.22519e-08,1.17617e-05,81,-49.63,-179.82,1.0833e+07,1e+06,-7.99747e-08,2.27122e-07,-8.43635e-08,0.0011116,0.0299605,4.96475e-05,0.0299247,2,3290
12,7.68275e-22,1,5217,91.26,-4.53598e-06,1.08496e-05,-3.79542e-08,1.17597e-05,87,-49.63,-179.82,1.0833e+07,1e+06,-6.45155e-08,2.0596e-07,-7.52407e-08,0.00189383,0.0312829,-0.000359498,0.0317325,2,3291
12,7.53385e-22,1,5218,137.15,-4.58813e-06,1.08072e-05,-2.9516e-08,1.17408e-05,101,109.19,-42.07,1.0833e+07,1e+06,-3.89263e-08,1.78996e-07,-5.93542e-08,0.00369573,0.0364705,-0.000155577,0.0368183,2,3292
12,7.42749e-22,1,5219,137.15,-4.61383e-06,1.07484e-05,-2.43359e-08,1.16969e-05,111,109.19,-42.07,1.0833e+07,1e+06,-2.40602e-08,1.66926e-07,-4.93656e-08,0.0050363,0.0407806,0.000530977,0.0405581,2,3293
12,7.40621e-22,1,5220,137.15,-4.63625e-06,1.06902e-05,-2.51837e-08,1.16523e-05,113,109.19,-42.07,1.0833e+07,1e+06,-2.39776e-08,1.68272e-07,-5.02012e-08,0.00461484,0.0416921,0.000334593,0.0414238,2,3294
12,7.40621e-22,1,5221,137.15,-4.66179e-06,1.06551e-05,-2.62559e-08,1.16303e-05,113,109.19,-42.07,1.0833e+07,1e+06,-2.56363e-08,1.68698e-07,-5.22759e-08,0.0040216,0.0408763,0.000104563,0.040404,2,3295
12,7.40621e-22,1,5222,137.15,-4.68752e-06,1.06378e-05,-2.6451e-08,1.16248e-05,113,109.19,-42.07,1.0833e+07,1e+06,-2.5668e-08,1.66313e-07,-5.28915e-08,0.00377034,0.0397423,-1.33831e-05,0.0390873,2,3296
12,7.40621e-22,1,5223,137.15,-4.71312e-06,1.06328e-05,-2.65628e-08,1.16306e-05,113,109.19,-42.07,1.0833e+07,1e+06,-2.59105e-08,1.65108e-07,-5.31152e-08,0.00358363,0.0391058,-1.87434e-05,0.0383253,2,3297
12,7.40621e-22,1,5224,137.15,-4.73934e-06,1.06383e-05,-2.67727e-08,1.16462e-05,113,109.19,-42.07,1.0833e+07,1e+06,-2.68913e-08,1.65466e-07,-5.35408e-08,0.00329938,0.0388662,-1.48564e-05,0.038054,2,3298
12,7.40621e-22,1,5225,137.15,-4.7669e-06,1.06541e-05,-2.71547e-08,1.16719e-05,113,109.19,-42.07,1.0833e+07,1e+06,-2.85442e-08,1.67388e-07,-5.43071e-08,0.00293082,0.0389835,-9.90757e-06,0.0382047,2,3299
12,7.40621e-22,1,5226,137.15,-4.79643e-06,1.06805e-05,-2.76979e-08,1.17081e-05,113,109.19,-42.07,1.0833e+07,1e+06,-3.07654e-08,1.70719e-07,-5.53932e-08,0.00249737,0.0394223,-3.54745e-06,0.0387308,2,3300
12,7.40621e-22,1,5227,137.15,-4.82844e-06,1.07178e-05,-2.83612e-08,1.17552e-05,113,109.19,-42.07,1.0833e+07,1e+06,-3.34421e-08,1.75202e-07,-5.67187e-08,0.00201565,0.0401341,5.09992e-06,0.0395775,2,3301
12,7.40621e-22,1,5228,137.15,-4.86332e-06,1.07661e-05,-2.9099e-08,1.18136e-05,113,109.19,-42.07,1.0833e+07,1e+06,-3.6501e-08,1.80559e-07,-5.81932e-08,0.00148904,0.0410582,1.57534e-05,0.0406829,2,3302
12,7.40621e-22,1,5229,137.15,-4.90144e-06,1.08259e-05,-2.9917e-08,1.18838e-05,113,109.19,-42.07,1.0833e+07,1e+06,-4.00448e-08,1.86683e-07,-5.98481e-08,0.000874118,0.0421357,1.15704e-05,0.0420109,2,3303
12,7.40621e-22,1,5230,137.15,-4.94341e-06,1.0899e-05,-3.09796e-08,1.19677e-05,113,109.19,-42.07,1.0833e+07,1e+06,-4.45238e-08,1.94059e-07,-6.18731e-08,6.71304e-05,0.0433617,2.51366e-05,0.0435655,2,3304
12,7.40621e-22,1,5231,137.15,-4.99048e-06,1.09923e-05,-3.27982e-08,1.20722e-05,113,109.19,-42.07,1.0833e+07,1e+06,-5.01424e-08,2.03163e-07,-6.57457e-08,-0.00106639,0.0444257,-9.74827e-05,0.0452011,2,3305
12,7.10793e-22,1,5232,137.15,-5.04369e-06,1.11243e-05,-3.36711e-08,1.22144e-05,112.438,109.19,-42.07,1.01872e+07,968750,-5.67191e-08,2.06807e-07,-6.67716e-08,-0.00199382,0.0426389,0.000139495,0.0441473,2,3306
12,6.51135e-22,1,5233,137.15,-5.10392e-06,1.12877e-05,-3.37734e-08,1.2388e-05,111.312,109.19,-42.07,8.89556e+06,906250,-6.20858e-08,1.98562e-07,-6.7385e-08,-0.0028574,0.0359815,-0.000459982,0.0389312,2,3307
12,6.21306e-22,1,5234,137.15,-5.16786e-06,1.14306e-05,-3.22159e-08,1.25446e-05,110.75,109.19,-42.07,8.24975e+06,875000,-6.37856e-08,1.86374e-07,-6.51234e-08,-0.00364912,0.0310107,-0.00100556,0.0348005,2,3308
12,6.21306e-22,1,5235,137.15,-5.23149e-06,1.15275e-05,-2.83941e-08,1.26591e-05,110.75,109.19,-42.07,8.24975e+06,875000,-6.22084e-08,1.74909e-07,-5.6499e-08,-0.0037711,0.0298,-0.000318609,0.033128,2,3309
12,6.51135e-22,1,5236,137.15,-5.29228e-06,1.15745e-05,-2.40847e-08,1.27271e-05,111.312,109.19,-42.07,8.89556e+06,906250,-5.69115e-08,1.62438e-07,-4.85542e-08,-0.00365436,0.0305961,-6.12787e-05,0.0335836,2,3310
12,7.10793e-22,1,5237,137.15,-5.34532e-06,1.15787e-05,-2.16321e-08,1.2753e-05,112.438,109.19,-42.07,1.01872e+07,968750,-5.13225e-08,1.61992e-07,-4.41115e-08,-0.00307713,0.0350399,0.000757649,0.0369036,2,3311
12,7.40621e-22,1,5238,137.15,-5.39492e-06,1.15799e-05,-2.47306e-08,1.2775e-05,113,109.19,-42.07,1.0833e+07,1e+06,-5.07783e-08,1.76351e-07,-4.89923e-08,-0.00252614,0.0394998,0.000986969,0.040631,2,3312
12,7.40621e-22,1,5239,137.15,-5.44687e-06,1.16024e-05,-2.87833e-08,1.28174e-05,113,109.19,-42.07,1.0833e+07,1e+06,-5.23484e-08,1.88173e-07,-5.70277e-08,-0.00248673,0.0413654,0.000180547,0.0427689,2,3313
12,7.40621e-22,1,5240,137.15,-5.49962e-06,1.16462e-05,-3.06318e-08,1.28795e-05,113,109.19,-42.07,1.0833e+07,1e+06,-5.28655e-08,1.94171e-07,-6.13108e-08,-0.00236992,0.0420472,-2.42176e-05,0.0433676,2,3314
12,7.40621e-22,1,5241,137.15,-5.5526e-06,1.17101e-05,-3.21929e-08,1.29599e-05,113,109.19,-42.07,1.0833e+07,1e+06,-5.2908e-08,1.98312e-07,-6.43289e-08,-0.00220121,0.0423676,2.21399e-05,0.0435371,2,3315
12,7.40621e-22,1,5242,137.15,-5.60544e-06,1.17952e-05,-3.32047e-08,1.30594e-05,113,109.19,-42.07,1.0833e+07,1e+06,-5.19197e-08,1.9859e-07,-6.65404e-08,-0.00202954,0.0417224,2.74436e-05,0.0428663,2,3316
12,7.40621e-22,1,5243,137.15,-5.65644e-06,1.19011e-05,-3.42096e-08,1.3177e-05,113,109.19,-42.07,1.0833e+07,1e+06,-4.87339e-08,1.9433e-07,-6.79831e-08,-0.00159632,0.0401164,-4.73663e-05,0.0412828,2,3317
12,7.34049e-22,1,5244,137.15,-5.7029e-06,1.20259e-05,-3.31878e-08,1.33096e-05,114.5,109.19,-42.07,1.0833e+07,1e+06,-3.71011e-08,1.84507e-07,-6.60178e-08,-0.000518256,0.0395169,0.00134503,0.0400371,2,3318
12,7.18713e-22,1,5245,9.52003,-5.73065e-06,1.21287e-05,-3.65542e-08,1.34145e-05,118,63.66,-15.5,1.0833e+07,1e+06,-1.66711e-08,1.68007e-07,-7.37123e-08,-0.000751811,0.0379001,0.00132945,0.0389261,2,3319
12,7.07758e-22,1,5246,9.52003,-5.73625e-06,1.21809e-05,-4.3793e-08,1.34641e-05,120.5,63.66,-15.5,1.0833e+07,1e+06,-1.12106e-09,1.56358e-07,-8.76843e-08,-0.00155936,0.0353412,-0.000296433,0.0372121,2,3320
12,6.8859e-22,1,5247,9.52003,-5.73289e-06,1.22141e-05,-4.56856e-08,1.34927e-05,120.688,63.66,-15.5,1.01872e+07,968750,4.27225e-09,1.53674e-07,-9.08448e-08,-0.000917502,0.0338899,-0.000134449,0.035078,2,3321
12,6.54635e-22,1,5248,9.52003,-5.7277e-06,1.22442e-05,-4.56924e-08,1.35177e-05,120.062,63.66,-15.5,8.89556e+06,906250,4.57885e-09,1.53705e-07,-9.1567e-08,-0.000484252,0.0318537,0.000271291,0.0325886,2,3322
12,6.37658e-22,1,5249,9.52003,-5.72373e-06,1.22546e-05,-4.5908e-08,1.35254e-05,119.75,63.66,-15.5,8.24975e+06,875000,3.50629e-09,1.54674e-07,-9.23721e-08,-0.000465214,0.0306925,0.0003968,0.0311837,2,3323
12,6.37658e-22,1,5250,9.52003,-5.72069e-06,1.22396e-05,-4.58008e-08,1.35106e-05,119.75,63.66,-15.5,8.24975e+06,875000,2.69297e-09,1.55303e-07,-9.15342e-08,-0.000335166,0.0307699,0.000496974,0.0309665,2,3324
12,6.30038e-22,1,5251,9.52003,-5.71834e-06,1.22052e-05,-4.56202e-08,1.34784e-05,120.125,63.66,-15.5,8.24975e+06,875000,1.86625e-09,1.57934e-07,-9.11803e-08,-3.47241e-05,0.0313194,0.000621182,0.0312645,2,3325
12,6.14797e-22,1,5252,9.52003,-5.71696e-06,1.2149e-05,-4.78454e-08,1.3427e-05,120.875,63.66,-15.5,8.24975e+06,875000,1.08457e-09,1.67789e-07,-9.56243e-08,0.000199945,0.033294,0.000637119,0.0331578,2,3326
12,5.69008e-22,1,5253,71.87,-3.16954e-08,9.84504e-06,-2.68639e-08,9.84513e-06,27,-131.18,-164.33,1.0833e+07,1e+06,-6.32032e-08,1.81698e-07,-5.37287e-08,0.0002817,0.031111,0.000711901,0.0308372,2,3327
12,5.69008e-22,1,5254,71.87,-9.47109e-08,9.90545e-06,-2.86977e-08,9.90594e-06,27,-131.18,-164.33,1.0833e+07,1e+06,-6.25688e-08,1.81625e-07,-5.73957e-08,0.000536947,0.0306408,-0.000612766,0.0307605,2,3328
12,5.69008e-22,1,5255,71.87,-1.56833e-07,9.96295e-06,-2.71504e-08,9.96422e-06,27,-131.18,-164.33,1.0833e+07,1e+06,-6.10546e-08,1.79437e-07,-5.43017e-08,0.000957182,0.0307824,2.53027e-05,0.0304374,2,3329
12,5.69008e-22,1,5256,71.87,-2.1682e-07,1.00181e-05,-2.65336e-08,1.00205e-05,27,-131.18,-164.33,1.0833e+07,1e+06,-5.80929e-08,1.75303e-07,-5.3069e-08,0.00136981,0.0303999,2.48024e-05,0.0299576,2,3330
12,5.69008e-22,1,5257,71.87,-2.73019e-07,1.00724e-05,-2.58436e-08,1.00762e-05,27,-131.18,-164.33,1.0833e+07,1e+06,-5.38299e-08,1.69575e-07,-5.16911e-08,0.00196532,0.0297567,2.91294e-05,0.0291168,2,3331
12,5.69008e-22,1,5258,71.87,-3.2448e-07,1.01281e-05,-2.51722e-08,1.01333e-05,27,-131.18,-164.33,1.0833e+07,1e+06,-4.88926e-08,1.62877e-07,-5.03505e-08,0.0026483,0.0288807,1.38796e-05,0.02797,2,3332
12,5.69008e-22,1,5259,71.87,-3.70804e-07,1.01884e-05,-2.46707e-08,1.01952e-05,27,-131.18,-164.33,1.0833e+07,1e+06,-4.3968e-08,1.56394e-07,-4.93442e-08,0.00335429,0.0279261,-1.08881e-05,0.0266803,2,3333
12,5.69008e-22,1,5260,71.87,-4.12416e-07,1.02576e-05,-2.4535e-08,1.02659e-05,27,-131.18,-164.33,1.0833e+07,1e+06,-3.98965e-08,1.51793e-07,-4.90637e-08,0.00402213,0.0271534,-2.93503e-05,0.0255563,2,3334
12,5.69008e-22,1,5261,71.87,-4.50597e-07,1.03397e-05,-2.4936e-08,1.03496e-05,27,-131.18,-164.33,1.0833e+07,1e+06,-3.74037e-08,1.50713e-07,-4.9864e-08,0.00461416,0.0268651,-2.94391e-05,0.024981,2,3335
12,5.69008e-22,1,5262,71.87,-4.87223e-07,1.04382e-05,-2.59478e-08,1.04496e-05,27,-131.18,-164.33,1.0833e+07,1e+06,-3.68145e-08,1.53991e-07,-5.18977e-08,0.00511743,0.0272578,-1.67927e-05,0.0252079,2,3336
12,5.69008e-22,1,5263,71.87,-5.24226e-07,1.05545e-05,-2.75216e-08,1.05675e-05,27,-131.18,-164.33,1.0833e+07,1e+06,-3.80243e-08,1.61294e-07,-5.50397e-08,0.00552207,0.0283107,-1.12598e-05,0.0262188,2,3337
12,5.69008e-22,1,5264,71.87,-5.63272e-07,1.06883e-05,-2.95604e-08,1.07032e-05,27,-131.18,-164.33,1.0833e+07,1e+06,-4.0829e-08,1.72086e-07,-5.91077e-08,0.00583251,0.0299455,-1.40955e-05,0.027886,2,3338
12,5.69008e-22,1,5265,71.87,-6.05884e-07,1.08395e-05,-3.20185e-08,1.08564e-05,27,-131.18,-164.33,1.0833e+07,1e+06,-4.53521e-08,1.86362e-07,-6.40485e-08,0.00601516,0.0321569,-2.26917e-05,0.0301632,2,3339
12,5.69008e-22,1,5266,71.87,-6.53976e-07,1.10084e-05,-3.48222e-08,1.10279e-05,27,-131.18,-164.33,1.0833e+07,1e+06,-5.2599e-08,2.0443e-07,-6.9568e-08,0.00582088,0.0349385,1.83667e-05,0.0330509,2,3340
12,5.69008e-22,1,5267,71.87,-7.11082e-07,1.11954e-05,-3.73753e-08,1.1218e-05,27,-131.18,-164.33,1.0833e+07,1e+06,-6.0868e-08,2.2689e-07,-7.4873e-08,0.00581718,0.0388298,0.000535368,0.0365789,2,3341
12,5.58759e-22,1,5268,71.87,-7.75712e-07,1.13983e-05,-3.74912e-08,1.14247e-05,29.8125,-131.18,-164.33,1.0833e+07,1e+06,-5.79989e-08,2.34725e-07,-7.42973e-08,0.00536583,0.0453031,0.000104516,0.0438744,2,3342
12,5.34846e-22,1,5269,125.44,-8.2708e-07,1.15709e-05,-2.89701e-08,1.16004e-05,36.375,67.45,-41.35,1.0833e+07,1e+06,-4.19323e-08,2.13467e-07,-5.71977e-08,0.0049639,0.0515592,0.000153383,0.0507262,2,3343
12,5.04468e-22,1,5270,125.44,-8.59576e-07,1.17067e-05,-2.06921e-08,1.17382e-05,40.8125,67.45,-41.35,1.01872e+07,968750,-3.44302e-08,1.9595e-07,-4.21291e-08,0.00527722,0.0518608,0.00137041,0.0501215,2,3344
12,4.34566e-22,1,5271,125.44,-8.9594e-07,1.18131e-05,-3.17399e-08,1.18471e-05,40.5,67.45,-41.35,6.95812e+06,812500,-5.31555e-08,2.23931e-07,-6.50904e-08,0.00498224,0.0435849,0.000957791,0.0421423,2,3345
12,3.41487e-22,2,5272,95.55,-9.65887e-07,1.18155e-05,-5.9048e-08,1.18551e-05,38.75,20.95,172.44,2.43744e+06,593750,-8.51638e-08,2.82027e-07,-1.18408e-07,0.00397139,0.0300084,0.000266894,0.0288748,3,1925
12,3.01595e-22,2,5273,95.55,-1.06627e-06,1.17502e-05,-7.60211e-08,1.17987e-05,38,20.95,172.44,500000,500000,-1.01719e-07,3.15495e-07,-1.51079e-07,0.00311234,0.0230246,7.02725e-05,0.0217201,3,1926
12,3.01595e-22,2,5274,95.55,-1.16933e-06,1.16952e-05,-7.79662e-08,1.17537e-05,38,20.95,172.44,500000,500000,-1.01417e-07,3.1983e-07,-1.55676e-07,0.0031099,0.023237,-0.000122575,0.0219333,3,1927
12,3.01595e-22,2,5275,95.55,-1.2691e-06,1.16437e-05,-7.88088e-08,1.17129e-05,38,20.95,172.44,500000,500000,-9.88867e-08,3.20421e-07,-1.5759e-07,0.00343632,0.0233817,-8.90496e-05,0.0219282,3,1928
12,3.01595e-22,2,5276,95.55,-1.3671e-06,1.15906e-05,-7.94841e-08,1.16712e-05,38,20.95,172.44,500000,500000,-9.79832e-08,3.21969e-07,-1.58958e-07,0.00365202,0.0235729,-4.33313e-05,0.02201,3,1929
12,3.01595e-22,2,5277,95.55,-1.46507e-06,1.15351e-05,-8.03077e-08,1.1628e-05,38,20.95,172.44,500000,500000,-9.84862e-08,3.24836e-07,-1.60602e-07,0.00371037,0.0238117,-3.91052e-05,0.0222192,3,1930
12,3.01595e-22,2,5278,95.55,-1.56407e-06,1.14781e-05,-8.14913e-08,1.15845e-05,38,20.95,172.44,500000,500000,-9.97019e-08,3.28844e-07,-1.62824e-07,0.00366544,0.0241212,-6.54614e-05,0.0225603,3,1931
12,3.01595e-22,2,5279,95.55,-1.66447e-06,1.14246e-05,-8.3481e-08,1.15455e-05,38,20.95,172.44,500000,500000,-1.03188e-07,3.33814e-07,-1.68226e-07,0.00284938,0.024046,-0.000812079,0.0233197,3,1932
12,3.08611e-22,2,5280,95.55,-1.77045e-06,1.13849e-05,-8.28433e-08,1.1522e-05,38.375,20.95,172.44,500000,500000,-1.14559e-07,3.43942e-07,-1.64452e-07,0.00191042,0.026253,-0.00102187,0.0263654,3,1933
12,3.36671e-22,2,5281,95.55,-1.89359e-06,1.13387e-05,-6.18815e-08,1.14959e-05,39.875,20.95,172.44,500000,500000,-1.24279e-07,3.42048e-07,-1.23756e-07,0.00390016,0.0339213,0.00147624,0.0322681,3,1934
12,4.56263e-22,2,5282,44.42,-2.01901e-06,1.12491e-05,-4.25125e-08,1.14289e-05,44.1875,-34.07,-165.31,2.43744e+06,593750,-1.05318e-07,2.98669e-07,-8.49312e-08,0.00529019,0.041506,0.000240877,0.0403986,3,1935
12,6.65159e-22,1,5283,130.6,-2.10423e-06,1.1211e-05,-3.50446e-08,1.14068e-05,50.5,117.2,-48.36,6.95812e+06,812500,-6.85241e-08,2.30159e-07,-6.94061e-08,0.0036967,0.0411099,-0.00159601,0.0415475,2,3346
12,8.01341e-22,1,5284,130.6,-2.15605e-06,1.12765e-05,-2.92114e-08,1.14808e-05,54.3125,117.2,-48.36,1.01872e+07,968750,-5.03514e-08,1.95718e-07,-5.9742e-08,0.00336592,0.0385272,0.000227428,0.0373047,2,3347
12,8.27175e-22,1,5285,130.6,-2.20493e-06,1.13647e-05,-3.01995e-08,1.15766e-05,55,117.2,-48.36,1.0833e+07,1e+06,-4.90627e-08,1.93553e-07,-5.98627e-08,0.00355622,0.0380834,0.000309816,0.0363356,2,3348
12,8.27175e-22,1,5286,130.6,-2.25418e-06,1.14506e-05,-2.9786e-08,1.16704e-05,55,117.2,-48.36,1.0833e+07,1e+06,-4.98294e-08,1.90834e-07,-5.97083e-08,0.00305293,0.0372608,-1.55693e-05,0.0359066,2,3349
12,8.27175e-22,1,5287,130.6,-2.30459e-06,1.15381e-05,-2.94671e-08,1.17661e-05,55,117.2,-48.36,1.0833e+07,1e+06,-5.12484e-08,1.89585e-07,-5.88946e-08,0.00255581,0.036812,1.15508e-05,0.035649,2,3350
12,8.27175e-22,1,5288,130.6,-2.35668e-06,1.16278e-05,-2.89912e-08,1.18643e-05,55,117.2,-48.36,1.0833e+07,1e+06,-5.25644e-08,1.8783e-07,-5.79872e-08,0.002033,0.0362552,1.84428e-05,0.0353105,2,3351
12,8.27175e-22,1,5289,130.6,-2.40972e-06,1.17193e-05,-2.83729e-08,1.19645e-05,55,117.2,-48.36,1.0833e+07,1e+06,-5.30207e-08,1.84696e-07,-5.67796e-08,0.00162834,0.0354765,2.06241e-05,0.0347059,2,3352
12,8.27175e-22,1,5290,130.6,-2.46272e-06,1.18119e-05,-2.76075e-08,1.20659e-05,55,117.2,-48.36,1.0833e+07,1e+06,-5.28367e-08,1.79843e-07,-5.51437e-08,0.00124562,0.0343803,-3.66719e-06,0.033794,2,3353
12,8.27175e-22,1,5291,130.6,-2.51539e-06,1.19061e-05,-2.63199e-08,1.21689e-05,55,117.2,-48.36,1.0833e+07,1e+06,-5.18194e-08,1.74029e-07,-5.25949e-08,0.00110101,0.0331732,0.000233325,0.0325201,2,3354
12,7.94821e-22,1,5292,130.6,-2.56636e-06,1.20054e-05,-2.53069e-08,1.22766e-05,55.75,117.2,-48.36,1.01872e+07,968750,-4.98207e-08,1.62652e-07,-5.05584e-08,0.000910058,0.029883,-0.000248208,0.029897,2,3355
12,6.33054e-22,1,5293,130.6,-2.61503e-06,1.20812e-05,-2.83457e-08,1.2361e-05,59.5,117.2,-48.36,6.95812e+06,812500,-5.50997e-08,1.71305e-07,-5.6885e-08,0.00191106,0.02613,-0.000403926,0.0265516,2,3356
12,4.0658e-22,2,5294,119,-2.67656e-06,1.2065e-05,-3.70006e-08,1.23583e-05,64.75,105.96,84.4,2.43744e+06,593750,-7.02127e-08,2.02387e-07,-7.41811e-08,0.00293869,0.0218962,0.000415715,0.0211426,3,1936
12,3.0952e-22,2,5295,119,-2.75546e-06,1.19894e-05,-4.39454e-08,1.2302e-05,67,105.96,84.4,500000,500000,-8.19149e-08,2.23859e-07,-8.77387e-08,0.00265555,0.0194745,0.000527841,0.0180285,3,1937
12,3.0952e-22,2,5296,119,-2.84039e-06,1.19212e-05,-4.61843e-08,1.2255e-05,67,105.96,84.4,500000,500000,-8.69301e-08,2.36006e-07,-9.22258e-08,0.00261263,0.020733,0.00041786,0.0193348,3,1938
12,3.0952e-22,2,5297,119,-2.92932e-06,1.18553e-05,-4.71201e-08,1.22119e-05,67,105.96,84.4,500000,500000,-9.04583e-08,2.43059e-07,-9.44367e-08,0.00252975,0.0214221,0.000360564,0.0201368,3,1939
12,3.38591e-22,2,5298,119,-3.0213e-06,1.17936e-05,-4.73965e-08,1.21746e-05,67.875,105.96,84.4,1.14581e+06,531250,-9.1006e-08,2.43716e-07,-9.51938e-08,0.00222007,0.0221147,-0.000130437,0.0215527,3,1940
12,3.96733e-22,2,5299,119,-3.11133e-06,1.17427e-05,-4.9397e-08,1.2148e-05,69.625,105.96,84.4,2.43744e+06,593750,-8.72874e-08,2.44735e-07,-9.85346e-08,0.00242907,0.0234433,-0.000916954,0.0235245,3,1941
12,4.25804e-22,2,5300,119,-3.19588e-06,1.169e-05,-5.15667e-08,1.21191e-05,70.5,105.96,84.4,3.08325e+06,625000,-8.18786e-08,2.4708e-07,-1.02375e-07,0.00343151,0.0244978,-0.00121528,0.0243558,3,1942
12,4.83946e-22,2,5301,119,-3.27509e-06,1.16231e-05,-4.94948e-08,1.20758e-05,72.25,105.96,84.4,4.37488e+06,687500,-7.49979e-08,2.42077e-07,-9.88973e-08,0.00463181,0.0263099,-0.000770284,0.0256981,3,1943
12,6.00231e-22,1,5302,91.26,-3.34587e-06,1.15617e-05,-4.72048e-08,1.20362e-05,75.75,-49.63,-179.82,6.95813e+06,812500,-6.61387e-08,2.33688e-07,-9.49273e-08,0.00567518,0.0285332,-0.000595481,0.0273937,2,3357
12,6.58373e-22,1,5303,91.26,-3.40736e-06,1.15012e-05,-4.8486e-08,1.19954e-05,77.5,-49.63,-179.82,8.24975e+06,875000,-5.85833e-08,2.3175e-07,-9.67773e-08,0.00684234,0.0296907,-0.000768606,0.0280875,2,3358
12,6.87444e-22,1,5304,91.26,-3.46304e-06,1.14225e-05,-4.90534e-08,1.1936e-05,78.375,-49.63,-179.82,8.89556e+06,906250,-5.70866e-08,2.4068e-07,-9.82809e-08,0.00820312,0.0324886,-4.28002e-05,0.0300134,2,3359
12,7.45586e-22,1,5305,91.26,-3.52154e-06,1.13495e-05,-4.91877e-08,1.18834e-05,80.125,-49.63,-179.82,1.01872e+07,968750,-6.31786e-08,2.53844e-07,-9.89516e-08,0.0083374,0.0358636,0.000737469,0.0323586,2,3360
12,7.74657e-22,1,5306,91.26,-3.5894e-06,1.1302e-05,-5.09993e-08,1.18584e-05,81,-49.63,-179.82,1.0833e+07,1e+06,-7.07177e-08,2.63274e-07,-1.01798e-07,0.00736156,0.0371123,0.000514399,0.0338017,2,3361
12,7.74657e-22,1,5307,91.26,-3.66297e-06,1.12751e-05,-5.17695e-08,1.18553e-05,81,-49.63,-179.82,1.0833e+07,1e+06,-7.35851e-08,2.65216e-07,-1.03278e-07,0.00670802,0.0369719,0.000116079,0.03447,2,3362
12,7.74657e-22,1,5308,91.26,-3.73657e-06,1.12628e-05,-5.07275e-08,1.18666e-05,81,-49.63,-179.82,1.0833e+07,1e+06,-7.22691e-08,2.59516e-07,-1.01458e-07,0.00646583,0.0360843,-2.51719e-05,0.0340416,2,3363
12,7.74657e-22,1,5309,91.26,-3.80751e-06,1.12574e-05,-4.93804e-08,1.1884e-05,81,-49.63,-179.82,1.0833e+07,1e+06,-6.96657e-08,2.51663e-07,-9.88759e-08,0.00634679,0.0349761,-0.000120014,0.0329828,2,3364
12,7.46657e-22,1,5310,91.26,-3.8759e-06,1.12503e-05,-4.85651e-08,1.18994e-05,80.75,-49.63,-179.82,1.01872e+07,968750,-6.82358e-08,2.452e-07,-9.63522e-08,0.00598892,0.0338883,-0.000373072,0.0322515,2,3365
12,6.90657e-22,1,5311,91.26,-3.94398e-06,1.12344e-05,-4.47828e-08,1.19066e-05,80.25,-49.63,-179.82,8.89556e+06,906250,-7.03199e-08,2.39201e-07,-9.00289e-08,0.00502597,0.032497,0.00010363,0.0313546,2,3366
12,6.90657e-22,1,5312,91.26,-4.01654e-06,1.12177e-05,-4.2022e-08,1.19151e-05,80.25,-49.63,-179.82,8.89556e+06,906250,-7.60507e-08,2.35929e-07,-8.4996e-08,0.00337894,0.031639,0.000635847,0.0308917,2,3367
12,7.46657e-22,1,5313,91.26,-4.09608e-06,1.12097e-05,-4.53401e-08,1.19347e-05,80.75,-49.63,-179.82,1.01872e+07,968750,-8.27271e-08,2.40909e-07,-8.9661e-08,0.00181172,0.0318596,-0.000165921,0.0316105,2,3368
12,7.74657e-22,1,5314,91.26,-4.18199e-06,1.1201e-05,-4.76033e-08,1.19563e-05,81,-49.63,-179.82,1.0833e+07,1e+06,-8.83015e-08,2.50348e-07,-9.51154e-08,0.00105637,0.0327094,-0.000588272,0.0325492,2,3369
12,7.74657e-22,1,5315,91.26,-4.27269e-06,1.11832e-05,-4.7184e-08,1.19717e-05,81,-49.63,-179.82,1.0833e+07,1e+06,-9.10695e-08,2.53601e-07,-9.52416e-08,0.000630115,0.0330709,-0.000345434,0.0330217,2,3370
12,7.74657e-22,1,5316,91.26,-4.36413e-06,1.11537e-05,-4.6234e-08,1.19772e-05,81,-49.63,-179.82,1.0833e+07,1e+06,-8.83171e-08,2.46874e-07,-9.26239e-08,0.000711803,0.0322546,-0.000283448,0.0323276,2,3371
12,7.7253e-22,1,5317,91.26,-4.44932e-06,1.11126e-05,-4.23282e-08,1.19703e-05,83,-49.63,-179.82,1.0833e+07,1e+06,-7.57887e-08,2.23493e-07,-8.37552e-08,0.00140485,0.0307063,-0.000411672,0.0312196,2,3372
12,7.61894e-22,1,5318,91.26,-4.51571e-06,1.10515e-05,-3.47313e-08,1.19385e-05,93,-49.63,-179.82,1.0833e+07,1e+06,-5.11691e-08,1.91165e-07,-6.88553e-08,0.00290208,0.0330686,-0.000706405,0.0340182,2,3373
12,7.47003e-22,1,5319,137.15,-4.55166e-06,1.09775e-05,-2.62495e-08,1.18837e-05,107,109.19,-42.07,1.0833e+07,1e+06,-2.85011e-08,1.67015e-07,-5.32122e-08,0.00443889,0.0380414,-0.000196303,0.0384697,2,3374
12,7.40621e-22,1,5320,137.15,-4.57271e-06,1.09095e-05,-2.34176e-08,1.18291e-05,113,109.19,-42.07,1.0833e+07,1e+06,-2.29915e-08,1.60602e-07,-4.70994e-08,0.00444488,0.0401155,0.000305552,0.0401366,2,3375
12,7.40621e-22,1,5321,137.15,-4.59764e-06,1.08563e-05,-2.49253e-08,1.17898e-05,113,109.19,-42.07,1.0833e+07,1e+06,-2.6222e-08,1.65061e-07,-4.96323e-08,0.00369614,0.0404103,0.000112927,0.0404168,2,3376
12,7.40621e-22,1,5322,137.15,-4.62515e-06,1.08222e-05,-2.54876e-08,1.17692e-05,113,109.19,-42.07,1.0833e+07,1e+06,-2.81137e-08,1.65969e-07,-5.10381e-08,0.00312635,0.0398806,2.80504e-05,0.0397243,2,3377
12,7.40621e-22,1,5323,137.15,-4.65387e-06,1.08036e-05,-2.57935e-08,1.17634e-05,113,109.19,-42.07,1.0833e+07,1e+06,-2.90071e-08,1.65056e-07,-5.15747e-08,0.00275084,0.0391241,-1.33822e-06,0.0388285,2,3378
12,7.40621e-22,1,5324,137.15,-4.68317e-06,1.07978e-05,-2.60383e-08,1.17696e-05,113,109.19,-42.07,1.0833e+07,1e+06,-2.97402e-08,1.64612e-07,-5.20758e-08,0.00246603,0.0385939,-1.80073e-05,0.0382113,2,3379
12,7.40621e-22,1,5325,137.15,-4.71335e-06,1.08038e-05,-2.63975e-08,1.17873e-05,113,109.19,-42.07,1.0833e+07,1e+06,-3.09529e-08,1.65513e-07,-5.27908e-08,0.00214266,0.0384104,-2.04801e-05,0.0380046,2,3380
12,7.40621e-22,1,5326,137.15,-4.74507e-06,1.08218e-05,-2.69087e-08,1.18164e-05,113,109.19,-42.07,1.0833e+07,1e+06,-3.28559e-08,1.67942e-07,-5.38151e-08,0.00172877,0.0385776,-2.05275e-05,0.0382263,2,3381
12,7.40621e-22,1,5327,137.15,-4.77906e-06,1.08518e-05,-2.75608e-08,1.18575e-05,113,109.19,-42.07,1.0833e+07,1e+06,-3.54428e-08,1.71823e-07,-5.51204e-08,0.00122172,0.0390773,-1.88787e-05,0.038858,2,3382
12,7.40621e-22,1,5328,137.15,-4.81596e-06,1.08938e-05,-2.83097e-08,1.19109e-05,113,109.19,-42.07,1.0833e+07,1e+06,-3.86432e-08,1.76895e-07,-5.66199e-08,0.000625579,0.0398563,-1.69578e-05,0.0398455,2,3383
12,7.40621e-22,1,5329,137.15,-4.85635e-06,1.09478e-05,-2.9112e-08,1.19766e-05,113,109.19,-42.07,1.0833e+07,1e+06,-4.24099e-08,1.82821e-07,-5.82279e-08,-7.00383e-05,0.0408271,-1.89528e-05,0.0411045,2,3384
12,7.40621e-22,1,5330,137.15,-4.90078e-06,1.1014e-05,-2.99788e-08,1.20552e-05,113,109.19,-42.07,1.0833e+07,1e+06,-4.68105e-08,1.89342e-07,-5.99794e-08,-0.000912486,0.0418721,-3.87829e-05,0.0425386,2,3385
12,7.40621e-22,1,5331,137.15,-4.94997e-06,1.10945e-05,-3.10409e-08,1.21487e-05,113,109.19,-42.07,1.0833e+07,1e+06,-5.19136e-08,1.96257e-07,-6.20337e-08,-0.00195261,0.0428147,-6.15845e-05,0.0439797,2,3386
12,7.40621e-22,1,5332,137.15,-5.00461e-06,1.11956e-05,-3.20233e-08,1.22633e-05,113,109.19,-42.07,1.0833e+07,1e+06,-5.6638e-08,2.01337e-07,-6.37916e-08,-0.00300836,0.0430699,4.40241e-05,0.0447131,2,3387
12,7.40621e-22,1,5333,137.15,-5.06324e-06,1.13226e-05,-3.08256e-08,1.24032e-05,113,109.19,-42.07,1.0833e+07,1e+06,-5.77171e-08,1.94396e-07,-6.10076e-08,-0.00365625,0.0406403,0.000526039,0.0424338,2,3388
12,7.40621e-22,1,5334,137.15,-5.12004e-06,1.1462e-05,-2.59988e-08,1.25536e-05,113,109.19,-42.07,1.0833e+07,1e+06,-5.39917e-08,1.72603e-07,-5.22516e-08,-0.00375914,0.0354864,0.0011673,0.0372206,2,3389
12,7.40621e-22,1,5335,137.15,-5.17123e-06,1.15839e-05,-2.11632e-08,1.26858e-05,113,109.19,-42.07,1.0833e+07,1e+06,-4.89888e-08,1.5303e-07,-4.30684e-08,-0.0033507,0.031809,0.00176586,0.0330976,2,3390
12,7.40621e-22,1,5336,137.15,-5.21802e-06,1.16699e-05,-1.85207e-08,1.27834e-05,113,109.19,-42.07,1.0833e+07,1e+06,-4.56019e-08,1.42962e-07,-3.76344e-08,-0.00292452,0.0306498,0.00188046,0.0315762,2,3391
12,7.40621e-22,1,5337,137.15,-5.26243e-06,1.17168e-05,-1.87693e-08,1.28444e-05,113,109.19,-42.07,1.0833e+07,1e+06,-4.52407e-08,1.44331e-07,-3.79241e-08,-0.0028392,0.0318256,0.0013336,0.0330061,2,3392
12,7.40621e-22,1,5338,137.15,-5.3085e-06,1.17369e-05,-2.22433e-08,1.28816e-05,113,109.19,-42.07,1.0833e+07,1e+06,-4.79693e-08,1.59015e-07,-4.36719e-08,-0.0028529,0.0355491,0.000700584,0.0370994,2,3393
12,7.40621e-22,1,5339,137.15,-5.35837e-06,1.17558e-05,-2.55961e-08,1.29195e-05,113,109.19,-42.07,1.0833e+07,1e+06,-5.10645e-08,1.74717e-07,-5.07956e-08,-0.00289791,0.0388225,0.000190358,0.0406039,2,3394
12,7.40621e-22,1,5340,137.15,-5.41063e-06,1.1789e-05,-2.78231e-08,1.29713e-05,113,109.19,-42.07,1.0833e+07,1e+06,-5.29175e-08,1.84472e-07,-5.58468e-08,-0.00291119,0.0404346,4.43789e-06,0.0421601,2,3395
12,7.40621e-22,1,5341,137.15,-5.4642e-06,1.18387e-05,-2.96112e-08,1.3039e-05,113,109.19,-42.07,1.0833e+07,1e+06,-5.38221e-08,1.90223e-07,-5.91974e-08,-0.00287496,0.0411282,1.63036e-05,0.0427087,2,3396
12,7.40621e-22,1,5342,137.15,-5.51827e-06,1.19059e-05,-3.09394e-08,1.31226e-05,113,109.19,-42.07,1.0833e+07,1e+06,-5.39241e-08,1.93034e-07,-6.18823e-08,-0.00282312,0.0411057,-8.25976e-07,0.0426174,2,3397
12,7.40621e-22,1,5343,137.15,-5.57205e-06,1.19907e-05,-3.18628e-08,1.32221e-05,113,109.19,-42.07,1.0833e+07,1e+06,-5.33854e-08,1.92325e-07,-6.36105e-08,-0.00283917,0.0402146,-3.52342e-05,0.0418054,2,3398
12,7.40621e-22,1,5344,137.15,-5.62504e-06,1.20927e-05,-3.23837e-08,1.3337e-05,113,109.19,-42.07,1.0833e+07,1e+06,-5.23966e-08,1.88396e-07,-6.50925e-08,-0.00307133,0.0385588,-0.000339334,0.0405553,2,3399
12,7.34049e-22,1,5345,137.15,-5.67685e-06,1.2206e-05,-3.29194e-08,1.34616e-05,114.5,109.19,-42.07,1.0833e+07,1e+06,-4.19796e-08,1.79276e-07,-6.63553e-08,-0.00261351,0.0377352,4.3633e-05,0.0398728,2,3400
12,7.18713e-22,1,5346,9.52003,-5.709e-06,1.22937e-05,-3.94845e-08,1.35547e-05,118,63.66,-15.5,1.0833e+07,1e+06,-1.80288e-08,1.67271e-07,-7.78913e-08,-0.00174366,0.0371834,-7.11399e-05,0.0392404,2,3401
12,7.07758e-22,1,5347,9.52003,-5.7129e-06,1.23374e-05,-4.54235e-08,1.35959e-05,120.5,63.66,-15.5,1.0833e+07,1e+06,9.95467e-10,1.57599e-07,-9.03562e-08,-0.0011009,0.0355173,-0.000591028,0.0371288,2,3402
12,7.05568e-22,1,5348,9.52003,-5.70701e-06,1.23641e-05,-4.40254e-08,1.36177e-05,121,63.66,-15.5,1.0833e+07,1e+06,6.32017e-09,1.49583e-07,-8.86252e-08,-0.00037356,0.0338261,-0.000103197,0.0346014,2,3403
12,7.05568e-22,1,5349,9.52003,-5.70026e-06,1.23852e-05,-4.18714e-08,1.3634e-05,121,63.66,-15.5,1.0833e+07,1e+06,6.8881e-09,1.41751e-07,-8.37945e-08,1.4355e-06,0.0321075,3.43513e-05,0.0325242,2,3404
12,7.05568e-22,1,5350,9.52003,-5.69324e-06,1.23915e-05,-4.05481e-08,1.36369e-05,121,63.66,-15.5,1.0833e+07,1e+06,6.74511e-09,1.37573e-07,-8.12954e-08,0.000137971,0.031062,4.01296e-05,0.0312344,2,3405
12,7.05568e-22,1,5351,9.52003,-5.68677e-06,1.23774e-05,-4.03617e-08,1.36214e-05,121,63.66,-15.5,1.0833e+07,1e+06,6.30007e-09,1.37912e-07,-8.08621e-08,0.000224813,0.031067,0.000110765,0.0310115,2,3406
12,7.05568e-22,1,5352,9.52003,-5.68064e-06,1.2345e-05,-4.10598e-08,1.35894e-05,121,63.66,-15.5,1.0833e+07,1e+06,6.12828e-09,1.40107e-07,-8.18475e-08,0.000306905,0.0314757,0.000134353,0.0312858,2,3407
12,7.05568e-22,1,5353,9.52003,-5.67452e-06,1.22971e-05,-4.2072e-08,1.35433e-05,121,63.66,-15.5,1.0833e+07,1e+06,6.08135e-09,1.4704e-07,-8.42788e-08,0.000492092,0.0331462,0.000486931,0.0326628,2,3408
12,5.69008e-22,1,5354,71.87,-3.44497e-08,1.00296e-05,-2.72789e-08,1.00297e-05,27,-131.18,-164.33,1.0833e+07,1e+06,-6.87196e-08,1.8776e-07,-5.45595e-08,-0.000649866,0.0318679,0.000744921,0.0320891,2,3409
12,5.69008e-22,1,5355,71.87,-1.0299e-07,1.00899e-05,-2.91522e-08,1.00904e-05,27,-131.18,-164.33,1.0833e+07,1e+06,-6.81018e-08,1.8751e-07,-5.83042e-08,-0.000408814,0.0313518,-0.000653824,0.0319784,2,3410
12,5.69008e-22,1,5356,71.87,-1.70653e-07,1.01449e-05,-2.73731e-08,1.01463e-05,27,-131.18,-164.33,1.0833e+07,1e+06,-6.65446e-08,1.84688e-07,-5.47486e-08,-2.7399e-05,0.031429,2.28957e-05,0.0316296,2,3411
12,5.69008e-22,1,5357,71.87,-2.36079e-07,1.01954e-05,-2.65128e-08,1.01981e-05,27,-131.18,-164.33,1.0833e+07,1e+06,-6.35143e-08,1.79369e-07,-5.30302e-08,0.000285451,0.0308447,1.18837e-05,0.0310334,2,3412
12,5.69008e-22,1,5358,71.87,-2.97682e-07,1.02433e-05,-2.55073e-08,1.02476e-05,27,-131.18,-164.33,1.0833e+07,1e+06,-5.93967e-08,1.72146e-07,-5.10016e-08,0.000694785,0.0299001,1.30904e-05,0.0299942,2,3413
12,5.69008e-22,1,5359,71.87,-3.54872e-07,1.02913e-05,-2.44575e-08,1.02974e-05,27,-131.18,-164.33,1.0833e+07,1e+06,-5.47505e-08,1.64017e-07,-4.89463e-08,0.00116516,0.0287153,1.98707e-05,0.02861,2,3414
12,5.69008e-22,1,5360,71.87,-4.07183e-07,1.03441e-05,-2.35392e-08,1.03521e-05,27,-131.18,-164.33,1.0833e+07,1e+06,-4.99989e-08,1.55723e-07,-4.7128e-08,0.0016522,0.027382,1.17006e-05,0.0269902,2,3415
12,5.69008e-22,1,5361,71.87,-4.5487e-07,1.04078e-05,-2.30391e-08,1.04178e-05,27,-131.18,-164.33,1.0833e+07,1e+06,-4.61519e-08,1.49257e-07,-4.60275e-08,0.002082,0.0262054,5.95483e-06,0.0254894,2,3416
12,5.69008e-22,1,5362,71.87,-4.99487e-07,1.04886e-05,-2.32586e-08,1.05005e-05,27,-131.18,-164.33,1.0833e+07,1e+06,-4.40554e-08,1.47783e-07,-4.64884e-08,0.00253445,0.0258043,3.4521e-05,0.0247522,2,3417
12,5.69008e-22,1,5363,71.87,-5.42981e-07,1.05905e-05,-2.42954e-08,1.06045e-05,27,-131.18,-164.33,1.0833e+07,1e+06,-4.35908e-08,1.51532e-07,-4.86141e-08,0.0030477,0.0263043,5.63483e-05,0.0249898,2,3418
12,5.69008e-22,1,5364,71.87,-5.86668e-07,1.07144e-05,-2.59719e-08,1.07305e-05,27,-131.18,-164.33,1.0833e+07,1e+06,-4.44121e-08,1.58682e-07,-5.19498e-08,0.00352981,0.0273511,1.07535e-05,0.0259361,2,3419
12,5.69008e-22,1,5365,71.87,-6.31805e-07,1.08595e-05,-2.81783e-08,1.08779e-05,27,-131.18,-164.33,1.0833e+07,1e+06,-4.70219e-08,1.6947e-07,-5.62828e-08,0.00388836,0.0289422,-3.27222e-05,0.0275575,2,3420
12,5.69008e-22,1,5366,71.87,-6.80712e-07,1.10256e-05,-3.09395e-08,1.10466e-05,27,-131.18,-164.33,1.0833e+07,1e+06,-5.18647e-08,1.85362e-07,-6.18348e-08,0.00414401,0.0313914,-1.25923e-05,0.0300584,2,3421
12,5.69008e-22,1,5367,71.87,-7.35535e-07,1.12131e-05,-3.38546e-08,1.12372e-05,27,-131.18,-164.33,1.0833e+07,1e+06,-5.83823e-08,2.04401e-07,-6.81134e-08,0.00423696,0.0343334,4.72494e-05,0.0330948,2,3422
12,5.65591e-22,1,5368,71.87,-7.97477e-07,1.14239e-05,-3.65467e-08,1.14518e-05,27.9375,-131.18,-164.33,1.0833e+07,1e+06,-6.19578e-08,2.22193e-07,-7.27473e-08,0.0042591,0.0391104,-1.96471e-06,0.0380269,2,3423
12,5.4851e-22,1,5369,71.87,-8.5945e-07,1.16251e-05,-3.29418e-08,1.16569e-05,32.625,-131.18,-164.33,1.0833e+07,1e+06,-5.26118e-08,2.13925e-07,-6.51553e-08,0.00355217,0.0448908,-0.000777992,0.0448841,2,3424
12,5.24597e-22,1,5370,125.44,-9.027e-07,1.17674e-05,-2.18806e-08,1.1802e-05,39.1875,67.45,-41.35,1.0833e+07,1e+06,-3.44398e-08,1.89152e-07,-4.44684e-08,0.00470358,0.049716,0.000227989,0.0485901,2,3425
12,5.14349e-22,1,5371,125.44,-9.2833e-07,1.18852e-05,-1.71003e-08,1.19214e-05,42,67.45,-41.35,1.0833e+07,1e+06,-2.32483e-08,1.77727e-07,-3.43754e-08,0.00669361,0.0512834,0.00155754,0.048292,2,3426
12,4.6116e-22,1,5372,125.44,-9.49197e-07,1.20099e-05,-2.74033e-08,1.20474e-05,41,67.45,-41.35,8.24975e+06,875000,-3.55235e-08,1.96959e-07,-5.5567e-08,0.00592578,0.0452449,0.000130155,0.0434388,2,3427
12,3.54784e-22,2,5373,95.55,-9.99377e-07,1.20793e-05,-5.698e-08,1.21207e-05,39,20.95,172.44,3.08325e+06,625000,-7.17918e-08,2.63442e-07,-1.13247e-07,0.00427564,0.0314646,-0.000501833,0.0305284,3,1944
12,3.01595e-22,2,5374,95.55,-1.09278e-06,1.20667e-05,-7.76541e-08,1.21163e-05,38,20.95,172.44,500000,500000,-9.85481e-08,3.14892e-07,-1.54394e-07,0.00320048,0.0230066,-0.000311489,0.0220404,3,1945
12,3.01595e-22,2,5375,95.55,-1.19647e-06,1.20179e-05,-7.83769e-08,1.20776e-05,38,20.95,172.44,500000,500000,-1.01754e-07,3.21807e-07,-1.57648e-07,0.00318799,0.0232286,-0.000330929,0.0220424,3,1946
12,3.01595e-22,2,5376,95.55,-1.29629e-06,1.19651e-05,-7.92063e-08,1.20354e-05,38,20.95,172.44,500000,500000,-9.80807e-08,3.20603e-07,-1.58245e-07,0.00359559,0.0233841,-0.000111689,0.0218938,3,1947
12,3.01595e-22,2,5377,95.55,-1.39263e-06,1.19119e-05,-7.94669e-08,1.19933e-05,38,20.95,172.44,500000,500000,-9.59206e-08,3.19739e-07,-1.58947e-07,0.00377417,0.0234363,-9.38182e-05,0.0218633,3,1948
12,3.01595e-22,2,5378,95.55,-1.48813e-06,1.18585e-05,-7.97625e-08,1.19518e-05,38,20.95,172.44,500000,500000,-9.63707e-08,3.20772e-07,-1.59509e-07,0.00369385,0.0235304,-9.90106e-05,0.0219829,3,1949
12,3.01595e-22,2,5379,95.55,-1.58538e-06,1.18055e-05,-8.0409e-08,1.19117e-05,38,20.95,172.44,500000,500000,-9.76974e-08,3.23454e-07,-1.60649e-07,0.00353331,0.0237548,-7.30531e-05,0.0222596,3,1950
12,3.01595e-22,2,5380,95.55,-1.68352e-06,1.17539e-05,-8.28185e-08,1.18741e-05,38,20.95,172.44,500000,500000,-9.92327e-08,3.24329e-07,-1.64672e-07,0.00279121,0.0234007,-0.000934344,0.0227976,3,1951
12,3.22641e-22,2,5381,95.55,-1.78384e-06,1.17117e-05,-6.68214e-08,1.1847e-05,39.125,20.95,172.44,500000,500000,-1.04375e-07,3.12309e-07,-1.33424e-07,0.00314609,0.0278749,0.000124853,0.0270815,3,1952
12,3.71747e-22,2,5382,44.42,-1.89227e-06,1.16458e-05,-3.28532e-08,1.17985e-05,41.75,-34.07,-165.31,500000,500000,-1.12906e-07,2.8751e-07,-6.74409e-08,0.00572176,0.0365236,0.0025488,0.0334775,3,1953
12,4.32657e-22,2,5383,44.42,-2.00965e-06,1.1528e-05,-1.92532e-08,1.17019e-05,44.3125,-34.07,-165.31,1.14581e+06,531250,-1.10673e-07,2.73543e-07,-4.01471e-08,0.00714833,0.0427546,0.00190578,0.0394122,3,1954
12,5.6884e-22,2,5384,44.42,-2.11362e-06,1.14446e-05,-2.7965e-08,1.16382e-05,48.125,-34.07,-165.31,4.37488e+06,687500,-8.57273e-08,2.41656e-07,-5.46344e-08,0.00407333,0.0419905,-0.000994981,0.0419394,3,1955
12,7.49674e-22,1,5385,130.6,-2.18111e-06,1.14738e-05,-3.11553e-08,1.16793e-05,52.9375,117.2,-48.36,8.89556e+06,906250,-5.76183e-08,2.00411e-07,-6.12186e-08,0.0024521,0.0381074,-0.000926292,0.0381641,2,3428
12,8.27175e-22,1,5386,130.6,-2.22886e-06,1.1558e-05,-2.91795e-08,1.1771e-05,55,117.2,-48.36,1.0833e+07,1e+06,-4.83415e-08,1.91158e-07,-5.88554e-08,0.00360967,0.0374891,0.000520415,0.0355533,2,3429
12,8.27175e-22,1,5387,130.6,-2.27779e-06,1.16414e-05,-3.00439e-08,1.18622e-05,55,117.2,-48.36,1.0833e+07,1e+06,-5.00806e-08,1.91222e-07,-5.99312e-08,0.00305285,0.0371466,5.62147e-05,0.0357071,2,3430
12,8.27175e-22,1,5388,130.6,-2.32902e-06,1.1728e-05,-2.96191e-08,1.1957e-05,55,117.2,-48.36,1.0833e+07,1e+06,-5.19758e-08,1.90055e-07,-5.92739e-08,0.00241797,0.0366386,6.74376e-06,0.0355059,2,3431
12,8.27175e-22,1,5389,130.6,-2.38174e-06,1.18157e-05,-2.91651e-08,1.20534e-05,55,117.2,-48.36,1.0833e+07,1e+06,-5.32652e-08,1.88221e-07,-5.83449e-08,0.00188878,0.03609,-3.07194e-06,0.0352004,2,3432
12,8.27175e-22,1,5390,130.6,-2.43555e-06,1.1904e-05,-2.85275e-08,1.21507e-05,55,117.2,-48.36,1.0833e+07,1e+06,-5.40659e-08,1.85206e-07,-5.70475e-08,0.00139054,0.0353433,-6.23649e-06,0.0346857,2,3433
12,8.27175e-22,1,5391,130.6,-2.48987e-06,1.19922e-05,-2.765e-08,1.2248e-05,55,117.2,-48.36,1.0833e+07,1e+06,-5.41474e-08,1.80625e-07,-5.52798e-08,0.000957614,0.0343302,4.44427e-06,0.033872,2,3434
12,8.27175e-22,1,5392,130.6,-2.54384e-06,1.208e-05,-2.6227e-08,1.2345e-05,55,117.2,-48.36,1.0833e+07,1e+06,-5.24165e-08,1.73471e-07,-5.22752e-08,0.000871928,0.0329922,0.000229338,0.0324463,2,3435
12,8.27175e-22,1,5393,130.6,-2.59471e-06,1.21641e-05,-2.4219e-08,1.24378e-05,55,117.2,-48.36,1.0833e+07,1e+06,-4.88856e-08,1.6059e-07,-4.81276e-08,0.000772147,0.0304806,0.000261911,0.0299666,2,3436
12,7.26832e-22,1,5394,130.6,-2.64161e-06,1.22385e-05,-2.26077e-08,1.25203e-05,58.875,117.2,-48.36,8.89556e+06,906250,-5.43663e-08,1.55992e-07,-4.60754e-08,0.000355304,0.0262944,0.000297082,0.0266105,2,3437
12,5.26147e-22,2,5395,119,-2.70344e-06,1.22535e-05,-2.98299e-08,1.25482e-05,66.625,105.96,84.4,5.02069e+06,718750,-7.10643e-08,1.76528e-07,-6.01393e-08,-9.84755e-05,0.0206662,-0.000199629,0.0216785,3,1956
12,4.25804e-22,2,5396,119,-2.78374e-06,1.22077e-05,-3.93158e-08,1.25211e-05,70.5,105.96,84.4,3.08325e+06,625000,-8.16197e-08,2.01387e-07,-7.79917e-08,-2.28078e-06,0.0184671,-0.00094679,0.019403,3,1957
12,4.25804e-22,2,5397,119,-2.86668e-06,1.21527e-05,-4.20584e-08,1.24863e-05,70.5,105.96,84.4,3.08325e+06,625000,-8.32673e-08,2.13917e-07,-8.3968e-08,0.000614746,0.0200506,-0.000993444,0.020722,3,1958
12,4.25804e-22,2,5398,119,-2.95028e-06,1.20939e-05,-4.36986e-08,1.24487e-05,70.5,105.96,84.4,3.08325e+06,625000,-8.30803e-08,2.20211e-07,-8.698e-08,0.00121528,0.0210161,-0.000982219,0.0214482,3,1959
12,4.83946e-22,2,5399,119,-3.03284e-06,1.20294e-05,-4.24238e-08,1.24059e-05,72.25,105.96,84.4,4.37488e+06,687500,-7.89702e-08,2.18595e-07,-8.4799e-08,0.00195502,0.022869,-0.000603314,0.0230483,3,1960
12,6.00231e-22,1,5400,91.26,-3.10822e-06,1.19721e-05,-4.09453e-08,1.23691e-05,75.75,-49.63,-179.82,6.95812e+06,812500,-7.06617e-08,2.11417e-07,-8.22926e-08,0.00266825,0.0248534,-0.000499276,0.0246626,2,3438
12,6.58373e-22,1,5401,91.26,-3.17416e-06,1.19169e-05,-4.19391e-08,1.23325e-05,77.5,-49.63,-179.82,8.24975e+06,875000,-6.27814e-08,2.07846e-07,-8.36768e-08,0.00366449,0.025679,-0.00066535,0.0250016,2,3439
12,6.87444e-22,1,5402,91.26,-3.23378e-06,1.1846e-05,-4.12372e-08,1.22795e-05,78.375,-49.63,-179.82,8.89556e+06,906250,-5.75394e-08,2.10025e-07,-8.21033e-08,0.00541978,0.0277762,0.000328424,0.0258292,2,3440
12,7.45586e-22,1,5403,91.26,-3.28924e-06,1.17757e-05,-3.9178e-08,1.22265e-05,80.125,-49.63,-179.82,1.01872e+07,968750,-5.48929e-08,2.09806e-07,-7.86007e-08,0.00645521,0.0296787,0.00125715,0.0264172,2,3441
12,7.74657e-22,1,5404,91.26,-3.34357e-06,1.17127e-05,-3.94674e-08,1.21807e-05,81,-49.63,-179.82,1.0833e+07,1e+06,-5.64662e-08,2.12205e-07,-7.98779e-08,0.00625858,0.0302808,0.0010645,0.0269884,2,3442
12,7.74657e-22,1,5405,91.26,-3.40217e-06,1.16507e-05,-4.31416e-08,1.21374e-05,81,-49.63,-179.82,1.0833e+07,1e+06,-6.26918e-08,2.27663e-07,-8.64433e-08,0.00602359,0.0321072,0.000795202,0.0290759,2,3443
12,7.74657e-22,1,5406,91.26,-3.46895e-06,1.15974e-05,-4.71571e-08,1.21052e-05,81,-49.63,-179.82,1.0833e+07,1e+06,-6.95921e-08,2.44553e-07,-9.36473e-08,0.00576855,0.0340795,0.000458864,0.031327,2,3444
12,7.74657e-22,1,5407,91.26,-3.54136e-06,1.15598e-05,-4.9085e-08,1.20901e-05,81,-49.63,-179.82,1.0833e+07,1e+06,-7.33278e-08,2.53577e-07,-9.80385e-08,0.00559893,0.0350514,0.000101084,0.032712,2,3445
12,7.74657e-22,1,5408,91.26,-3.6156e-06,1.1536e-05,-4.97653e-08,1.20895e-05,81,-49.63,-179.82,1.0833e+07,1e+06,-7.40188e-08,2.57102e-07,-9.97271e-08,0.00575893,0.0355349,2.56611e-05,0.0334211,2,3446
12,7.74657e-22,1,5409,91.26,-3.6894e-06,1.15219e-05,-5.00188e-08,1.20983e-05,81,-49.63,-179.82,1.0833e+07,1e+06,-7.29475e-08,2.5736e-07,-9.96834e-08,0.00611524,0.0357336,0.000151177,0.0336015,2,3447
12,7.46657e-22,1,5410,91.26,-3.7615e-06,1.15119e-05,-4.9432e-08,1.21109e-05,80.75,-49.63,-179.82,1.01872e+07,968750,-7.14412e-08,2.56849e-07,-9.89386e-08,0.00646596,0.0357586,0.00016721,0.0337493,2,3448
12,6.34658e-22,1,5411,91.26,-3.83228e-06,1.1499e-05,-4.80876e-08,1.21209e-05,79.75,-49.63,-179.82,7.60394e+06,843750,-7.19235e-08,2.5459e-07,-9.63021e-08,0.00620887,0.0344313,-3.23238e-05,0.0333058,2,3449
12,4.94658e-22,2,5412,132.37,-3.90535e-06,1.1479e-05,-4.6355e-08,1.21253e-05,78.5,120.16,96.49,4.37488e+06,687500,-7.64704e-08,2.54353e-07,-9.1981e-08,0.00552199,0.032236,0.000459533,0.0314659,3,1961
12,4.94658e-22,2,5413,132.37,-3.98522e-06,1.14594e-05,-4.28166e-08,1.21327e-05,78.5,120.16,96.49,4.37488e+06,687500,-8.25461e-08,2.55037e-07,-8.66864e-08,0.00437497,0.0321271,0.00152246,0.0313457,3,1962
12,6.34658e-22,1,5414,91.26,-4.07044e-06,1.14546e-05,-4.37495e-08,1.21564e-05,79.75,-49.63,-179.82,7.60394e+06,843750,-8.70407e-08,2.54431e-07,-8.87347e-08,0.00258474,0.0331907,0.000840374,0.0331185,2,3450
12,7.46657e-22,1,5415,91.26,-4.1593e-06,1.14574e-05,-5.01391e-08,1.21891e-05,80.75,-49.63,-179.82,1.01872e+07,968750,-9.09021e-08,2.61629e-07,-9.94898e-08,0.00153052,0.0341568,-0.000872505,0.0344102,2,3451
12,7.74657e-22,1,5416,91.26,-4.25224e-06,1.1444e-05,-5.20031e-08,1.22086e-05,81,-49.63,-179.82,1.0833e+07,1e+06,-9.16661e-08,2.64181e-07,-1.03153e-07,0.00137493,0.0343512,-0.00134331,0.0345298,2,3452
12,7.41389e-22,1,5417,91.26,-4.34263e-06,1.14059e-05,-4.6498e-08,1.22047e-05,81.8125,-49.63,-179.82,1.0833e+07,1e+06,-8.31678e-08,2.46702e-07,-9.21653e-08,0.00198095,0.0340543,-0.000657782,0.0341393,2,3453
12,7.01738e-22,1,5418,91.26,-4.41858e-06,1.13306e-05,-3.46219e-08,1.21617e-05,88.625,-49.63,-179.82,1.0833e+07,1e+06,-6.27049e-08,2.02394e-07,-6.9258e-08,0.00216736,0.0330417,-0.000296643,0.0340274,2,3454
12,7.20116e-22,1,5419,137.15,-4.46804e-06,1.1232e-05,-2.53323e-08,1.2088e-05,101.812,109.19,-42.07,1.0833e+07,1e+06,-3.95683e-08,1.6623e-07,-5.17394e-08,0.00251962,0.0348767,-0.000257764,0.0364102,2,3455
12,7.42749e-22,1,5420,137.15,-4.49772e-06,1.11412e-05,-2.32722e-08,1.20149e-05,111,109.19,-42.07,1.0833e+07,1e+06,-2.83638e-08,1.59545e-07,-4.66125e-08,0.00323576,0.0385927,9.18328e-05,0.0394796,2,3456
12,7.40621e-22,1,5421,137.15,-4.52477e-06,1.10696e-05,-2.35487e-08,1.19587e-05,113,109.19,-42.07,1.0833e+07,1e+06,-2.81974e-08,1.60512e-07,-4.67898e-08,0.00289502,0.0394085,9.10201e-05,0.0399856,2,3457
12,7.40621e-22,1,5422,137.15,-4.55411e-06,1.10204e-05,-2.43632e-08,1.19243e-05,113,109.19,-42.07,1.0833e+07,1e+06,-3.02877e-08,1.63587e-07,-4.87848e-08,0.00241351,0.0394549,2.52804e-05,0.0398259,2,3458
12,7.40621e-22,1,5423,137.15,-4.58535e-06,1.09871e-05,-2.48097e-08,1.19055e-05,113,109.19,-42.07,1.0833e+07,1e+06,-3.16706e-08,1.64052e-07,-4.96225e-08,0.00199301,0.0390204,9.91458e-06,0.0392565,2,3459
12,7.40621e-22,1,5424,137.15,-4.61745e-06,1.09679e-05,-2.51171e-08,1.19003e-05,113,109.19,-42.07,1.0833e+07,1e+06,-3.24552e-08,1.63596e-07,-5.02442e-08,0.00168272,0.0384245,-7.1822e-06,0.0385333,2,3460
12,7.40621e-22,1,5425,137.15,-4.65026e-06,1.0962e-05,-2.54836e-08,1.19076e-05,113,109.19,-42.07,1.0833e+07,1e+06,-3.33552e-08,1.63712e-07,-5.09661e-08,0.00138267,0.0379888,-1.75842e-05,0.0380136,2,3461
12,7.40621e-22,1,5426,137.15,-4.68416e-06,1.09693e-05,-2.59877e-08,1.19276e-05,113,109.19,-42.07,1.0833e+07,1e+06,-3.4792e-08,1.65155e-07,-5.19747e-08,0.00102173,0.0378592,-2.40676e-05,0.0378724,2,3462
12,7.40621e-22,1,5427,137.15,-4.71984e-06,1.099e-05,-2.66568e-08,1.19606e-05,113,109.19,-42.07,1.0833e+07,1e+06,-3.69431e-08,1.68186e-07,-5.3313e-08,0.000567587,0.0380889,-2.70415e-05,0.0381773,2,3463
12,7.40621e-22,1,5428,137.15,-4.75805e-06,1.10241e-05,-2.74641e-08,1.20071e-05,113,109.19,-42.07,1.0833e+07,1e+06,-3.98125e-08,1.72732e-07,-5.49296e-08,1.61815e-05,0.0386708,-2.76277e-05,0.0389247,2,3464
12,7.40621e-22,1,5429,137.15,-4.79947e-06,1.10715e-05,-2.83539e-08,1.20671e-05,113,109.19,-42.07,1.0833e+07,1e+06,-4.32906e-08,1.78452e-07,-5.6712e-08,-0.000622672,0.0395369,-2.70571e-05,0.0400394,2,3465
12,7.40621e-22,1,5430,137.15,-4.84463e-06,1.11317e-05,-2.92724e-08,1.21403e-05,113,109.19,-42.07,1.0833e+07,1e+06,-4.72139e-08,1.84821e-07,-5.85547e-08,-0.00134036,0.0405558,-2.93486e-05,0.0413791,2,3466
12,7.40621e-22,1,5431,137.15,-4.89389e-06,1.12046e-05,-3.02086e-08,1.22268e-05,113,109.19,-42.07,1.0833e+07,1e+06,-5.13601e-08,1.91204e-07,-6.04209e-08,-0.00212604,0.0415311,-3.54109e-05,0.0427313,2,3467
12,7.40621e-22,1,5432,137.15,-4.94735e-06,1.12915e-05,-3.11165e-08,1.23278e-05,113,109.19,-42.07,1.0833e+07,1e+06,-5.51151e-08,1.96443e-07,-6.2194e-08,-0.00289171,0.0421352,-1.71646e-05,0.0437071,2,3468
12,7.40621e-22,1,5433,137.15,-5.00412e-06,1.1395e-05,-3.14939e-08,1.24454e-05,113,109.19,-42.07,1.0833e+07,1e+06,-5.69786e-08,1.97038e-07,-6.3043e-08,-0.00344416,0.041592,2.91466e-05,0.0434394,2,3469
12,7.40621e-22,1,5434,137.15,-5.06131e-06,1.15131e-05,-3.0497e-08,1.25766e-05,113,109.19,-42.07,1.0833e+07,1e+06,-5.54068e-08,1.87912e-07,-6.12153e-08,-0.00365663,0.0389712,2.38352e-05,0.0409851,2,3470
12,7.40621e-22,1,5435,137.15,-5.11494e-06,1.16329e-05,-2.81611e-08,1.27078e-05,113,109.19,-42.07,1.0833e+07,1e+06,-5.06541e-08,1.70784e-07,-5.6244e-08,-0.00341803,0.0350938,-7.72384e-06,0.0370568,2,3471
12,7.40621e-22,1,5436,137.15,-5.16261e-06,1.17366e-05,-2.54356e-08,1.28219e-05,113,109.19,-42.07,1.0833e+07,1e+06,-4.50885e-08,1.55177e-07,-5.07033e-08,-0.00277844,0.0322555,-3.99097e-05,0.0338616,2,3472
12,7.40621e-22,1,5437,137.15,-5.20511e-06,1.18135e-05,-2.34251e-08,1.29094e-05,113,109.19,-42.07,1.0833e+07,1e+06,-4.15594e-08,1.4739e-07,-4.67395e-08,-0.00217263,0.0315181,-5.41123e-05,0.0327741,2,3473
12,7.40621e-22,1,5438,137.15,-5.24573e-06,1.18632e-05,-2.29406e-08,1.29713e-05,113,109.19,-42.07,1.0833e+07,1e+06,-4.15059e-08,1.4992e-07,-4.57314e-08,-0.0018888,0.0329931,-3.27039e-05,0.0341879,2,3474
12,7.40621e-22,1,5439,137.15,-5.28813e-06,1.18967e-05,-2.39653e-08,1.30191e-05,113,109.19,-42.07,1.0833e+07,1e+06,-4.4369e-08,1.6082e-07,-4.80572e-08,-0.00195142,0.0358612,-7.29291e-06,0.0371913,2,3475
12,7.40621e-22,1,5440,137.15,-5.33447e-06,1.19294e-05,-2.5714e-08,1.30678e-05,113,109.19,-42.07,1.0833e+07,1e+06,-4.81463e-08,1.7234e-07,-5.15376e-08,-0.00228697,0.0382765,2.58338e-05,0.0397529,2,3476
12,7.40621e-22,1,5441,137.15,-5.38442e-06,1.19714e-05,-2.74297e-08,1.31266e-05,113,109.19,-42.07,1.0833e+07,1e+06,-5.10079e-08,1.80451e-07,-5.48499e-08,-0.00262995,0.0395816,2.41809e-05,0.0411278,2,3477
12,7.40621e-22,1,5442,137.15,-5.43649e-06,1.20266e-05,-2.88669e-08,1.31984e-05,113,109.19,-42.07,1.0833e+07,1e+06,-5.23845e-08,1.85678e-07,-5.77573e-08,-0.00275709,0.0401702,2.99733e-05,0.0416754,2,3478
12,7.40621e-22,1,5443,137.15,-5.48919e-06,1.20962e-05,-2.98721e-08,1.32834e-05,113,109.19,-42.07,1.0833e+07,1e+06,-5.22736e-08,1.87672e-07,-5.98409e-08,-0.00267166,0.040059,6.65904e-05,0.0414523,2,3479
12,7.40621e-22,1,5444,137.15,-5.54103e-06,1.21798e-05,-3.05894e-08,1.3381e-05,113,109.19,-42.07,1.0833e+07,1e+06,-5.06052e-08,1.85447e-07,-6.11188e-08,-0.00245386,0.0389369,6.13702e-05,0.0402638,2,3480
12,7.40621e-22,1,5445,137.15,-5.5904e-06,1.22779e-05,-3.14292e-08,1.34908e-05,113,109.19,-42.07,1.0833e+07,1e+06,-4.75146e-08,1.81084e-07,-6.26924e-08,-0.00206158,0.0373354,-0.000140143,0.038665,2,3481
12,7.3624e-22,1,5446,137.15,-5.63606e-06,1.23844e-05,-3.17241e-08,1.36066e-05,114,109.19,-42.07,1.0833e+07,1e+06,-3.99967e-08,1.77284e-07,-6.31132e-08,-0.00125351,0.0376096,0.000411724,0.0386853,2,3482
12,7.23094e-22,1,5447,137.15,-5.67039e-06,1.24633e-05,-3.55567e-08,1.36926e-05,117,109.19,-42.07,1.0833e+07,1e+06,-2.24876e-08,1.6872e-07,-7.17898e-08,-0.00101566,0.0376643,0.000252467,0.0391514,2,3483
12,7.09949e-22,1,5448,9.52003,-5.68104e-06,1.24961e-05,-4.28853e-08,1.3727e-05,120,63.66,-15.5,1.0833e+07,1e+06,-2.61639e-09,1.57596e-07,-8.60401e-08,-0.0010067,0.0356351,-0.000455429,0.0372159,2,3484
12,7.05568e-22,1,5449,9.52003,-5.67562e-06,1.25133e-05,-4.48125e-08,1.37403e-05,121,63.66,-15.5,1.0833e+07,1e+06,6.13316e-09,1.50318e-07,-8.90023e-08,-0.000391135,0.0339635,-0.00013805,0.0347161,2,3485
12,7.05568e-22,1,5450,9.52003,-5.66877e-06,1.25277e-05,-4.25181e-08,1.37506e-05,121,63.66,-15.5,1.0833e+07,1e+06,6.70515e-09,1.44173e-07,-8.51394e-08,-4.26979e-05,0.0326159,1.33288e-05,0.0330062,2,3486
12,7.05568e-22,1,5451,9.52003,-5.66221e-06,1.25297e-05,-4.12617e-08,1.37498e-05,121,63.66,-15.5,1.0833e+07,1e+06,6.52065e-09,1.40185e-07,-8.25526e-08,9.86658e-05,0.0316436,5.80529e-05,0.0317811,2,3487
12,7.05568e-22,1,5452,9.52003,-5.65573e-06,1.25155e-05,-4.10086e-08,1.37341e-05,121,63.66,-15.5,1.0833e+07,1e+06,6.29924e-09,1.39721e-07,-8.20233e-08,0.000201476,0.0314445,7.69878e-05,0.0313942,2,3488
12,7.05568e-22,1,5453,9.52003,-5.64962e-06,1.24854e-05,-4.14884e-08,1.37042e-05,121,63.66,-15.5,1.0833e+07,1e+06,5.69455e-09,1.41809e-07,-8.30048e-08,0.000144661,0.0317997,2.74371e-05,0.0317367,2,3489
12,7.05568e-22,1,5454,9.52003,-5.64434e-06,1.24431e-05,-4.23668e-08,1.36635e-05,121,63.66,-15.5,1.0833e+07,1e+06,4.9854e-09,1.46368e-07,-8.4711e-08,8.32181e-05,0.0328267,0.000124373,0.0327257,2,3490
12,5.69008e-22,1,5455,71.87,-3.67678e-08,1.02206e-05,-2.78836e-08,1.02207e-05,27,-131.18,-164.33,1.0833e+07,1e+06,-7.3365e-08,1.94182e-07,-5.57699e-08,-0.00130839,0.0327785,0.000773519,0.0333655,2,3491
12,5.69008e-22,1,5456,71.87,-1.09962e-07,1.02805e-05,-2.97827e-08,1.02811e-05,27,-131.18,-164.33,1.0833e+07,1e+06,-7.27799e-08,1.93703e-07,-5.95677e-08,-0.0010917,0.0321991,-0.000693845,0.0332184,2,3492
12,5.69008e-22,1,5457,71.87,-1.82328e-07,1.03323e-05,-2.77597e-08,1.0334e-05,27,-131.18,-164.33,1.0833e+07,1e+06,-7.12321e-08,1.90157e-07,-5.55202e-08,-0.000772619,0.0321813,2.09525e-05,0.0328238,2,3493
12,5.69008e-22,1,5458,71.87,-2.52426e-07,1.03769e-05,-2.66246e-08,1.038e-05,27,-131.18,-164.33,1.0833e+07,1e+06,-6.80115e-08,1.83473e-07,-5.32719e-08,-0.000540872,0.0313582,9.95424e-06,0.032053,2,3494
12,5.69008e-22,1,5459,71.87,-3.18351e-07,1.04167e-05,-2.52353e-08,1.04216e-05,27,-131.18,-164.33,1.0833e+07,1e+06,-6.40026e-08,1.74018e-07,-5.05166e-08,-0.000385013,0.0299117,-3.3176e-05,0.0306472,2,3495
12,5.69008e-22,1,5460,71.87,-3.80432e-07,1.04561e-05,-2.38429e-08,1.04631e-05,27,-131.18,-164.33,1.0833e+07,1e+06,-6.10172e-08,1.64701e-07,-4.72934e-08,-0.000456709,0.0283256,8.35824e-05,0.0290384,2,3496
12,5.69008e-22,1,5461,71.87,-4.40385e-07,1.04999e-05,-2.22928e-08,1.05091e-05,27,-131.18,-164.33,1.0833e+07,1e+06,-5.88966e-08,1.57099e-07,-4.42037e-08,-0.00054837,0.0269417,0.0003737,0.0274865,2,3497
12,5.69008e-22,1,5462,71.87,-4.98225e-07,1.05561e-05,-2.08163e-08,1.05678e-05,27,-131.18,-164.33,1.0833e+07,1e+06,-5.71582e-08,1.51032e-07,-4.19291e-08,-0.000577426,0.0257035,0.000622591,0.0260423,2,3498
12,5.69008e-22,1,5463,71.87,-5.54701e-07,1.06353e-05,-2.06481e-08,1.06498e-05,27,-131.18,-164.33,1.0833e+07,1e+06,-5.65051e-08,1.5074e-07,-4.16477e-08,-0.000335803,0.0255312,0.000871853,0.0255156,2,3499
12,5.69008e-22,1,5464,71.87,-6.11235e-07,1.07413e-05,-2.17345e-08,1.07587e-05,27,-131.18,-164.33,1.0833e+07,1e+06,-5.58994e-08,1.54983e-07,-4.35725e-08,0.000277673,0.0262734,0.000965765,0.0258291,2,3500
12,5.69008e-22,1,5465,71.87,-6.665e-07,1.08718e-05,-2.33515e-08,1.08923e-05,27,-131.18,-164.33,1.0833e+07,1e+06,-5.42925e-08,1.59647e-07,-4.66954e-08,0.00115655,0.0270776,0.000843039,0.0262831,2,3501
12,5.69008e-22,1,5466,71.87,-7.1982e-07,1.10272e-05,-2.55156e-08,1.10507e-05,27,-131.18,-164.33,1.0833e+07,1e+06,-5.42045e-08,1.67409e-07,-5.14216e-08,0.00191633,0.028142,0.000567175,0.0272847,2,3502
12,5.69008e-22,1,5467,71.87,-7.74909e-07,1.12102e-05,-2.896e-08,1.1237e-05,27,-131.18,-164.33,1.0833e+07,1e+06,-5.83097e-08,1.84101e-07,-5.82287e-08,0.00241419,0.0306649,0.000411699,0.0298253,2,3503
12,5.69008e-22,1,5468,71.87,-8.36439e-07,1.14172e-05,-3.27197e-08,1.14479e-05,27,-131.18,-164.33,1.0833e+07,1e+06,-6.29097e-08,2.03515e-07,-6.48973e-08,0.00301682,0.0339709,0.000540493,0.0329181,2,3504
12,5.58759e-22,1,5469,71.87,-9.00728e-07,1.16398e-05,-3.30501e-08,1.16746e-05,29.8125,-131.18,-164.33,1.0833e+07,1e+06,-5.64413e-08,2.07298e-07,-6.56395e-08,0.00330139,0.0391903,-0.000250012,0.0388699,2,3505
12,5.34846e-22,1,5470,125.44,-9.49322e-07,1.18261e-05,-2.5992e-08,1.18642e-05,36.375,67.45,-41.35,1.0833e+07,1e+06,-4.0969e-08,1.89603e-07,-5.23308e-08,0.00360984,0.045057,-0.000929529,0.045053,2,3506
12,5.17765e-22,1,5471,125.44,-9.82667e-07,1.19492e-05,-1.84844e-08,1.19895e-05,41.0625,67.45,-41.35,1.0833e+07,1e+06,-3.13046e-08,1.77831e-07,-3.71154e-08,0.00499042,0.0491097,0.000134302,0.0474087,2,3507
12,5.14349e-22,1,5472,125.44,-1.01193e-06,1.20621e-05,-1.76378e-08,1.21045e-05,42,67.45,-41.35,1.0833e+07,1e+06,-2.55075e-08,1.77319e-07,-3.56427e-08,0.00616741,0.0507051,0.000711801,0.0482131,2,3508
12,4.74457e-22,1,5473,125.44,-1.03368e-06,1.22071e-05,-2.62335e-08,1.22508e-05,41.25,67.45,-41.35,8.89556e+06,906250,-2.85663e-08,1.87593e-07,-5.3094e-08,0.00590153,0.0457252,-0.000387557,0.0444662,2,3509
12,3.81378e-22,2,5474,95.55,-1.06906e-06,1.23424e-05,-5.10326e-08,1.23887e-05,39.5,20.95,172.44,4.37488e+06,687500,-5.27641e-08,2.36364e-07,-1.01185e-07,0.00487797,0.0333903,-0.00112403,0.0332754,3,1963
12,3.14892e-22,2,5475,95.55,-1.13921e-06,1.238e-05,-7.4068e-08,1.24325e-05,38.25,20.95,172.44,1.14581e+06,531250,-8.06849e-08,2.93489e-07,-1.46529e-07,0.00426631,0.0243809,-0.000734879,0.0237897,3,1964
12,3.01595e-22,2,5476,95.55,-1.23043e-06,1.23388e-05,-7.95452e-08,1.24002e-05,38,20.95,172.44,500000,500000,-9.2714e-08,3.15519e-07,-1.59378e-07,0.00401215,0.023022,-0.000521588,0.0217478,3,1965
12,3.01595e-22,2,5477,95.55,-1.32464e-06,1.22849e-05,-7.91841e-08,1.23563e-05,38,20.95,172.44,500000,500000,-9.3399e-08,3.16295e-07,-1.5926e-07,0.00390652,0.0230741,-0.000380873,0.0216597,3,1966
12,3.01595e-22,2,5478,95.55,-1.41723e-06,1.22301e-05,-7.91928e-08,1.23122e-05,38,20.95,172.44,500000,500000,-9.22607e-08,3.15516e-07,-1.58377e-07,0.00399908,0.0232347,-0.000114365,0.0215955,3,1967
12,3.01595e-22,2,5479,95.55,-1.50916e-06,1.21766e-05,-7.90192e-08,1.227e-05,38,20.95,172.44,500000,500000,-9.15741e-08,3.14628e-07,-1.58085e-07,0.00393993,0.0232729,-5.54747e-05,0.021614,3,1968
12,3.01595e-22,2,5480,95.55,-1.60038e-06,1.2125e-05,-7.9314e-08,1.22305e-05,38,20.95,172.44,500000,500000,-8.99388e-08,3.13534e-07,-1.59574e-07,0.00377298,0.0231901,-0.000202311,0.0217074,3,1969
12,3.01595e-22,2,5481,95.55,-1.68904e-06,1.20732e-05,-8.3682e-08,1.21911e-05,38,20.95,172.44,500000,500000,-9.02968e-08,3.14177e-07,-1.65874e-07,0.00313624,0.0225391,-0.00142861,0.0220103,3,1970
12,3.29656e-22,2,5482,95.55,-1.78097e-06,1.20095e-05,-6.15867e-08,1.2141e-05,39.5,20.95,172.44,500000,500000,-9.78372e-08,2.98017e-07,-1.22724e-07,0.00403022,0.0282391,0.000107287,0.0269666,3,1971
12,3.85778e-22,2,5483,44.42,-1.88471e-06,1.19138e-05,-2.56274e-08,1.2062e-05,42.5,-34.07,-165.31,500000,500000,-1.10843e-07,2.69659e-07,-5.2431e-08,0.00596324,0.0368498,0.00165605,0.0339034,3,1972
12,4.13839e-22,2,5484,44.42,-2.00266e-06,1.17962e-05,-1.49359e-08,1.1965e-05,44,-34.07,-165.31,500000,500000,-1.16137e-07,2.6407e-07,-3.06683e-08,0.00727631,0.0406845,0.00105585,0.0370505,3,1973
12,4.91339e-22,2,5485,44.42,-2.11699e-06,1.16943e-05,-2.38417e-08,1.18844e-05,46.0625,-34.07,-165.31,2.43744e+06,593750,-9.54321e-08,2.52529e-07,-4.68581e-08,0.00609168,0.0419966,-0.000402488,0.0403346,3,1974
12,6.72174e-22,1,5486,130.6,-2.19352e-06,1.16773e-05,-3.04347e-08,1.18816e-05,50.875,117.2,-48.36,6.95813e+06,812500,-6.30357e-08,2.11446e-07,-6.0069e-08,0.00341608,0.0390926,-0.00121577,0.0392046,2,3510
12,8.01341e-22,1,5487,130.6,-2.24306e-06,1.1747e-05,-2.86104e-08,1.19593e-05,54.3125,117.2,-48.36,1.01872e+07,968750,-4.98022e-08,1.89538e-07,-5.82847e-08,0.00296458,0.0368278,0.000239991,0.0355952,2,3511
12,8.27175e-22,1,5488,130.6,-2.29313e-06,1.1833e-05,-2.98975e-08,1.20532e-05,55,117.2,-48.36,1.0833e+07,1e+06,-5.0873e-08,1.91182e-07,-5.93385e-08,0.00288993,0.0369473,0.000299396,0.035427,2,3512
12,8.27175e-22,1,5489,130.6,-2.3448e-06,1.19182e-05,-2.97647e-08,1.21467e-05,55,117.2,-48.36,1.0833e+07,1e+06,-5.22852e-08,1.90288e-07,-5.96433e-08,0.00237,0.0364711,1.36743e-06,0.0353543,2,3513
12,8.27175e-22,1,5490,130.6,-2.3977e-06,1.20042e-05,-2.94452e-08,1.22414e-05,55,117.2,-48.36,1.0833e+07,1e+06,-5.34658e-08,1.88957e-07,-5.88553e-08,0.00192349,0.0360568,7.89267e-06,0.035141,2,3514
12,8.27175e-22,1,5491,130.6,-2.45173e-06,1.20897e-05,-2.87832e-08,1.23358e-05,55,117.2,-48.36,1.0833e+07,1e+06,-5.42366e-08,1.85897e-07,-5.75526e-08,0.00142596,0.0353162,-7.061e-06,0.0346404,2,3515
12,8.27175e-22,1,5492,130.6,-2.50617e-06,1.21732e-05,-2.78485e-08,1.24285e-05,55,117.2,-48.36,1.0833e+07,1e+06,-5.41275e-08,1.81077e-07,-5.57005e-08,0.00102232,0.0342939,1.78203e-06,0.0338055,2,3516
12,8.27175e-22,1,5493,130.6,-2.55999e-06,1.2253e-05,-2.65067e-08,1.25176e-05,55,117.2,-48.36,1.0833e+07,1e+06,-5.29522e-08,1.73557e-07,-5.30864e-08,0.000667438,0.0328098,-8.45167e-06,0.0325009,2,3517
12,8.27175e-22,1,5494,130.6,-2.61208e-06,1.23265e-05,-2.51512e-08,1.26003e-05,55,117.2,-48.36,1.0833e+07,1e+06,-5.13926e-08,1.63632e-07,-5.03162e-08,0.000134581,0.0308079,-0.000247632,0.0308846,2,3518
12,7.84974e-22,1,5495,130.6,-2.66277e-06,1.23932e-05,-2.30199e-08,1.26761e-05,60.625,117.2,-48.36,1.01872e+07,968750,-5.43324e-08,1.52988e-07,-4.57763e-08,-0.000677609,0.0264904,0.000216359,0.0271911,2,3519
12,7.00573e-22,1,5496,91.26,-2.72074e-06,1.2418e-05,-2.60593e-08,1.27126e-05,71.875,-49.63,-179.82,8.89556e+06,906250,-6.25056e-08,1.54004e-07,-5.20972e-08,-0.00142285,0.020484,-0.000210965,0.0220157,2,3520
12,6.58373e-22,1,5497,91.26,-2.78779e-06,1.23922e-05,-3.15003e-08,1.27019e-05,77.5,-49.63,-179.82,8.24975e+06,875000,-6.84541e-08,1.67191e-07,-6.32065e-08,-0.00139727,0.0187897,-0.000886623,0.0204325,2,3521
12,6.58373e-22,1,5498,91.26,-2.85765e-06,1.2349e-05,-3.32796e-08,1.26754e-05,77.5,-49.63,-179.82,8.24975e+06,875000,-6.99037e-08,1.78135e-07,-6.66395e-08,-0.000761061,0.0205412,-0.000430602,0.0216476,2,3522
12,6.58373e-22,1,5499,91.26,-2.92759e-06,1.22957e-05,-3.53478e-08,1.26395e-05,77.5,-49.63,-179.82,8.24975e+06,875000,-6.79726e-08,1.84604e-07,-7.04804e-08,0.000217645,0.021711,-0.000464977,0.0224042,2,3523
12,6.87444e-22,1,5500,91.26,-2.99359e-06,1.22308e-05,-3.55839e-08,1.25919e-05,78.375,-49.63,-179.82,8.89556e+06,906250,-6.3512e-08,1.89368e-07,-7.07573e-08,0.00195273,0.0239479,0.000307528,0.0233795,2,3524
12,7.45586e-22,1,5501,91.26,-3.05462e-06,1.21656e-05,-3.40773e-08,1.25433e-05,80.125,-49.63,-179.82,1.01872e+07,968750,-5.94128e-08,1.89094e-07,-6.83679e-08,0.0031657,0.0257556,0.00112119,0.0238733,2,3525
12,7.74657e-22,1,5502,91.26,-3.11242e-06,1.21057e-05,-3.4131e-08,1.24995e-05,81,-49.63,-179.82,1.0833e+07,1e+06,-5.79408e-08,1.88689e-07,-6.90947e-08,0.00344152,0.0261498,0.000970095,0.0240511,2,3526
12,7.74657e-22,1,5503,91.26,-3.1705e-06,1.20432e-05,-3.66463e-08,1.24536e-05,81,-49.63,-179.82,1.0833e+07,1e+06,-5.91597e-08,1.97323e-07,-7.35584e-08,0.0039103,0.0273671,0.000747121,0.0252569,2,3527
12,7.74657e-22,1,5504,91.26,-3.23074e-06,1.19813e-05,-3.96337e-08,1.24093e-05,81,-49.63,-179.82,1.0833e+07,1e+06,-6.10113e-08,2.06993e-07,-7.87836e-08,0.00430435,0.0286318,0.000373699,0.026565,2,3528
12,7.74657e-22,1,5505,91.26,-3.29252e-06,1.19256e-05,-4.17894e-08,1.23718e-05,81,-49.63,-179.82,1.0833e+07,1e+06,-6.31859e-08,2.15408e-07,-8.31788e-08,0.00450574,0.0296783,4.06843e-05,0.0277291,2,3529
12,7.74657e-22,1,5506,91.26,-3.35711e-06,1.18778e-05,-4.38845e-08,1.23432e-05,81,-49.63,-179.82,1.0833e+07,1e+06,-6.69028e-08,2.26973e-07,-8.77096e-08,0.00465621,0.0312179,-5.38062e-06,0.0292072,2,3530
12,7.74657e-22,1,5507,91.26,-3.42633e-06,1.18386e-05,-4.5815e-08,1.23246e-05,81,-49.63,-179.82,1.0833e+07,1e+06,-7.09735e-08,2.38185e-07,-9.17745e-08,0.00468066,0.0326898,2.34145e-05,0.0306414,2,3531
12,7.74657e-22,1,5508,91.26,-3.49906e-06,1.18091e-05,-4.72285e-08,1.23167e-05,81,-49.63,-179.82,1.0833e+07,1e+06,-7.32423e-08,2.45595e-07,-9.45125e-08,0.0048149,0.0337104,5.97478e-05,0.0316734,2,3532
12,7.74657e-22,1,5509,91.26,-3.57281e-06,1.17893e-05,-4.82402e-08,1.23189e-05,81,-49.63,-179.82,1.0833e+07,1e+06,-7.35789e-08,2.50102e-07,-9.65216e-08,0.00518508,0.0344232,4.82978e-05,0.0324313,2,3533
12,7.74657e-22,1,5510,91.26,-3.64622e-06,1.17776e-05,-4.8638e-08,1.23292e-05,81,-49.63,-179.82,1.0833e+07,1e+06,-7.35645e-08,2.53995e-07,-9.72728e-08,0.00569092,0.0352027,0.000327502,0.0330106,2,3534
12,6.90657e-22,1,5511,91.26,-3.71994e-06,1.17711e-05,-5.0494e-08,1.2345e-05,80.25,-49.63,-179.82,8.89556e+06,906250,-7.46728e-08,2.60469e-07,-1.00801e-07,0.005871,0.0354704,-0.000416657,0.0344794,2,3535
12,4.94658e-22,2,5512,132.37,-3.79556e-06,1.17595e-05,-4.9706e-08,1.2357e-05,78.5,120.16,96.49,4.37488e+06,687500,-7.84228e-08,2.65204e-07,-1.00096e-07,0.00583269,0.0334266,-0.000531571,0.0332434,3,1975
12,3.54659e-22,2,5513,132.37,-3.87679e-06,1.17431e-05,-5.00933e-08,1.23666e-05,77.25,120.16,96.49,1.14581e+06,531250,-8.41484e-08,2.70374e-07,-9.98299e-08,0.00567042,0.031001,-0.000150576,0.0303447,3,1976
12,3.54659e-22,2,5514,132.37,-3.96386e-06,1.17278e-05,-5.168e-08,1.23796e-05,77.25,120.16,96.49,1.14581e+06,531250,-8.82656e-08,2.78095e-07,-1.02335e-07,0.00544712,0.0316432,-0.00011464,0.0310651,3,1977
12,4.66658e-22,2,5515,132.37,-4.05332e-06,1.17185e-05,-4.77048e-08,1.23998e-05,78.25,120.16,96.49,3.72906e+06,656250,-8.97926e-08,2.79283e-07,-9.66004e-08,0.00500799,0.0345425,0.00121004,0.0337149,3,1978
12,6.01389e-22,1,5516,91.26,-4.14344e-06,1.17243e-05,-4.58128e-08,1.2435e-05,80.5625,-49.63,-179.82,7.60394e+06,843750,-8.69059e-08,2.69822e-07,-9.20213e-08,0.00402531,0.037464,0.00106205,0.0365201,2,3536
12,6.46852e-22,1,5517,91.26,-4.22713e-06,1.17115e-05,-4.38589e-08,1.24511e-05,83.1875,-49.63,-179.82,1.01872e+07,968750,-7.88052e-08,2.48378e-07,-8.6224e-08,0.00331649,0.0376675,-1.31341e-05,0.0368861,2,3537
12,5.75046e-22,1,5518,91.26,-4.30105e-06,1.16471e-05,-3.45256e-08,1.2416e-05,85.875,-49.63,-179.82,1.0833e+07,1e+06,-6.8347e-08,2.15992e-07,-6.86538e-08,0.0028571,0.0364758,-0.000177441,0.0364452,2,3538
12,5.33268e-22,1,5519,118.57,-4.36382e-06,1.15173e-05,-2.20524e-08,1.23164e-05,94.6875,73.1,-29.9,1.0833e+07,1e+06,-5.26313e-08,1.75862e-07,-4.54368e-08,0.00231223,0.0360427,0.000207221,0.036874,2,3539
12,6.49325e-22,1,5520,137.15,-4.40632e-06,1.1384e-05,-1.83297e-08,1.2207e-05,107.438,109.19,-42.07,1.0833e+07,1e+06,-3.68513e-08,1.51432e-07,-3.70634e-08,0.00174979,0.0362865,0.000388616,0.0376239,2,3540
12,7.40621e-22,1,5521,137.15,-4.43753e-06,1.12966e-05,-2.13519e-08,1.21369e-05,113,109.19,-42.07,1.0833e+07,1e+06,-3.25971e-08,1.53721e-07,-4.21759e-08,0.00129842,0.0377317,0.000103969,0.0392381,2,3541
12,7.40621e-22,1,5522,137.15,-4.47151e-06,1.12306e-05,-2.28521e-08,1.2088e-05,113,109.19,-42.07,1.0833e+07,1e+06,-3.47842e-08,1.60724e-07,-4.56306e-08,0.0010212,0.0387729,1.46715e-05,0.040016,2,3542
12,7.40621e-22,1,5523,137.15,-4.50709e-06,1.11835e-05,-2.35491e-08,1.20576e-05,113,109.19,-42.07,1.0833e+07,1e+06,-3.5637e-08,1.62527e-07,-4.70905e-08,0.000833699,0.0387093,1.34948e-05,0.0396948,2,3543
12,7.40621e-22,1,5524,137.15,-4.54279e-06,1.11503e-05,-2.39892e-08,1.20402e-05,113,109.19,-42.07,1.0833e+07,1e+06,-3.57288e-08,1.62315e-07,-4.79839e-08,0.000734931,0.0382322,-4.04063e-06,0.0389867,2,3544
12,7.40621e-22,1,5525,137.15,-4.57855e-06,1.11308e-05,-2.43831e-08,1.20357e-05,113,109.19,-42.07,1.0833e+07,1e+06,-3.60019e-08,1.61904e-07,-4.87671e-08,0.000571726,0.0376751,-1.1251e-05,0.0382396,2,3545
12,7.40621e-22,1,5526,137.15,-4.61479e-06,1.11252e-05,-2.48765e-08,1.20444e-05,113,109.19,-42.07,1.0833e+07,1e+06,-3.68044e-08,1.62357e-07,-4.9752e-08,0.000314333,0.037279,-1.91822e-05,0.0377315,2,3546
12,7.40621e-22,1,5527,137.15,-4.65216e-06,1.11342e-05,-2.55403e-08,1.2067e-05,113,109.19,-42.07,1.0833e+07,1e+06,-3.8341e-08,1.64303e-07,-5.10793e-08,-5.14632e-05,0.0371966,-2.60059e-05,0.0376353,2,3547
12,7.40621e-22,1,5528,137.15,-4.69147e-06,1.11582e-05,-2.63877e-08,1.21043e-05,113,109.19,-42.07,1.0833e+07,1e+06,-4.06817e-08,1.67991e-07,-5.27755e-08,-0.000526174,0.0375025,-3.02808e-05,0.038034,2,3548
12,7.40621e-22,1,5529,137.15,-4.73352e-06,1.11972e-05,-2.73754e-08,1.21567e-05,113,109.19,-42.07,1.0833e+07,1e+06,-4.37468e-08,1.73288e-07,-5.47533e-08,-0.00109195,0.0381944,-3.05601e-05,0.0389168,2,3549
12,7.40621e-22,1,5530,137.15,-4.77896e-06,1.12507e-05,-2.84206e-08,1.22236e-05,113,109.19,-42.07,1.0833e+07,1e+06,-4.73097e-08,1.79667e-07,-5.68463e-08,-0.00171712,0.039175,-2.71341e-05,0.0401622,2,3550
12,7.40621e-22,1,5531,137.15,-4.82814e-06,1.13174e-05,-2.94358e-08,1.23043e-05,113,109.19,-42.07,1.0833e+07,1e+06,-5.102e-08,1.86292e-07,-5.88765e-08,-0.00236067,0.0402515,-2.16538e-05,0.0415431,2,3551
12,7.40621e-22,1,5532,137.15,-4.881e-06,1.13964e-05,-3.03421e-08,1.23977e-05,113,109.19,-42.07,1.0833e+07,1e+06,-5.43659e-08,1.9205e-07,-6.06752e-08,-0.00295883,0.0411409,-9.19302e-06,0.0427283,2,3552
12,7.40621e-22,1,5533,137.15,-4.93688e-06,1.14874e-05,-3.09664e-08,1.25034e-05,113,109.19,-42.07,1.0833e+07,1e+06,-5.65213e-08,1.95162e-07,-6.19164e-08,-0.00340244,0.0414157,1.90539e-05,0.0432237,2,3553
12,7.40621e-22,1,5534,137.15,-4.99405e-06,1.15897e-05,-3.09214e-08,1.26199e-05,113,109.19,-42.07,1.0833e+07,1e+06,-5.64301e-08,1.92905e-07,-6.18542e-08,-0.00356992,0.0405104,4.8579e-05,0.0424101,2,3554
12,7.40621e-22,1,5535,137.15,-5.04974e-06,1.16984e-05,-2.98669e-08,1.27418e-05,113,109.19,-42.07,1.0833e+07,1e+06,-5.35697e-08,1.83771e-07,-5.97563e-08,-0.00339099,0.0382649,4.55614e-05,0.0401014,2,3555
12,7.40621e-22,1,5536,137.15,-5.10119e-06,1.18036e-05,-2.79938e-08,1.28588e-05,113,109.19,-42.07,1.0833e+07,1e+06,-4.88293e-08,1.70703e-07,-5.59982e-08,-0.00289558,0.0355444,5.30247e-06,0.037144,2,3556
12,7.40621e-22,1,5537,137.15,-5.14739e-06,1.18943e-05,-2.59766e-08,1.29604e-05,113,109.19,-42.07,1.0833e+07,1e+06,-4.41876e-08,1.5933e-07,-5.1946e-08,-0.00226224,0.0336258,-3.70795e-05,0.0348813,2,3557
12,7.40621e-22,1,5538,137.15,-5.18956e-06,1.19647e-05,-2.45393e-08,1.30417e-05,113,109.19,-42.07,1.0833e+07,1e+06,-4.14528e-08,1.53873e-07,-4.90547e-08,-0.00175013,0.0332193,-5.8877e-05,0.0342254,2,3558
12,7.40621e-22,1,5539,137.15,-5.2303e-06,1.20167e-05,-2.41483e-08,1.31056e-05,113,109.19,-42.07,1.0833e+07,1e+06,-4.13715e-08,1.55701e-07,-4.82693e-08,-0.00151941,0.0343109,-4.5721e-05,0.0352819,2,3559
12,7.40621e-22,1,5540,137.15,-5.2723e-06,1.20585e-05,-2.4748e-08,1.31608e-05,113,109.19,-42.07,1.0833e+07,1e+06,-4.33303e-08,1.62574e-07,-4.94925e-08,-0.00157643,0.0361565,-4.87682e-06,0.0372228,2,3560
12,7.40621e-22,1,5541,137.15,-5.31696e-06,1.21005e-05,-2.59041e-08,1.32172e-05,113,109.19,-42.07,1.0833e+07,1e+06,-4.59648e-08,1.70375e-07,-5.18318e-08,-0.00182185,0.0377767,2.21296e-05,0.0389456,2,3561
12,7.40621e-22,1,5542,137.15,-5.36423e-06,1.21499e-05,-2.72434e-08,1.32814e-05,113,109.19,-42.07,1.0833e+07,1e+06,-4.83245e-08,1.76648e-07,-5.44852e-08,-0.00214128,0.0387378,5.04082e-06,0.0399958,2,3562
12,7.40621e-22,1,5543,137.15,-5.41361e-06,1.22101e-05,-2.8541e-08,1.33564e-05,113,109.19,-42.07,1.0833e+07,1e+06,-5.03237e-08,1.81023e-07,-5.70999e-08,-0.00251686,0.0391022,-0.000102234,0.0405221,2,3563
12,7.40621e-22,1,5544,137.15,-5.46488e-06,1.22812e-05,-2.92466e-08,1.34423e-05,113,109.19,-42.07,1.0833e+07,1e+06,-5.06512e-08,1.8337e-07,-5.83801e-08,-0.00246956,0.0391976,0.000121296,0.0404449,2,3564
12,7.40621e-22,1,5545,137.15,-5.51491e-06,1.23616e-05,-2.90076e-08,1.3536e-05,113,109.19,-42.07,1.0833e+07,1e+06,-4.81599e-08,1.78917e-07,-5.81667e-08,-0.00211426,0.0377993,0.000297921,0.0388133,2,3565
12,7.40621e-22,1,5546,137.15,-5.5612e-06,1.24548e-05,-2.98963e-08,1.364e-05,113,109.19,-42.07,1.0833e+07,1e+06,-4.47917e-08,1.74058e-07,-5.97083e-08,-0.00171385,0.0362057,-1.21235e-05,0.0372479,2,3566
12,7.34049e-22,1,5547,137.15,-5.60449e-06,1.25606e-05,-3.10088e-08,1.37543e-05,114.5,109.19,-42.07,1.0833e+07,1e+06,-3.60624e-08,1.74123e-07,-6.16941e-08,-0.0008058,0.0376832,0.000977294,0.0381178,2,3567
12,7.18713e-22,1,5548,9.52002,-5.63333e-06,1.26311e-05,-3.58474e-08,1.38304e-05,118,63.66,-15.5,1.0833e+07,1e+06,-1.88114e-08,1.65474e-07,-7.21357e-08,-0.00130552,0.0373811,0.000867306,0.0383945,2,3568
12,7.07758e-22,1,5549,9.52003,-5.64212e-06,1.26526e-05,-4.28925e-08,1.38536e-05,120.5,63.66,-15.5,1.0833e+07,1e+06,-4.07918e-09,1.56161e-07,-8.60068e-08,-0.00206756,0.0352205,-0.000399583,0.0370555,2,3569
12,7.05568e-22,1,5550,9.52003,-5.64148e-06,1.26647e-05,-4.43155e-08,1.38645e-05,121,63.66,-15.5,1.0833e+07,1e+06,2.23331e-09,1.52538e-07,-8.84108e-08,-0.0012511,0.0344007,-0.000254821,0.035555,2,3570
12,7.05568e-22,1,5551,9.52003,-5.63765e-06,1.26735e-05,-4.30326e-08,1.38709e-05,121,63.66,-15.5,1.0833e+07,1e+06,4.43894e-09,1.47357e-07,-8.60003e-08,-0.000559174,0.033255,-8.13226e-05,0.0338725,2,3571
12,7.05568e-22,1,5552,9.52003,-5.63261e-06,1.26719e-05,-4.21686e-08,1.38674e-05,121,63.66,-15.5,1.0833e+07,1e+06,5.27884e-09,1.43936e-07,-8.43232e-08,-0.000215908,0.0324183,-3.585e-05,0.0327167,2,3572
12,7.05568e-22,1,5553,9.52003,-5.62709e-06,1.26569e-05,-4.19405e-08,1.38514e-05,121,63.66,-15.5,1.0833e+07,1e+06,5.49855e-09,1.43044e-07,-8.38733e-08,-4.11816e-05,0.0321277,-3.01992e-05,0.0322382,2,3573
12,7.05568e-22,1,5554,9.52003,-5.62161e-06,1.26286e-05,-4.22445e-08,1.38234e-05,121,63.66,-15.5,1.0833e+07,1e+06,5.32648e-09,1.44447e-07,-8.44793e-08,1.74004e-05,0.0323692,-2.03251e-05,0.0323926,2,3574
12,7.05568e-22,1,5555,9.52003,-5.61644e-06,1.25899e-05,-4.28077e-08,1.37859e-05,121,63.66,-15.5,1.0833e+07,1e+06,5.07318e-09,1.4737e-07,-8.56304e-08,4.43357e-05,0.0330223,5.24135e-05,0.0329776,2,3575
12,5.69008e-22,1,5556,71.87,-3.84424e-08,1.0418e-05,-2.86684e-08,1.04181e-05,27,-131.18,-164.33,1.0833e+07,1e+06,-7.66483e-08,2.00713e-07,-5.73521e-08,-0.00158279,0.0338469,0.00080514,0.0345947,2,3576
12,5.69008e-22,1,5557,71.87,-1.14854e-07,1.04773e-05,-3.05723e-08,1.0478e-05,27,-131.18,-164.33,1.0833e+07,1e+06,-7.584e-08,1.9971e-07,-6.11217e-08,-0.00135216,0.0331768,-0.000720619,0.0343764,2,3577
12,5.69008e-22,1,5558,71.87,-1.90122e-07,1.05252e-05,-2.82656e-08,1.05269e-05,27,-131.18,-164.33,1.0833e+07,1e+06,-7.40267e-08,1.94929e-07,-5.6587e-08,-0.00107826,0.0329586,7.10021e-07,0.0338278,2,3578
12,5.69008e-22,1,5559,71.87,-2.62907e-07,1.05623e-05,-2.68094e-08,1.05656e-05,27,-131.18,-164.33,1.0833e+07,1e+06,-7.07332e-08,1.86516e-07,-5.33488e-08,-0.000978125,0.0318376,8.88171e-05,0.032789,2,3579
12,5.69008e-22,1,5560,71.87,-3.31589e-07,1.05913e-05,-2.48084e-08,1.05965e-05,27,-131.18,-164.33,1.0833e+07,1e+06,-6.6423e-08,1.7458e-07,-4.91395e-08,-0.000927084,0.0299181,0.000263527,0.0307991,2,3580
12,5.69008e-22,1,5561,71.87,-3.95753e-07,1.06207e-05,-2.2478e-08,1.06281e-05,27,-131.18,-164.33,1.0833e+07,1e+06,-6.39825e-08,1.64396e-07,-4.50097e-08,-0.00115111,0.0280251,0.000589726,0.0287945,2,3581
12,5.42755e-22,1,5562,71.87,-4.59554e-07,1.06583e-05,-2.28402e-08,1.06682e-05,26.5,-131.18,-164.33,1.01872e+07,968750,-6.7784e-08,1.67636e-07,-4.59274e-08,-0.00145788,0.0271053,0.000710947,0.0279834,2,3582
12,4.90249e-22,1,5563,71.87,-5.31321e-07,1.07099e-05,-2.59857e-08,1.07231e-05,25.5,-131.18,-164.33,8.89556e+06,906250,-7.5266e-08,1.80857e-07,-5.21797e-08,-0.00167406,0.0259329,0.000675826,0.0269863,2,3583
12,4.63996e-22,1,5564,71.87,-6.10086e-07,1.079e-05,-2.86566e-08,1.08073e-05,25,-131.18,-164.33,8.24975e+06,875000,-7.83155e-08,1.90645e-07,-5.74829e-08,-0.00146079,0.0255435,0.000762303,0.0263654,2,3584
12,4.63996e-22,1,5565,71.87,-6.87952e-07,1.09005e-05,-3.02074e-08,1.09222e-05,25,-131.18,-164.33,8.24975e+06,875000,-7.5498e-08,1.94135e-07,-6.04941e-08,-0.00059473,0.026328,0.000712562,0.0266284,2,3585
12,4.63996e-22,1,5566,71.87,-7.61082e-07,1.10337e-05,-3.13516e-08,1.106e-05,25,-131.18,-164.33,8.24975e+06,875000,-6.99767e-08,1.94244e-07,-6.28373e-08,0.000664551,0.026738,0.000652174,0.026411,2,3586
12,4.63996e-22,1,5567,71.87,-8.27906e-07,1.11943e-05,-3.3121e-08,1.12249e-05,25,-131.18,-164.33,8.24975e+06,875000,-6.50307e-08,1.94502e-07,-6.65668e-08,0.00176361,0.0268001,0.000349623,0.0262342,2,3587
12,4.90249e-22,1,5568,71.87,-8.91144e-07,1.13938e-05,-3.37728e-08,1.14286e-05,25.5,-131.18,-164.33,8.89556e+06,906250,-6.32219e-08,2.00129e-07,-6.75148e-08,0.00282344,0.0294671,0.000559093,0.0284416,2,3588
12,5.42755e-22,1,5569,71.87,-9.5435e-07,1.16201e-05,-3.24325e-08,1.16593e-05,26.5,-131.18,-164.33,1.01872e+07,968750,-6.15586e-08,2.04578e-07,-6.44606e-08,0.00377213,0.0334644,0.00123199,0.0315953,2,3589
12,5.55343e-22,1,5570,71.87,-1.01426e-06,1.18385e-05,-2.87943e-08,1.18819e-05,30.75,-131.18,-164.33,1.0833e+07,1e+06,-5.02713e-08,1.94468e-07,-5.75004e-08,0.00371786,0.038631,0.000626379,0.0374632,2,3590
12,5.28013e-22,1,5571,125.44,-1.05489e-06,1.20043e-05,-2.03616e-08,1.20506e-05,38.25,67.45,-41.35,1.0833e+07,1e+06,-3.4741e-08,1.78509e-07,-4.11761e-08,0.00461739,0.0457255,0.000511418,0.0441444,2,3591
12,5.14349e-22,1,5572,125.44,-1.08374e-06,1.21231e-05,-1.57118e-08,1.21714e-05,42,67.45,-41.35,1.0833e+07,1e+06,-3.08265e-08,1.74936e-07,-3.13314e-08,0.00553762,0.0495097,0.000856468,0.0468076,2,3592
12,5.14349e-22,1,5573,125.44,-1.11655e-06,1.22399e-05,-1.693e-08,1.22907e-05,42,67.45,-41.35,1.0833e+07,1e+06,-2.98735e-08,1.76459e-07,-3.29708e-08,0.00550328,0.0500651,0.000750179,0.0476309,2,3593
12,5.01051e-22,1,5574,125.44,-1.14349e-06,1.23851e-05,-1.90126e-08,1.24378e-05,41.75,67.45,-41.35,1.01872e+07,968750,-2.31817e-08,1.68663e-07,-3.79741e-08,0.00590874,0.0460422,0.000662063,0.0441031,2,3594
12,4.47863e-22,1,5575,125.44,-1.16291e-06,1.2552e-05,-2.92126e-08,1.26058e-05,40.75,67.45,-41.35,7.60394e+06,843750,-2.7039e-08,1.76328e-07,-6.06634e-08,0.00555025,0.0363788,-0.000404732,0.0357468,2,3595
12,3.68081e-22,2,5576,95.55,-1.19757e-06,1.26537e-05,-5.18324e-08,1.27103e-05,39.25,20.95,172.44,3.72906e+06,656250,-5.10892e-08,2.29305e-07,-1.03631e-07,0.00522792,0.0279602,-0.000558356,0.0273541,3,1979
12,3.14892e-22,2,5577,95.55,-1.26509e-06,1.2649e-05,-7.21467e-08,1.27123e-05,38.25,20.95,172.44,1.14581e+06,531250,-7.64387e-08,2.85191e-07,-1.41651e-07,0.00482612,0.0236924,-0.000271098,0.0224127,3,1980
12,3.01595e-22,2,5578,95.55,-1.35045e-06,1.25977e-05,-7.83729e-08,1.26701e-05,38,20.95,172.44,500000,500000,-8.62664e-08,3.04792e-07,-1.56788e-07,0.00413931,0.0222984,-0.000631315,0.0210846,3,1981
12,3.01595e-22,2,5579,95.55,-1.43762e-06,1.25429e-05,-7.87705e-08,1.26253e-05,38,20.95,172.44,500000,500000,-8.70129e-08,3.08546e-07,-1.58466e-07,0.00411919,0.0227036,-0.00046058,0.0212549,3,1982
12,3.01595e-22,2,5580,95.55,-1.52447e-06,1.24877e-05,-7.88374e-08,1.25807e-05,38,20.95,172.44,500000,500000,-8.51802e-08,3.07372e-07,-1.57501e-07,0.00427911,0.0228952,-0.000133602,0.0211663,3,1983
12,3.01595e-22,2,5581,95.55,-1.60798e-06,1.24325e-05,-7.91177e-08,1.25363e-05,38,20.95,172.44,500000,500000,-8.08823e-08,3.02269e-07,-1.59429e-07,0.00405797,0.0224395,-0.000598831,0.0211332,3,1984
12,3.08611e-22,2,5582,95.55,-1.68624e-06,1.23822e-05,-7.82127e-08,1.24968e-05,38.375,20.95,172.44,500000,500000,-8.15217e-08,2.97942e-07,-1.56217e-07,0.00360591,0.02309,-0.0015307,0.0226762,3,1985
12,3.43687e-22,2,5583,95.55,-1.77102e-06,1.23078e-05,-5.47084e-08,1.24347e-05,40.25,20.95,172.44,500000,500000,-9.35813e-08,2.83844e-07,-1.07782e-07,0.00464499,0.029693,0.000139002,0.0284273,3,1986
12,3.92793e-22,2,5584,44.42,-1.8734e-06,1.21851e-05,-2.50394e-08,1.23283e-05,42.875,-34.07,-165.31,500000,500000,-1.08008e-07,2.63727e-07,-5.046e-08,0.00612516,0.036971,0.000902399,0.0345591,3,1987
12,4.13839e-22,2,5585,44.42,-1.98704e-06,1.20562e-05,-1.61279e-08,1.22188e-05,44,-34.07,-165.31,500000,500000,-1.13718e-07,2.56541e-07,-3.21748e-08,0.00676628,0.0391531,0.000331554,0.036164,3,1988
12,4.39672e-22,2,5586,44.42,-2.10083e-06,1.19497e-05,-1.77277e-08,1.2133e-05,44.6875,-34.07,-165.31,1.14581e+06,531250,-1.03797e-07,2.55638e-07,-3.64007e-08,0.00686196,0.041189,0.000742813,0.0382631,3,1989
12,5.6884e-22,2,5587,44.42,-2.19463e-06,1.18967e-05,-2.6826e-08,1.20974e-05,48.125,-34.07,-165.31,4.37488e+06,687500,-7.73374e-08,2.27145e-07,-5.3662e-08,0.00410915,0.0397668,-0.00106722,0.0395847,3,1990
12,7.49674e-22,1,5588,130.6,-2.25551e-06,1.19371e-05,-3.06594e-08,1.21484e-05,52.9375,117.2,-48.36,8.89556e+06,906250,-5.39239e-08,1.93426e-07,-6.05497e-08,0.00268708,0.0364995,-0.000912982,0.0363469,2,3596
12,8.27175e-22,1,5589,130.6,-2.30248e-06,1.20237e-05,-2.93644e-08,1.22422e-05,55,117.2,-48.36,1.0833e+07,1e+06,-4.85219e-08,1.889e-07,-5.91674e-08,0.0034078,0.0364326,0.000415355,0.0346328,2,3597
12,8.27175e-22,1,5590,130.6,-2.35255e-06,1.21085e-05,-3.01709e-08,1.2335e-05,55,117.2,-48.36,1.0833e+07,1e+06,-5.13366e-08,1.90942e-07,-6.02732e-08,0.00272907,0.0365341,6.1344e-05,0.0352352,2,3598
12,8.27175e-22,1,5591,130.6,-2.40515e-06,1.21936e-05,-2.97219e-08,1.24286e-05,55,117.2,-48.36,1.0833e+07,1e+06,-5.29268e-08,1.89624e-07,-5.94592e-08,0.00215937,0.0361001,2.70321e-05,0.0350789,2,3599
12,8.27175e-22,1,5592,130.6,-2.45841e-06,1.22758e-05,-2.90518e-08,1.25196e-05,55,117.2,-48.36,1.0833e+07,1e+06,-5.31279e-08,1.86128e-07,-5.81183e-08,0.00178152,0.0353333,3.81615e-06,0.0344958,2,3600
12,8.27175e-22,1,5593,130.6,-2.51141e-06,1.23543e-05,-2.81864e-08,1.2607e-05,55,117.2,-48.36,1.0833e+07,1e+06,-5.26396e-08,1.81044e-07,-5.63422e-08,0.00145154,0.0342909,-2.12816e-05,0.0336199,2,3601
12,8.27175e-22,1,5594,130.6,-2.56369e-06,1.24271e-05,-2.70243e-08,1.26889e-05,55,117.2,-48.36,1.0833e+07,1e+06,-5.15093e-08,1.7433e-07,-5.41213e-08,0.00113276,0.0329976,-7.64146e-05,0.0325075,2,3602
12,8.27175e-22,1,5595,130.6,-2.61443e-06,1.24914e-05,-2.58357e-08,1.27621e-05,55,117.2,-48.36,1.0833e+07,1e+06,-4.84947e-08,1.64755e-07,-5.14195e-08,0.00106307,0.0312685,-0.000190041,0.0308657,2,3603
12,8.14046e-22,1,5596,130.6,-2.66067e-06,1.25445e-05,-2.25875e-08,1.28235e-05,61.5,117.2,-48.36,1.0833e+07,1e+06,-4.64739e-08,1.49082e-07,-4.48882e-08,0.000985927,0.0268589,0.00076674,0.0262752,2,3604
12,7.87787e-22,1,5597,91.26,-2.70738e-06,1.25615e-05,-2.29552e-08,1.285e-05,74.5,-49.63,-179.82,1.0833e+07,1e+06,-4.96969e-08,1.41165e-07,-4.60951e-08,0.000500718,0.02108,0.00091074,0.0207171,2,3605
12,7.74657e-22,1,5598,91.26,-2.76007e-06,1.25421e-05,-2.60341e-08,1.28422e-05,81,-49.63,-179.82,1.0833e+07,1e+06,-5.47888e-08,1.47742e-07,-5.22774e-08,0.00014402,0.0194626,0.000556532,0.0192065,2,3606
12,7.74657e-22,1,5599,91.26,-2.81695e-06,1.2509e-05,-2.68855e-08,1.28223e-05,81,-49.63,-179.82,1.0833e+07,1e+06,-5.818e-08,1.56706e-07,-5.38546e-08,0.000187829,0.0208457,0.00111006,0.0202763,2,3607
12,7.74657e-22,1,5600,91.26,-2.87643e-06,1.24631e-05,-2.87738e-08,1.27908e-05,81,-49.63,-179.82,1.0833e+07,1e+06,-6.0218e-08,1.65304e-07,-5.79873e-08,0.000427061,0.021988,0.000931543,0.0214426,2,3608
12,7.74657e-22,1,5601,91.26,-2.93739e-06,1.24081e-05,-3.16348e-08,1.27511e-05,81,-49.63,-179.82,1.0833e+07,1e+06,-6.15849e-08,1.75968e-07,-6.34908e-08,0.00105291,0.0235081,0.000666234,0.0227967,2,3609
12,7.74657e-22,1,5602,91.26,-2.9996e-06,1.23503e-05,-3.44979e-08,1.27094e-05,81,-49.63,-179.82,1.0833e+07,1e+06,-6.19817e-08,1.8491e-07,-6.85634e-08,0.00178593,0.0248213,0.000341523,0.0239091,2,3610
12,7.74657e-22,1,5603,91.26,-3.06135e-06,1.22943e-05,-3.63023e-08,1.26697e-05,81,-49.63,-179.82,1.0833e+07,1e+06,-6.16722e-08,1.9088e-07,-7.23141e-08,0.00243038,0.0257272,4.42034e-05,0.0247002,2,3611
12,7.74657e-22,1,5604,91.26,-3.12294e-06,1.22407e-05,-3.8064e-08,1.26328e-05,81,-49.63,-179.82,1.0833e+07,1e+06,-6.25678e-08,1.99208e-07,-7.61231e-08,0.00302241,0.0270027,-2.70531e-05,0.0257705,2,3612
12,7.74657e-22,1,5605,91.26,-3.18649e-06,1.21897e-05,-4.00001e-08,1.25993e-05,81,-49.63,-179.82,1.0833e+07,1e+06,-6.49283e-08,2.08914e-07,-8.008e-08,0.00335361,0.0283764,-5.21755e-05,0.0270025,2,3613
12,7.74657e-22,1,5606,91.26,-3.2528e-06,1.21435e-05,-4.17942e-08,1.25717e-05,81,-49.63,-179.82,1.0833e+07,1e+06,-6.75715e-08,2.17868e-07,-8.35421e-08,0.00353676,0.0296062,-5.3219e-05,0.0281154,2,3614
12,7.74657e-22,1,5607,91.26,-3.32163e-06,1.21047e-05,-4.32827e-08,1.25522e-05,81,-49.63,-179.82,1.0833e+07,1e+06,-6.99154e-08,2.25837e-07,-8.65561e-08,0.00370711,0.0307099,-3.25317e-05,0.0290908,2,3615
12,7.74657e-22,1,5608,91.26,-3.39263e-06,1.20738e-05,-4.45762e-08,1.25415e-05,81,-49.63,-179.82,1.0833e+07,1e+06,-7.18212e-08,2.32939e-07,-8.91983e-08,0.00391294,0.0317224,1.48864e-05,0.0299777,2,3616
12,7.74657e-22,1,5609,91.26,-3.46527e-06,1.20509e-05,-4.57672e-08,1.25394e-05,81,-49.63,-179.82,1.0833e+07,1e+06,-7.3056e-08,2.38993e-07,-9.15786e-08,0.00419332,0.0326196,4.64962e-05,0.0307983,2,3617
12,7.74657e-22,1,5610,91.26,-3.53874e-06,1.20362e-05,-4.69577e-08,1.25458e-05,81,-49.63,-179.82,1.0833e+07,1e+06,-7.3951e-08,2.44383e-07,-9.38481e-08,0.00450794,0.0334256,2.90601e-05,0.0316222,2,3618
12,7.74657e-22,1,5611,91.26,-3.61318e-06,1.20299e-05,-4.70174e-08,1.25609e-05,81,-49.63,-179.82,1.0833e+07,1e+06,-7.55824e-08,2.50531e-07,-9.44174e-08,0.00486806,0.0345255,0.000525476,0.032483,2,3619
12,6.62658e-22,1,5612,91.26,-3.68991e-06,1.20328e-05,-5.08595e-08,1.25859e-05,80,-49.63,-179.82,8.24975e+06,875000,-7.84827e-08,2.59584e-07,-1.01618e-07,0.00470052,0.0343929,-0.00111243,0.0344721,2,3620
12,4.38658e-22,2,5613,132.37,-3.77014e-06,1.20294e-05,-5.16691e-08,1.26065e-05,78,120.16,96.49,3.08325e+06,625000,-8.36894e-08,2.69163e-07,-1.02565e-07,0.00510327,0.032201,-0.00113323,0.0326756,3,1991
12,3.26659e-22,2,5614,132.37,-3.85729e-06,1.20198e-05,-4.97495e-08,1.26236e-05,77,120.16,96.49,500000,500000,-9.12641e-08,2.78739e-07,-1.00918e-07,0.00526585,0.0308026,0.000112639,0.0299968,3,1992
12,3.26659e-22,2,5615,132.37,-3.95267e-06,1.20156e-05,-5.48885e-08,1.26492e-05,77,120.16,96.49,500000,500000,-9.78859e-08,2.92678e-07,-1.09824e-07,0.0047474,0.03171,-0.0009406,0.0316513,3,1993
12,3.4939e-22,2,5616,132.37,-4.05306e-06,1.20131e-05,-5.2629e-08,1.26785e-05,78.3125,120.16,96.49,1.79162e+06,562500,-9.46962e-08,2.9274e-07,-1.02867e-07,0.00507065,0.0354444,0.000117261,0.03483,3,1994
12,3.84315e-22,2,5617,132.37,-4.14206e-06,1.1997e-05,-3.95535e-08,1.2692e-05,83.0625,120.16,96.49,5.6665e+06,750000,-7.50649e-08,2.54381e-07,-7.89494e-08,0.00495919,0.0399245,0.000865059,0.0387079,3,1995
12,3.85972e-22,1,5618,118.57,-4.20319e-06,1.19408e-05,-2.77147e-08,1.2659e-05,88.625,73.1,-29.9,9.54137e+06,937500,-5.3708e-08,2.04651e-07,-5.67637e-08,0.00471215,0.0405988,0.000532875,0.0390526,2,3621
12,3.42166e-22,1,5619,118.57,-4.24948e-06,1.18379e-05,-2.04372e-08,1.25775e-05,91.5625,73.1,-29.9,1.0833e+07,1e+06,-4.73456e-08,1.7531e-07,-4.18782e-08,0.00386801,0.0384406,0.000364319,0.0373161,2,3622
12,3.69053e-22,1,5620,118.57,-4.29788e-06,1.16823e-05,-1.643e-08,1.24478e-05,96.75,73.1,-29.9,1.0833e+07,1e+06,-4.66854e-08,1.66652e-07,-3.27194e-08,0.00317313,0.0392278,0.000847241,0.0384568,2,3623
12,5.53774e-22,1,5621,137.15,-4.34285e-06,1.15348e-05,-1.66805e-08,1.23253e-05,105.875,109.19,-42.07,1.0833e+07,1e+06,-4.19232e-08,1.56285e-07,-3.28108e-08,0.0015668,0.0381662,0.00069165,0.0388044,2,3624
12,7.0948e-22,1,5622,137.15,-4.38172e-06,1.14487e-05,-1.9959e-08,1.22585e-05,111.812,109.19,-42.07,1.0833e+07,1e+06,-3.89983e-08,1.51985e-07,-3.98825e-08,-0.000286327,0.0366851,-0.000161347,0.0389118,2,3625
12,7.40621e-22,1,5623,137.15,-4.42085e-06,1.13911e-05,-2.20796e-08,1.22189e-05,113,109.19,-42.07,1.0833e+07,1e+06,-3.93195e-08,1.59956e-07,-4.41918e-08,-0.000309673,0.0382215,-1.86675e-05,0.0400729,2,3626
12,7.40621e-22,1,5624,137.15,-4.46036e-06,1.13454e-05,-2.26442e-08,1.21907e-05,113,109.19,-42.07,1.0833e+07,1e+06,-3.92243e-08,1.6064e-07,-4.52752e-08,-0.000287655,0.0380125,1.76748e-05,0.0395238,2,3627
12,7.40621e-22,1,5625,137.15,-4.49929e-06,1.13117e-05,-2.31249e-08,1.21737e-05,113,109.19,-42.07,1.0833e+07,1e+06,-3.88508e-08,1.60077e-07,-4.62408e-08,-0.000283878,0.0374506,3.33214e-06,0.0386646,2,3628
12,7.40621e-22,1,5626,137.15,-4.53807e-06,1.12917e-05,-2.36079e-08,1.21695e-05,113,109.19,-42.07,1.0833e+07,1e+06,-3.9015e-08,1.59739e-07,-4.72073e-08,-0.000418169,0.036864,-4.00062e-06,0.0378525,2,3629
12,7.40621e-22,1,5627,137.15,-4.57732e-06,1.12867e-05,-2.42234e-08,1.21796e-05,113,109.19,-42.07,1.0833e+07,1e+06,-3.98888e-08,1.6048e-07,-4.84436e-08,-0.000686005,0.0364647,-1.52192e-05,0.0373344,2,3630
12,7.40621e-22,1,5628,137.15,-4.61784e-06,1.12979e-05,-2.50498e-08,1.22052e-05,113,109.19,-42.07,1.0833e+07,1e+06,-4.15925e-08,1.62939e-07,-5.0096e-08,-0.00107597,0.0364195,-2.49971e-05,0.0372887,2,3631
12,7.40621e-22,1,5629,137.15,-4.66051e-06,1.13259e-05,-2.60883e-08,1.22474e-05,113,109.19,-42.07,1.0833e+07,1e+06,-4.4154e-08,1.67367e-07,-5.2176e-08,-0.00157483,0.0368195,-3.19642e-05,0.0378108,2,3632
12,7.40621e-22,1,5630,137.15,-4.70615e-06,1.13707e-05,-2.72687e-08,1.23061e-05,113,109.19,-42.07,1.0833e+07,1e+06,-4.74105e-08,1.73543e-07,-5.45401e-08,-0.00214419,0.0376637,-3.13788e-05,0.038874,2,3633
12,7.40621e-22,1,5631,137.15,-4.75533e-06,1.14309e-05,-2.84614e-08,1.23806e-05,113,109.19,-42.07,1.0833e+07,1e+06,-5.09923e-08,1.80648e-07,-5.69263e-08,-0.00272957,0.0388047,-2.35581e-05,0.0402856,2,3634
12,7.40621e-22,1,5632,137.15,-4.80814e-06,1.15043e-05,-2.95246e-08,1.24687e-05,113,109.19,-42.07,1.0833e+07,1e+06,-5.43606e-08,1.87449e-07,-5.90491e-08,-0.00326187,0.0399732,-1.00798e-05,0.0417202,2,3635
12,7.40621e-22,1,5633,137.15,-4.86405e-06,1.15887e-05,-3.03132e-08,1.25681e-05,113,109.19,-42.07,1.0833e+07,1e+06,-5.68456e-08,1.92431e-07,-6.06186e-08,-0.00365804,0.0408086,1.03619e-05,0.0427575,2,3636
12,7.40621e-22,1,5634,137.15,-4.92183e-06,1.16818e-05,-3.06376e-08,1.26763e-05,113,109.19,-42.07,1.0833e+07,1e+06,-5.77033e-08,1.9379e-07,-6.1268e-08,-0.00383324,0.0408875,3.30869e-05,0.0429238,2,3637
12,7.40621e-22,1,5635,137.15,-4.97946e-06,1.17808e-05,-3.02851e-08,1.279e-05,113,109.19,-42.07,1.0833e+07,1e+06,-5.63837e-08,1.90033e-07,-6.05762e-08,-0.00372892,0.0399092,4.19352e-05,0.0418922,2,3638
12,7.40621e-22,1,5636,137.15,-5.03459e-06,1.18807e-05,-2.91967e-08,1.29034e-05,113,109.19,-42.07,1.0833e+07,1e+06,-5.30159e-08,1.81467e-07,-5.84055e-08,-0.00334682,0.0380441,2.43091e-05,0.0398348,2,3639
12,7.40621e-22,1,5637,137.15,-5.08549e-06,1.19743e-05,-2.76307e-08,1.30095e-05,113,109.19,-42.07,1.0833e+07,1e+06,-4.86214e-08,1.70948e-07,-5.52676e-08,-0.00277028,0.0360211,-9.84354e-06,0.0375125,2,3640
12,7.40621e-22,1,5638,137.15,-5.13184e-06,1.20553e-05,-2.60814e-08,1.31022e-05,113,109.19,-42.07,1.0833e+07,1e+06,-4.46861e-08,1.62349e-07,-5.21619e-08,-0.00216304,0.0346689,-3.74036e-05,0.0358472,2,3641
12,7.40621e-22,1,5639,137.15,-5.17486e-06,1.21212e-05,-2.50344e-08,1.31797e-05,113,109.19,-42.07,1.0833e+07,1e+06,-4.23939e-08,1.58362e-07,-5.00577e-08,-0.0017015,0.0344161,-4.31379e-05,0.035393,2,3642
12,7.40621e-22,1,5640,137.15,-5.21662e-06,1.21746e-05,-2.47454e-08,1.32452e-05,113,109.19,-42.07,1.0833e+07,1e+06,-4.2066e-08,1.59444e-07,-4.94796e-08,-0.00147399,0.035155,-2.41206e-05,0.0360825,2,3643
12,7.40621e-22,1,5641,137.15,-5.25899e-06,1.22219e-05,-2.51471e-08,1.33053e-05,113,109.19,-42.07,1.0833e+07,1e+06,-4.31342e-08,1.63839e-07,-5.02935e-08,-0.00145705,0.0363512,8.74744e-06,0.0373089,2,3644
12,7.40621e-22,1,5642,137.15,-5.30289e-06,1.22701e-05,-2.59657e-08,1.3367e-05,113,109.19,-42.07,1.0833e+07,1e+06,-4.45872e-08,1.68984e-07,-5.19484e-08,-0.00154003,0.0374167,3.56242e-05,0.0383894,2,3645
12,7.40621e-22,1,5643,137.15,-5.34817e-06,1.23247e-05,-2.69949e-08,1.34351e-05,113,109.19,-42.07,1.0833e+07,1e+06,-4.54879e-08,1.73221e-07,-5.39755e-08,-0.00156244,0.0380688,5.50226e-05,0.0389756,2,3646
12,7.40621e-22,1,5644,137.15,-5.39387e-06,1.23887e-05,-2.82326e-08,1.3512e-05,113,109.19,-42.07,1.0833e+07,1e+06,-4.56719e-08,1.75907e-07,-5.67523e-08,-0.00156137,0.0381676,-0.000181293,0.0391058,2,3647
12,7.46643e-22,1,5645,137.15,-5.43951e-06,1.24629e-05,-2.85747e-08,1.35983e-05,112.812,109.19,-42.07,1.0833e+07,1e+06,-4.79893e-08,1.79569e-07,-5.69573e-08,-0.00139579,0.0384024,-1.63255e-05,0.0393387,2,3648
12,7.52664e-22,1,5646,137.15,-5.48985e-06,1.25377e-05,-2.82201e-08,1.36869e-05,112.625,109.19,-42.07,1.0833e+07,1e+06,-5.09242e-08,1.76072e-07,-5.59262e-08,-0.00206277,0.0367393,-0.000363652,0.0384413,2,3649
12,7.46643e-22,1,5647,137.15,-5.54136e-06,1.2626e-05,-2.87868e-08,1.37886e-05,112.812,109.19,-42.07,1.0833e+07,1e+06,-4.91631e-08,1.70606e-07,-5.80401e-08,-0.00281264,0.0350493,-0.000807924,0.0372035,2,3650
12,7.31858e-22,1,5648,137.15,-5.58817e-06,1.27327e-05,-3.10208e-08,1.3905e-05,115,109.19,-42.07,1.0833e+07,1e+06,-3.63099e-08,1.69768e-07,-6.24791e-08,-0.00196798,0.0366846,0.000467206,0.0379171,2,3651
12,7.14331e-22,1,5649,9.52003,-5.61398e-06,1.27942e-05,-3.97573e-08,1.39718e-05,119,63.66,-15.5,1.0833e+07,1e+06,-1.38804e-08,1.62851e-07,-7.88407e-08,-0.00195641,0.0365114,0.000208071,0.0379618,2,3652
12,7.05568e-22,1,5650,9.52003,-5.61593e-06,1.28085e-05,-4.58827e-08,1.39856e-05,121,63.66,-15.5,1.0833e+07,1e+06,1.62366e-10,1.57022e-07,-9.15867e-08,-0.00195864,0.0351258,-0.000650551,0.0367564,2,3653
12,7.05568e-22,1,5651,9.52003,-5.61366e-06,1.28184e-05,-4.43904e-08,1.39938e-05,121,63.66,-15.5,1.0833e+07,1e+06,2.71243e-09,1.54275e-07,-8.92217e-08,-0.0010282,0.0347795,-0.000160274,0.0356607,2,3654
12,7.05568e-22,1,5652,9.52003,-5.61051e-06,1.28224e-05,-4.34693e-08,1.39962e-05,121,63.66,-15.5,1.0833e+07,1e+06,3.72317e-09,1.50118e-07,-8.68991e-08,-0.000643011,0.033858,-3.18515e-05,0.0344103,2,3655
12,7.05568e-22,1,5653,9.52003,-5.60621e-06,1.28176e-05,-4.28666e-08,1.39901e-05,121,63.66,-15.5,1.0833e+07,1e+06,4.62149e-09,1.47128e-07,-8.57107e-08,-0.000339332,0.0331085,-3.40617e-05,0.033424,2,3656
12,7.05568e-22,1,5654,9.52003,-5.60127e-06,1.28016e-05,-4.26452e-08,1.39734e-05,121,63.66,-15.5,1.0833e+07,1e+06,5.03665e-09,1.46029e-07,-8.5285e-08,-0.000143824,0.0327836,-3.24549e-05,0.0329304,2,3657
12,7.05568e-22,1,5655,9.52003,-5.59614e-06,1.27743e-05,-4.28166e-08,1.39464e-05,121,63.66,-15.5,1.0833e+07,1e+06,5.07469e-09,1.46721e-07,-8.563e-08,-5.08622e-05,0.0328747,-2.56372e-05,0.0329316,2,3658
12,7.05568e-22,1,5656,9.52003,-5.59112e-06,1.27378e-05,-4.31852e-08,1.3911e-05,121,63.66,-15.5,1.0833e+07,1e+06,4.96011e-09,1.48604e-07,-8.63747e-08,-5.7177e-06,0.0332856,2.5807e-05,0.0332792,2,3659
12,5.69008e-22,1,5657,71.87,-3.95424e-08,1.0622e-05,-2.96145e-08,1.06221e-05,27,-131.18,-164.33,1.0833e+07,1e+06,-7.85496e-08,2.07617e-07,-5.92265e-08,-0.00143618,0.0351714,0.000884519,0.035841,2,3660
12,5.69008e-22,1,5658,71.87,-1.17557e-07,1.06799e-05,-3.14002e-08,1.06806e-05,27,-131.18,-164.33,1.0833e+07,1e+06,-7.67124e-08,2.05094e-07,-6.28935e-08,-0.00108395,0.0342896,-0.000743252,0.0354254,2,3661
12,5.69008e-22,1,5659,71.87,-1.92967e-07,1.07222e-05,-2.887e-08,1.0724e-05,27,-131.18,-164.33,1.0833e+07,1e+06,-7.3375e-08,1.97703e-07,-5.73882e-08,-0.000632581,0.0337431,7.11968e-05,0.0344247,2,3662
12,5.69008e-22,1,5660,71.87,-2.64307e-07,1.07499e-05,-2.6706e-08,1.07532e-05,27,-131.18,-164.33,1.0833e+07,1e+06,-6.8936e-08,1.86824e-07,-5.28134e-08,-0.000404558,0.032269,0.000392687,0.0328254,2,3663
12,5.42755e-22,1,5661,71.87,-3.30839e-07,1.07659e-05,-2.58665e-08,1.0771e-05,26.5,-131.18,-164.33,1.01872e+07,968750,-6.69723e-08,1.80422e-07,-5.17966e-08,-0.00021581,0.0300111,0.000368735,0.0306243,2,3664
12,4.90249e-22,1,5662,71.87,-3.98251e-07,1.07849e-05,-2.81894e-08,1.07923e-05,25.5,-131.18,-164.33,8.89556e+06,906250,-7.09092e-08,1.89037e-07,-5.7564e-08,-5.30179e-05,0.0278513,0.000494837,0.0283503,2,3665
12,4.11491e-22,1,5663,71.87,-4.72658e-07,1.08351e-05,-3.5626e-08,1.08455e-05,24,-131.18,-164.33,6.95812e+06,812500,-8.24516e-08,2.14553e-07,-7.22916e-08,-3.32149e-05,0.0267989,0.000161929,0.0273664,2,3666
12,3.0648e-22,2,5664,161.73,-5.63154e-07,1.09178e-05,-4.65798e-08,1.09324e-05,22,119.12,126.69,4.37488e+06,687500,-9.65286e-08,2.46665e-07,-9.26763e-08,-4.83322e-05,0.0251638,-0.000300588,0.0259423,3,1996
12,2.53974e-22,2,5665,161.73,-6.65715e-07,1.10166e-05,-5.36098e-08,1.10368e-05,21,119.12,126.69,3.08325e+06,625000,-1.00943e-07,2.6501e-07,-1.06511e-07,0.000192237,0.0241224,-0.000335788,0.0248184,3,1997
12,2.53974e-22,2,5666,161.73,-7.6504e-07,1.11296e-05,-5.57871e-08,1.1156e-05,21,119.12,126.69,3.08325e+06,625000,-9.64241e-08,2.67057e-07,-1.11389e-07,0.000815155,0.0245504,-0.000595655,0.0250698,3,1998
12,2.53974e-22,2,5667,161.73,-8.58563e-07,1.12603e-05,-5.59861e-08,1.12931e-05,21,119.12,126.69,3.08325e+06,625000,-9.00628e-08,2.63199e-07,-1.12032e-07,0.00166436,0.0245068,-0.000518298,0.0245169,3,1999
12,2.53974e-22,2,5668,161.73,-9.45166e-07,1.14162e-05,-5.58154e-08,1.14554e-05,21,119.12,126.69,3.08325e+06,625000,-8.05308e-08,2.53778e-07,-1.11178e-07,0.0026642,0.0238939,-0.000358697,0.0232996,3,2000
12,3.23314e-22,2,5669,161.73,-1.01962e-06,1.16105e-05,-4.95306e-08,1.16552e-05,22.0625,119.12,126.69,4.37487e+06,687500,-6.46567e-08,2.325e-07,-9.86166e-08,0.00411939,0.0270338,-0.000457149,0.0260819,3,2001
12,4.61993e-22,1,5670,71.87,-1.07448e-06,1.18264e-05,-3.91926e-08,1.18752e-05,24.1875,-131.18,-164.33,6.95812e+06,812500,-4.97115e-08,2.05431e-07,-7.91089e-08,0.00472408,0.0322705,-0.00102837,0.031686,2,3667
12,5.27087e-22,1,5671,71.87,-1.11905e-06,1.20287e-05,-3.09229e-08,1.20807e-05,29.4375,-131.18,-164.33,8.89556e+06,906250,-4.162e-08,1.87833e-07,-6.20066e-08,0.00383822,0.0381161,-0.00128715,0.0382198,2,3668
12,5.18595e-22,1,5672,125.44,-1.15772e-06,1.21832e-05,-2.11579e-08,1.22381e-05,37.8125,67.45,-41.35,1.01872e+07,968750,-3.6262e-08,1.80227e-07,-4.19668e-08,0.00414304,0.0462363,-0.00024645,0.0452078,2,3669
12,5.14349e-22,1,5673,125.44,-1.19157e-06,1.2299e-05,-1.57844e-08,1.23566e-05,42,67.45,-41.35,1.0833e+07,1e+06,-3.44852e-08,1.77098e-07,-3.17811e-08,0.00480355,0.0497327,0.000402697,0.0475354,2,3670
12,5.14349e-22,1,5674,125.44,-1.22669e-06,1.2415e-05,-1.6223e-08,1.24755e-05,42,67.45,-41.35,1.0833e+07,1e+06,-3.19338e-08,1.73108e-07,-3.21706e-08,0.00492713,0.0487636,0.000341765,0.0466349,2,3671
12,5.14349e-22,1,5675,125.44,-1.25544e-06,1.25444e-05,-1.60615e-08,1.26071e-05,42,67.45,-41.35,1.0833e+07,1e+06,-2.20539e-08,1.57977e-07,-3.13183e-08,0.00576249,0.0452658,0.000824154,0.042823,2,3672
12,5.01051e-22,1,5676,125.44,-1.2708e-06,1.26951e-05,-1.63409e-08,1.27585e-05,41.75,67.45,-41.35,1.01872e+07,968750,-1.28236e-08,1.37555e-07,-3.3316e-08,0.0061197,0.0380485,0.000643815,0.0359386,2,3673
12,4.47863e-22,1,5677,125.44,-1.28109e-06,1.28386e-05,-2.5318e-08,1.29023e-05,40.75,67.45,-41.35,7.60394e+06,843750,-2.09896e-08,1.53098e-07,-5.32104e-08,0.00588174,0.0310074,-3.44783e-05,0.0296584,2,3674
12,3.68081e-22,2,5678,95.55,-1.31278e-06,1.29092e-05,-4.7512e-08,1.29758e-05,39.25,20.95,172.44,3.72906e+06,656250,-4.70736e-08,2.1338e-07,-9.51278e-08,0.00545137,0.0257336,-0.000102257,0.0244771,3,2002
12,3.14892e-22,2,5679,95.55,-1.37523e-06,1.28945e-05,-6.8508e-08,1.29678e-05,38.25,20.95,172.44,1.14581e+06,531250,-7.03493e-08,2.67868e-07,-1.34985e-07,0.00458382,0.0220721,-0.000348547,0.020902,3,2003
12,3.01595e-22,2,5680,95.55,-1.45348e-06,1.28472e-05,-7.71376e-08,1.29294e-05,38,20.95,172.44,500000,500000,-7.90577e-08,2.91881e-07,-1.52878e-07,0.00420153,0.0215179,-0.000662198,0.0204083,3,2004
12,3.01595e-22,2,5681,95.55,-1.53335e-06,1.27913e-05,-7.78901e-08,1.28832e-05,38,20.95,172.44,500000,500000,-7.7058e-08,2.94115e-07,-1.56742e-07,0.00428669,0.0217279,-0.000803052,0.0205301,3,2005
12,3.01595e-22,2,5682,95.55,-1.60759e-06,1.27296e-05,-7.99909e-08,1.28309e-05,38,20.95,172.44,500000,500000,-7.32185e-08,2.9071e-07,-1.59618e-07,0.0041659,0.021358,-0.00133265,0.0205027,3,2006
12,3.22641e-22,2,5683,95.55,-1.67979e-06,1.26691e-05,-6.60996e-08,1.27802e-05,39.125,20.95,172.44,500000,500000,-7.59705e-08,2.76628e-07,-1.3158e-07,0.00466161,0.0248926,-0.000679461,0.0238076,3,2007
12,3.71747e-22,2,5684,44.42,-1.75953e-06,1.25772e-05,-3.51383e-08,1.26997e-05,41.75,-34.07,-165.31,500000,500000,-8.75982e-08,2.52557e-07,-7.20976e-08,0.00607424,0.0319434,0.000798565,0.0297317,3,2008
12,4.06824e-22,2,5685,44.42,-1.85498e-06,1.24412e-05,-1.87921e-08,1.25788e-05,43.625,-34.07,-165.31,500000,500000,-1.02516e-07,2.45968e-07,-3.74242e-08,0.00686053,0.0366622,0.0007967,0.0337712,3,2009
12,4.13839e-22,2,5686,44.42,-1.96456e-06,1.23092e-05,-1.5643e-08,1.2465e-05,44,-34.07,-165.31,500000,500000,-1.12424e-07,2.49747e-07,-3.04592e-08,0.00637875,0.037965,0.000325213,0.0351045,3,2010
12,4.13839e-22,2,5687,44.42,-2.07983e-06,1.22055e-05,-1.45672e-08,1.23815e-05,44,-34.07,-165.31,500000,500000,-1.09914e-07,2.51725e-07,-3.02537e-08,0.00677442,0.0391156,0.00074068,0.0358674,3,2011
12,4.91339e-22,2,5688,44.42,-2.18439e-06,1.21316e-05,-2.32393e-08,1.23267e-05,46.0625,-34.07,-165.31,2.43744e+06,593750,-8.73205e-08,2.38275e-07,-4.58519e-08,0.00584107,0.0400397,-0.000431912,0.0385023,3,2012
12,6.72174e-22,1,5689,130.6,-2.25447e-06,1.21339e-05,-2.97181e-08,1.23416e-05,50.875,117.2,-48.36,6.95812e+06,812500,-5.92599e-08,2.03636e-07,-5.87158e-08,0.00345966,0.0375354,-0.00100156,0.037484,2,3675
12,8.01341e-22,1,5690,130.6,-2.30291e-06,1.22108e-05,-2.8981e-08,1.24261e-05,54.3125,117.2,-48.36,1.01872e+07,968750,-4.94891e-08,1.88255e-07,-5.89065e-08,0.00298653,0.0360394,0.000212291,0.0348562,2,3676
12,8.27175e-22,1,5691,130.6,-2.35345e-06,1.23001e-05,-3.03576e-08,1.25233e-05,55,117.2,-48.36,1.0833e+07,1e+06,-5.1248e-08,1.92113e-07,-6.03782e-08,0.00291278,0.0367077,0.000276359,0.035246,2,3677
12,8.27175e-22,1,5692,130.6,-2.40541e-06,1.23835e-05,-2.99582e-08,1.2615e-05,55,117.2,-48.36,1.0833e+07,1e+06,-5.17399e-08,1.89847e-07,-5.99674e-08,0.0025316,0.0361542,4.79454e-05,0.0349723,2,3678
12,8.27175e-22,1,5693,130.6,-2.45693e-06,1.24619e-05,-2.9336e-08,1.27019e-05,55,117.2,-48.36,1.0833e+07,1e+06,-5.10217e-08,1.86051e-07,-5.86722e-08,0.00238947,0.0354277,3.2578e-05,0.0343112,2,3679
12,8.27175e-22,1,5694,130.6,-2.50745e-06,1.25352e-05,-2.84782e-08,1.27836e-05,55,117.2,-48.36,1.0833e+07,1e+06,-4.9566e-08,1.80748e-07,-5.69656e-08,0.00231094,0.0344587,1.93812e-05,0.0333802,2,3680
12,8.27175e-22,1,5695,130.6,-2.55606e-06,1.26017e-05,-2.76788e-08,1.28583e-05,55,117.2,-48.36,1.0833e+07,1e+06,-4.70498e-08,1.73951e-07,-5.53091e-08,0.00233895,0.033284,-0.000134789,0.032279,2,3681
12,8.23893e-22,1,5696,130.6,-2.60155e-06,1.26561e-05,-2.62586e-08,1.29207e-05,56.625,117.2,-48.36,1.0833e+07,1e+06,-4.39509e-08,1.65877e-07,-5.22539e-08,0.00265657,0.0317123,0.000167187,0.0305384,2,3682
12,8.07481e-22,1,5697,130.6,-2.64396e-06,1.26914e-05,-2.351e-08,1.29639e-05,64.75,117.2,-48.36,1.0833e+07,1e+06,-4.34111e-08,1.5026e-07,-4.74204e-08,0.00218363,0.0265536,0.000721465,0.0255744,2,3683
12,7.84504e-22,1,5698,91.26,-2.68837e-06,1.27004e-05,-2.51171e-08,1.29818e-05,76.125,-49.63,-179.82,1.0833e+07,1e+06,-4.64275e-08,1.41931e-07,-5.04471e-08,0.00140175,0.0207502,0.000182203,0.0203321,2,3684
12,7.74657e-22,1,5699,91.26,-2.73682e-06,1.26876e-05,-2.82681e-08,1.29795e-05,81,-49.63,-179.82,1.0833e+07,1e+06,-4.95946e-08,1.47791e-07,-5.61869e-08,0.00137986,0.0196418,-0.000197904,0.0191761,2,3685
12,7.74657e-22,1,5700,91.26,-2.78756e-06,1.26625e-05,-2.89528e-08,1.29657e-05,81,-49.63,-179.82,1.0833e+07,1e+06,-5.23572e-08,1.54893e-07,-5.79784e-08,0.00136161,0.0206598,6.5394e-05,0.020057,2,3686
12,7.74657e-22,1,5701,91.26,-2.84153e-06,1.26263e-05,-3.07535e-08,1.29422e-05,81,-49.63,-179.82,1.0833e+07,1e+06,-5.57467e-08,1.6418e-07,-6.14216e-08,0.00136154,0.0218721,6.98946e-05,0.0213352,2,3687
12,7.74657e-22,1,5702,91.26,-2.89906e-06,1.25828e-05,-3.28149e-08,1.29125e-05,81,-49.63,-179.82,1.0833e+07,1e+06,-5.91052e-08,1.74867e-07,-6.56137e-08,0.00151463,0.0233069,3.673e-05,0.0227705,2,3688
12,7.74657e-22,1,5703,91.26,-2.95974e-06,1.25354e-05,-3.48543e-08,1.28801e-05,81,-49.63,-179.82,1.0833e+07,1e+06,-6.18447e-08,1.85062e-07,-6.97898e-08,0.00178558,0.0247133,-1.51664e-05,0.0240944,2,3689
12,7.74657e-22,1,5704,91.26,-3.02275e-06,1.24875e-05,-3.66748e-08,1.28482e-05,81,-49.63,-179.82,1.0833e+07,1e+06,-6.38499e-08,1.93637e-07,-7.33162e-08,0.00210077,0.0259344,-4.27584e-05,0.0251798,2,3690
12,7.74657e-22,1,5705,91.26,-3.08744e-06,1.24416e-05,-3.8272e-08,1.2819e-05,81,-49.63,-179.82,1.0833e+07,1e+06,-6.56546e-08,2.01516e-07,-7.65216e-08,0.00240403,0.0270655,-5.51106e-05,0.0261594,2,3691
12,7.74657e-22,1,5706,91.26,-3.15406e-06,1.23992e-05,-3.97853e-08,1.27941e-05,81,-49.63,-179.82,1.0833e+07,1e+06,-6.77899e-08,2.09505e-07,-7.95842e-08,0.00263348,0.0281964,-3.15534e-05,0.0271368,2,3692
12,7.74657e-22,1,5707,91.26,-3.22302e-06,1.23613e-05,-4.12081e-08,1.27747e-05,81,-49.63,-179.82,1.0833e+07,1e+06,-7.0039e-08,2.1708e-07,-8.24268e-08,0.00278854,0.0292459,-5.23889e-06,0.0280498,2,3693
12,7.74657e-22,1,5708,91.26,-3.29413e-06,1.23295e-05,-4.24507e-08,1.2762e-05,81,-49.63,-179.82,1.0833e+07,1e+06,-7.18553e-08,2.23533e-07,-8.49029e-08,0.00294578,0.0301454,9.14684e-06,0.028823,2,3694
12,7.74657e-22,1,5709,91.26,-3.36673e-06,1.23045e-05,-4.35428e-08,1.27569e-05,81,-49.63,-179.82,1.0833e+07,1e+06,-7.30761e-08,2.28998e-07,-8.70947e-08,0.00316501,0.0309359,1.65983e-05,0.0294949,2,3695
12,7.74657e-22,1,5710,91.26,-3.44029e-06,1.22871e-05,-4.45804e-08,1.27597e-05,81,-49.63,-179.82,1.0833e+07,1e+06,-7.39578e-08,2.34069e-07,-8.91754e-08,0.0034401,0.031696,2.64712e-05,0.0301653,2,3696
12,7.74657e-22,1,5711,91.26,-3.51465e-06,1.22781e-05,-4.56659e-08,1.27713e-05,81,-49.63,-179.82,1.0833e+07,1e+06,-7.52626e-08,2.39432e-07,-9.13416e-08,0.00364069,0.0324552,4.45189e-06,0.0309616,2,3697
12,7.74657e-22,1,5712,91.26,-3.59081e-06,1.22786e-05,-4.56422e-08,1.2793e-05,81,-49.63,-179.82,1.0833e+07,1e+06,-7.76054e-08,2.45988e-07,-9.12387e-08,0.00390274,0.0336435,0.000693695,0.0318459,2,3698
12,6.62658e-22,1,5713,91.26,-3.66986e-06,1.22903e-05,-4.86646e-08,1.28266e-05,80,-49.63,-179.82,8.24975e+06,875000,-8.13399e-08,2.5429e-07,-9.74289e-08,0.00358537,0.0334069,-0.00086131,0.03379,2,3699
12,4.38658e-22,2,5714,132.37,-3.75349e-06,1.22978e-05,-4.90768e-08,1.2858e-05,78,120.16,96.49,3.08325e+06,625000,-8.87294e-08,2.64488e-07,-9.85929e-08,0.00369799,0.0310741,-0.00108681,0.0321857,3,2013
12,3.26659e-22,2,5715,132.37,-3.84732e-06,1.23006e-05,-4.90439e-08,1.28883e-05,77,120.16,96.49,500000,500000,-9.93844e-08,2.7947e-07,-9.79744e-08,0.00374695,0.0303625,0.000213116,0.0303767,3,2014
12,3.2139e-22,2,5716,132.37,-3.95226e-06,1.23131e-05,-5.05763e-08,1.2932e-05,78.0625,120.16,96.49,1.14581e+06,531250,-1.01926e-07,2.87356e-07,-1.00493e-07,0.00324904,0.0330038,-0.000409375,0.0336088,3,2015
12,3.00315e-22,2,5717,132.37,-4.05117e-06,1.2304e-05,-4.2501e-08,1.29539e-05,82.3125,120.16,96.49,3.72906e+06,656250,-8.41337e-08,2.60323e-07,-8.45054e-08,0.00339184,0.0373804,-0.00048438,0.037535,3,2016
12,2.68704e-22,1,5718,118.57,-4.12053e-06,1.2233e-05,-2.9836e-08,1.29084e-05,88.6875,73.1,-29.9,7.60394e+06,843750,-5.56316e-08,2.10262e-07,-5.981e-08,0.00401749,0.041045,-0.000574938,0.0401888,2,3700
12,2.47629e-22,1,5719,118.57,-4.16243e-06,1.21208e-05,-2.09679e-08,1.28157e-05,92.9375,73.1,-29.9,1.01872e+07,968750,-3.81468e-08,1.75544e-07,-4.2745e-08,0.00484407,0.0417123,-0.000133548,0.039763,2,3701
12,2.42361e-22,1,5720,118.57,-4.19682e-06,1.19977e-05,-1.79283e-08,1.27106e-05,94,73.1,-29.9,1.0833e+07,1e+06,-3.80491e-08,1.63841e-07,-3.60118e-08,0.00442717,0.0400314,4.52687e-05,0.0381516,2,3702
12,2.73502e-22,1,5721,118.57,-4.23853e-06,1.18506e-05,-1.65396e-08,1.25858e-05,95.1875,73.1,-29.9,1.0833e+07,1e+06,-4.62966e-08,1.71801e-07,-3.2492e-08,0.00376621,0.0416131,0.000726746,0.0399261,2,3703
12,4.29208e-22,1,5722,118.57,-4.28941e-06,1.16965e-05,-1.604e-08,1.24583e-05,101.125,73.1,-29.9,1.0833e+07,1e+06,-4.86338e-08,1.66819e-07,-3.22823e-08,0.00179672,0.0402345,0.000550681,0.0402088,2,3704
12,6.47197e-22,1,5723,137.15,-4.3358e-06,1.16005e-05,-1.92536e-08,1.23843e-05,109.437,109.19,-42.07,1.0833e+07,1e+06,-4.30078e-08,1.55428e-07,-3.87756e-08,-0.000324838,0.0370614,-0.000231382,0.0389819,2,3705
12,7.40621e-22,1,5724,137.15,-4.37543e-06,1.15505e-05,-2.19569e-08,1.23515e-05,113,109.19,-42.07,1.0833e+07,1e+06,-3.968e-08,1.58326e-07,-4.37029e-08,-0.00051584,0.0376834,-1.85529e-05,0.0395467,2,3706
12,7.40621e-22,1,5725,137.15,-4.41516e-06,1.15048e-05,-2.20902e-08,1.23229e-05,113,109.19,-42.07,1.0833e+07,1e+06,-3.99775e-08,1.58073e-07,-4.41923e-08,-0.000663211,0.0372854,1.13263e-05,0.0389467,2,3707
12,7.40621e-22,1,5726,137.15,-4.45538e-06,1.14705e-05,-2.24186e-08,1.23054e-05,113,109.19,-42.07,1.0833e+07,1e+06,-4.05638e-08,1.57537e-07,-4.48118e-08,-0.000924955,0.0366555,3.94595e-05,0.0381157,2,3708
12,7.40621e-22,1,5727,137.15,-4.49629e-06,1.14503e-05,-2.28707e-08,1.23014e-05,113,109.19,-42.07,1.0833e+07,1e+06,-4.13791e-08,1.57177e-07,-4.57376e-08,-0.00125405,0.0359697,1.31827e-05,0.0373027,2,3709
12,7.40621e-22,1,5728,137.15,-4.53814e-06,1.14462e-05,-2.35566e-08,1.2313e-05,113,109.19,-42.07,1.0833e+07,1e+06,-4.26717e-08,1.58202e-07,-4.71112e-08,-0.00162954,0.0355487,-4.30208e-06,0.0368193,2,3710
12,7.40621e-22,1,5729,137.15,-4.58163e-06,1.146e-05,-2.45198e-08,1.2342e-05,113,109.19,-42.07,1.0833e+07,1e+06,-4.47314e-08,1.61171e-07,-4.90345e-08,-0.00209678,0.0355312,-2.20591e-05,0.0368584,2,3711
12,7.40621e-22,1,5730,137.15,-4.62761e-06,1.14929e-05,-2.57523e-08,1.23896e-05,113,109.19,-42.07,1.0833e+07,1e+06,-4.76213e-08,1.66458e-07,-5.15028e-08,-0.00264214,0.0360543,-3.51948e-05,0.0375591,2,3712
12,7.40621e-22,1,5731,137.15,-4.67687e-06,1.15443e-05,-2.71337e-08,1.24557e-05,113,109.19,-42.07,1.0833e+07,1e+06,-5.11296e-08,1.73725e-07,-5.42706e-08,-0.00321572,0.037118,-3.39701e-05,0.0388772,2,3713
12,7.40621e-22,1,5732,137.15,-4.72986e-06,1.1612e-05,-2.84604e-08,1.25384e-05,113,109.19,-42.07,1.0833e+07,1e+06,-5.47339e-08,1.8169e-07,-5.69215e-08,-0.00374892,0.0384865,-2.16609e-05,0.0405131,2,3714
12,7.40621e-22,1,5733,137.15,-4.78634e-06,1.16923e-05,-2.953e-08,1.26341e-05,113,109.19,-42.07,1.0833e+07,1e+06,-5.77324e-08,1.88718e-07,-5.90595e-08,-0.00415274,0.0398087,-2.39177e-06,0.0420443,2,3715
12,7.40621e-22,1,5734,137.15,-4.84533e-06,1.17813e-05,-3.01598e-08,1.27388e-05,113,109.19,-42.07,1.0833e+07,1e+06,-5.9402e-08,1.93025e-07,-6.03164e-08,-0.00434625,0.0406633,2.0935e-05,0.0429943,2,3716
12,7.40621e-22,1,5735,137.15,-4.90515e-06,1.1875e-05,-3.02051e-08,1.28482e-05,113,109.19,-42.07,1.0833e+07,1e+06,-5.91813e-08,1.93043e-07,-6.04058e-08,-0.00428353,0.0406596,3.58736e-05,0.0429486,2,3717
12,7.40621e-22,1,5736,137.15,-4.96369e-06,1.19697e-05,-2.96236e-08,1.29582e-05,113,109.19,-42.07,1.0833e+07,1e+06,-5.69586e-08,1.88358e-07,-5.92493e-08,-0.00396346,0.0396972,3.10355e-05,0.0418111,2,3718
12,7.40621e-22,1,5737,137.15,-5.01906e-06,1.20614e-05,-2.85313e-08,1.3064e-05,113,109.19,-42.07,1.0833e+07,1e+06,-5.32608e-08,1.80291e-07,-5.707e-08,-0.00343955,0.0381098,8.94302e-06,0.0399455,2,3719
12,7.40621e-22,1,5738,137.15,-5.07021e-06,1.21455e-05,-2.7206e-08,1.31613e-05,113,109.19,-42.07,1.0833e+07,1e+06,-4.91217e-08,1.71475e-07,-5.44171e-08,-0.00282053,0.0365139,-1.74211e-05,0.0380282,2,3720
12,7.40621e-22,1,5739,137.15,-5.11731e-06,1.2219e-05,-2.60082e-08,1.32473e-05,113,109.19,-42.07,1.0833e+07,1e+06,-4.5663e-08,1.64648e-07,-5.20153e-08,-0.00224425,0.0354753,-3.45813e-05,0.0367084,2,3721
12,7.40621e-22,1,5740,137.15,-5.16154e-06,1.22814e-05,-2.52426e-08,1.3322e-05,113,109.19,-42.07,1.0833e+07,1e+06,-4.36287e-08,1.61454e-07,-5.04778e-08,-0.00182569,0.0352442,-3.45244e-05,0.0363042,2,3722
12,7.40621e-22,1,5741,137.15,-5.20456e-06,1.23355e-05,-2.50357e-08,1.33886e-05,113,109.19,-42.07,1.0833e+07,1e+06,-4.31235e-08,1.61906e-07,-5.00631e-08,-0.00161134,0.0356932,-1.77511e-05,0.0366929,2,3723
12,7.40621e-22,1,5742,137.15,-5.24779e-06,1.23862e-05,-2.53098e-08,1.34521e-05,113,109.19,-42.07,1.0833e+07,1e+06,-4.3673e-08,1.64666e-07,-5.06157e-08,-0.00156782,0.036447,6.79889e-06,0.0374452,2,3724
12,7.40621e-22,1,5743,137.15,-5.29191e-06,1.24385e-05,-2.58679e-08,1.35174e-05,113,109.19,-42.07,1.0833e+07,1e+06,-4.45167e-08,1.68002e-07,-5.17289e-08,-0.00159469,0.0371273,3.6981e-05,0.0381092,2,3725
12,7.40621e-22,1,5744,137.15,-5.33682e-06,1.24963e-05,-2.65277e-08,1.35882e-05,113,109.19,-42.07,1.0833e+07,1e+06,-4.47785e-08,1.70586e-07,-5.31381e-08,-0.00154057,0.0375121,5.06501e-05,0.0384085,2,3726
12,7.40621e-22,1,5745,137.15,-5.38147e-06,1.25619e-05,-2.77616e-08,1.36661e-05,113,109.19,-42.07,1.0833e+07,1e+06,-4.44506e-08,1.71884e-07,-5.51134e-08,-0.00146246,0.0374154,-0.00010436,0.0382858,2,3727
12,7.52664e-22,1,5746,137.15,-5.42572e-06,1.26404e-05,-2.54993e-08,1.37557e-05,112.625,109.19,-42.07,1.0833e+07,1e+06,-4.91452e-08,1.73357e-07,-5.11898e-08,-0.00132286,0.0370573,0.000462185,0.0379496,2,3728
12,7.64707e-22,1,5747,29.98,-5.47976e-06,1.27137e-05,-2.43256e-08,1.38444e-05,112.25,28.47,155.15,1.0833e+07,1e+06,-5.33076e-08,1.73414e-07,-4.91955e-08,-0.00139636,0.0361976,0.000349214,0.0375902,2,3729
12,7.52664e-22,1,5748,137.15,-5.53234e-06,1.2796e-05,-2.79789e-08,1.39408e-05,112.625,109.19,-42.07,1.0833e+07,1e+06,-4.64604e-08,1.69359e-07,-5.56399e-08,-0.00135431,0.0351069,-0.000412754,0.0364761,2,3730
12,7.31858e-22,1,5749,137.15,-5.57268e-06,1.29001e-05,-3.10108e-08,1.40524e-05,115,109.19,-42.07,1.0833e+07,1e+06,-3.10842e-08,1.65175e-07,-6.19288e-08,-0.000678186,0.0359409,0.000507796,0.0364714,2,3731
12,7.14331e-22,1,5750,9.52003,-5.5945e-06,1.29568e-05,-3.98213e-08,1.41131e-05,119,63.66,-15.5,1.0833e+07,1e+06,-1.11187e-08,1.62064e-07,-7.97114e-08,-0.00126526,0.0363742,0.000201538,0.0374362,2,3732
12,7.05568e-22,1,5751,9.52003,-5.59492e-06,1.29666e-05,-4.6594e-08,1.41222e-05,121,63.66,-15.5,1.0833e+07,1e+06,1.61339e-09,1.58757e-07,-9.31276e-08,-0.00156607,0.0354896,-0.000591471,0.0368225,2,3733
12,7.05568e-22,1,5752,9.52003,-5.59128e-06,1.29733e-05,-4.51825e-08,1.41269e-05,121,63.66,-15.5,1.0833e+07,1e+06,3.74396e-09,1.55668e-07,-9.03505e-08,-0.000726179,0.0350659,-0.000106335,0.0356944,2,3734
12,7.05568e-22,1,5753,9.52003,-5.58743e-06,1.29738e-05,-4.40919e-08,1.41258e-05,121,63.66,-15.5,1.0833e+07,1e+06,4.11036e-09,1.52344e-07,-8.82159e-08,-0.000505662,0.0343305,9.24614e-07,0.0347396,2,3735
12,7.05568e-22,1,5754,9.52003,-5.58306e-06,1.29661e-05,-4.3535e-08,1.41171e-05,121,63.66,-15.5,1.0833e+07,1e+06,4.60441e-09,1.49715e-07,-8.70649e-08,-0.000314145,0.0336693,-1.72519e-05,0.0339297,2,3736
12,7.05568e-22,1,5755,9.52003,-5.57822e-06,1.29489e-05,-4.32851e-08,1.40994e-05,121,63.66,-15.5,1.0833e+07,1e+06,4.92791e-09,1.48525e-07,-8.65684e-08,-0.000157523,0.0333332,-2.13032e-05,0.0334671,2,3737
12,7.05568e-22,1,5756,9.52003,-5.5732e-06,1.29221e-05,-4.33323e-08,1.40728e-05,121,63.66,-15.5,1.0833e+07,1e+06,4.9985e-09,1.48694e-07,-8.6666e-08,-6.87703e-05,0.0333131,-1.97162e-05,0.033372,2,3738
12,7.05568e-22,1,5757,9.52003,-5.56822e-06,1.28871e-05,-4.35406e-08,1.40386e-05,121,63.66,-15.5,1.0833e+07,1e+06,4.94861e-09,1.49831e-07,-8.70816e-08,-1.71249e-05,0.0335543,2.02708e-05,0.0335558,2,3739
12,5.69008e-22,1,5758,71.87,-4.05747e-08,1.08332e-05,-3.07584e-08,1.08333e-05,27,-131.18,-164.33,1.0833e+07,1e+06,-7.97688e-08,2.1651e-07,-6.16423e-08,-0.000906299,0.0370909,0.00104191,0.0375001,2,3740
12,5.69008e-22,1,5759,71.87,-1.18963e-07,1.08875e-05,-3.24468e-08,1.08882e-05,27,-131.18,-164.33,1.0833e+07,1e+06,-7.52962e-08,2.09544e-07,-6.4599e-08,-0.000295553,0.035557,-0.000736781,0.0364336,2,3741
12,5.69008e-22,1,5760,71.87,-1.91167e-07,1.09206e-05,-2.89696e-08,1.09223e-05,27,-131.18,-164.33,1.0833e+07,1e+06,-6.86437e-08,1.97668e-07,-5.71871e-08,0.000693423,0.0345267,0.000389481,0.0345507,2,3742
12,5.42755e-22,1,5761,71.87,-2.5625e-07,1.0936e-05,-2.81895e-08,1.0939e-05,26.5,-131.18,-164.33,1.01872e+07,968750,-6.52688e-08,1.92636e-07,-5.71592e-08,0.00136699,0.03261,0.000380361,0.032573,2,3743
12,4.37744e-22,1,5762,71.87,-3.21705e-07,1.09521e-05,-3.53923e-08,1.09569e-05,24.5,-131.18,-164.33,7.60394e+06,843750,-7.49579e-08,2.13147e-07,-7.22443e-08,0.00152122,0.0294968,-0.00024869,0.0298776,2,3744
12,3.0648e-22,2,5763,161.73,-4.06166e-07,1.09988e-05,-4.87408e-08,1.10064e-05,22,119.12,126.69,4.37488e+06,687500,-9.34047e-08,2.5486e-07,-9.73495e-08,0.00139524,0.0265477,-0.000172782,0.0268104,3,2017
12,2.27721e-22,2,5764,161.73,-5.08514e-07,1.10874e-05,-6.01434e-08,1.10992e-05,20.5,119.12,126.69,2.43744e+06,593750,-1.05344e-07,2.87481e-07,-1.19545e-07,0.00131204,0.025308,-0.000332976,0.0254554,3,2018
12,1.75215e-22,2,5765,161.73,-6.16854e-07,1.12032e-05,-6.74802e-08,1.12204e-05,19.5,119.12,126.69,1.14581e+06,531250,-1.0948e-07,3.03877e-07,-1.34754e-07,0.00144469,0.0243033,-0.000683579,0.0244699,3,2019
12,1.48963e-22,2,5766,161.73,-7.27474e-07,1.13201e-05,-7.13106e-08,1.13436e-05,19,119.12,126.69,500000,500000,-1.10093e-07,3.12008e-07,-1.42508e-07,0.00165255,0.0237064,-0.000526417,0.0237576,3,2020
12,1.48963e-22,2,5767,161.73,-8.3704e-07,1.14346e-05,-7.22219e-08,1.14654e-05,19,119.12,126.69,500000,500000,-1.08975e-07,3.12843e-07,-1.44292e-07,0.00170539,0.0238021,-0.000604352,0.0239263,3,2021
12,1.48963e-22,2,5768,161.73,-9.45423e-07,1.15601e-05,-7.10649e-08,1.15989e-05,19,119.12,126.69,500000,500000,-1.06366e-07,3.07069e-07,-1.41907e-07,0.00177894,0.0233335,-0.00053565,0.0232978,3,2022
12,1.48963e-22,2,5769,161.73,-1.04977e-06,1.17019e-05,-6.80636e-08,1.1749e-05,19,119.12,126.69,500000,500000,-9.77282e-08,2.91135e-07,-1.35334e-07,0.00217756,0.022329,-0.000232135,0.0218239,3,2023
12,2.08884e-22,2,5770,161.73,-1.14088e-06,1.18588e-05,-5.75737e-08,1.19137e-05,19.625,119.12,126.69,1.14581e+06,531250,-7.49352e-08,2.54439e-07,-1.15266e-07,0.00322196,0.024492,-0.000364236,0.0239258,3,2024
12,3.4556e-22,2,5771,91.16,-1.19964e-06,1.2031e-05,-4.45269e-08,1.20907e-05,20.9375,126.83,-47.63,2.43744e+06,593750,-4.5774e-08,2.13892e-07,-9.00122e-08,0.00422708,0.0307582,-0.00110943,0.0307848,3,2025
12,4.5374e-22,2,5772,91.16,-1.23243e-06,1.22142e-05,-3.21248e-08,1.22762e-05,26.75,126.83,-47.63,5.02069e+06,718750,-3.20315e-08,1.90418e-07,-6.42842e-08,0.00457732,0.0387134,-0.000896828,0.0383986,3,2026
12,4.99757e-22,1,5773,125.44,-1.26371e-06,1.23648e-05,-2.02406e-08,1.24292e-05,36.9375,67.45,-41.35,8.89556e+06,906250,-3.30467e-08,1.82169e-07,-4.04154e-08,0.00487169,0.0472342,0.000126178,0.0455246,2,3745
12,5.14349e-22,1,5774,125.44,-1.29852e-06,1.24773e-05,-1.61484e-08,1.25447e-05,42,67.45,-41.35,1.0833e+07,1e+06,-3.43082e-08,1.78776e-07,-3.2327e-08,0.00499894,0.0502127,0.000376157,0.0479043,2,3746
12,5.14349e-22,1,5775,125.44,-1.33232e-06,1.25861e-05,-1.61145e-08,1.26564e-05,42,67.45,-41.35,1.0833e+07,1e+06,-3.04135e-08,1.69674e-07,-3.22671e-08,0.00509545,0.0477819,0.000158668,0.0456052,2,3747
12,5.14349e-22,1,5776,125.44,-1.35935e-06,1.2701e-05,-1.62192e-08,1.27736e-05,42,67.45,-41.35,1.0833e+07,1e+06,-2.19767e-08,1.54864e-07,-3.2212e-08,0.0056028,0.0441202,0.000181555,0.0418902,2,3748
12,5.14349e-22,1,5777,125.44,-1.37628e-06,1.28271e-05,-1.5526e-08,1.29007e-05,42,67.45,-41.35,1.0833e+07,1e+06,-1.16848e-08,1.33174e-07,-3.00677e-08,0.00619677,0.0386275,0.000493207,0.0361594,2,3749
12,5.01051e-22,1,5778,125.44,-1.38272e-06,1.29599e-05,-1.47345e-08,1.30334e-05,41.75,67.45,-41.35,1.01872e+07,968750,-6.81477e-09,1.17043e-07,-2.98613e-08,0.00630293,0.0325349,0.000529014,0.0301685,2,3750
12,4.47863e-22,1,5779,125.44,-1.38991e-06,1.30757e-05,-2.20865e-08,1.31494e-05,40.75,67.45,-41.35,7.60394e+06,843750,-1.82683e-08,1.36482e-07,-4.66062e-08,0.00568704,0.0275147,0.000188605,0.0257483,2,3751
12,3.81378e-22,2,5780,95.55,-1.41925e-06,1.31334e-05,-4.02994e-08,1.32099e-05,39.5,20.95,172.44,4.37488e+06,687500,-4.10121e-08,1.88197e-07,-8.08097e-08,0.00497501,0.0236793,2.77761e-05,0.0223269,3,2027
12,3.41487e-22,2,5781,95.55,-1.47193e-06,1.31267e-05,-5.58597e-08,1.32091e-05,38.75,20.95,172.44,2.43744e+06,593750,-5.71954e-08,2.3206e-07,-1.10432e-07,0.00474899,0.0224378,-0.000256392,0.021258,3,2028
12,3.14892e-22,2,5782,95.55,-1.53365e-06,1.3076e-05,-6.71751e-08,1.31658e-05,38.25,20.95,172.44,1.14581e+06,531250,-6.25751e-08,2.55922e-07,-1.34403e-07,0.00448972,0.0211802,-0.000942614,0.0203633,3,2029
12,3.08611e-22,2,5783,95.55,-1.59708e-06,1.3014e-05,-7.32765e-08,1.31118e-05,38.375,20.95,172.44,500000,500000,-6.48917e-08,2.65428e-07,-1.44012e-07,0.00430753,0.0208093,-0.00148959,0.0203476,3,2030
12,3.43687e-22,2,5784,95.55,-1.66343e-06,1.29355e-05,-5.14874e-08,1.30421e-05,40.25,20.95,172.44,500000,500000,-7.14665e-08,2.49124e-07,-1.02939e-07,0.00536947,0.0262398,-0.000377102,0.0249703,3,2031
12,3.92793e-22,2,5785,44.42,-1.74001e-06,1.28129e-05,-2.31152e-08,1.29305e-05,42.875,-34.07,-165.31,500000,500000,-8.42141e-08,2.28484e-07,-4.87632e-08,0.00675746,0.0325133,0.000651289,0.0299336,3,2032
12,4.13839e-22,2,5786,44.42,-1.83186e-06,1.2677e-05,-1.55701e-08,1.28087e-05,44,-34.07,-165.31,500000,500000,-9.87887e-08,2.32312e-07,-3.08842e-08,0.00684787,0.0356219,0.000433461,0.0326262,3,2033
12,4.13839e-22,2,5787,44.42,-1.93759e-06,1.25557e-05,-1.49414e-08,1.27043e-05,44,-34.07,-165.31,500000,500000,-1.08766e-07,2.42153e-07,-2.96575e-08,0.00614896,0.0369076,0.000302539,0.0341055,3,2034
12,4.13839e-22,2,5788,44.42,-2.04939e-06,1.24531e-05,-1.45623e-08,1.26207e-05,44,-34.07,-165.31,500000,500000,-1.0998e-07,2.447e-07,-2.85927e-08,0.00615978,0.0376849,0.000516762,0.0347528,3,2035
12,4.39672e-22,2,5789,44.42,-2.15755e-06,1.23732e-05,-1.72261e-08,1.25599e-05,44.6875,-34.07,-165.31,1.14581e+06,531250,-9.72511e-08,2.42466e-07,-3.48011e-08,0.00643175,0.0394794,0.000764027,0.0367799,3,2036
12,5.6884e-22,2,5790,44.42,-2.24389e-06,1.23444e-05,-2.57811e-08,1.25467e-05,48.125,-34.07,-165.31,4.37488e+06,687500,-7.21631e-08,2.1695e-07,-5.19004e-08,0.0039692,0.038126,-0.000775674,0.0379163,3,2037
12,7.49674e-22,1,5791,130.6,-2.30188e-06,1.24003e-05,-3.07956e-08,1.26121e-05,52.9375,117.2,-48.36,8.89556e+06,906250,-5.30954e-08,1.93833e-07,-6.12469e-08,0.00280755,0.0364011,-0.000693669,0.036222,2,3752
12,8.27175e-22,1,5792,130.6,-2.35008e-06,1.24928e-05,-3.03805e-08,1.27119e-05,55,117.2,-48.36,1.0833e+07,1e+06,-4.87802e-08,1.92665e-07,-6.08355e-08,0.00369942,0.0369969,0.000471163,0.0351807,2,3753
12,8.27175e-22,1,5793,130.6,-2.39944e-06,1.25733e-05,-3.03644e-08,1.28002e-05,55,117.2,-48.36,1.0833e+07,1e+06,-4.93325e-08,1.89931e-07,-6.07146e-08,0.00323315,0.0363017,6.35563e-05,0.0348346,2,3754
12,8.27175e-22,1,5794,130.6,-2.44875e-06,1.26479e-05,-2.97161e-08,1.28828e-05,55,117.2,-48.36,1.0833e+07,1e+06,-4.87977e-08,1.86428e-07,-5.94234e-08,0.00306323,0.0356584,4.52154e-05,0.034252,2,3755
12,8.27175e-22,1,5795,130.6,-2.49703e-06,1.27158e-05,-2.87905e-08,1.29587e-05,55,117.2,-48.36,1.0833e+07,1e+06,-4.67292e-08,1.81062e-07,-5.76112e-08,0.00314834,0.0348173,6.49338e-05,0.0333459,2,3756
12,8.27175e-22,1,5796,130.6,-2.5422e-06,1.2775e-05,-2.82048e-08,1.30256e-05,55,117.2,-48.36,1.0833e+07,1e+06,-4.30851e-08,1.73463e-07,-5.64424e-08,0.00336024,0.0335628,-0.00027368,0.0321961,2,3757
12,8.17328e-22,1,5797,130.6,-2.5832e-06,1.28232e-05,-2.67917e-08,1.30808e-05,59.875,117.2,-48.36,1.0833e+07,1e+06,-4.18559e-08,1.67328e-07,-5.36275e-08,0.00370758,0.0314737,0.000431627,0.0298627,2,3758
12,7.94351e-22,1,5798,91.26,-2.62592e-06,1.2845e-05,-2.68874e-08,1.31107e-05,71.25,-49.63,-179.82,1.0833e+07,1e+06,-4.43114e-08,1.57345e-07,-5.36163e-08,0.00312888,0.0257652,0.000558612,0.0245576,2,3759
12,7.7794e-22,1,5799,91.26,-2.67182e-06,1.28453e-05,-2.88752e-08,1.31203e-05,79.375,-49.63,-179.82,1.0833e+07,1e+06,-4.59878e-08,1.49835e-07,-5.76844e-08,0.00242976,0.0208596,-0.000406493,0.0202856,2,3760
12,7.74657e-22,1,5800,91.26,-2.71789e-06,1.28377e-05,-2.95373e-08,1.31223e-05,81,-49.63,-179.82,1.0833e+07,1e+06,-4.71401e-08,1.52751e-07,-5.92059e-08,0.00253677,0.0206979,-0.00023195,0.019772,2,3761
12,7.74657e-22,1,5801,91.26,-2.76611e-06,1.28188e-05,-3.02891e-08,1.31139e-05,81,-49.63,-179.82,1.0833e+07,1e+06,-4.99332e-08,1.58547e-07,-6.05537e-08,0.00237533,0.0214747,-2.67683e-05,0.0204649,2,3762
12,7.74657e-22,1,5802,91.26,-2.81776e-06,1.27915e-05,-3.16538e-08,1.30982e-05,81,-49.63,-179.82,1.0833e+07,1e+06,-5.36306e-08,1.66575e-07,-6.32994e-08,0.00217168,0.0224512,-1.43011e-05,0.0215878,2,3763
12,7.74657e-22,1,5803,91.26,-2.87337e-06,1.27579e-05,-3.32504e-08,1.30775e-05,81,-49.63,-179.82,1.0833e+07,1e+06,-5.75631e-08,1.75769e-07,-6.65085e-08,0.00202718,0.0236001,-9.39947e-07,0.022863,2,3764
12,7.74657e-22,1,5804,91.26,-2.93288e-06,1.27204e-05,-3.49294e-08,1.30542e-05,81,-49.63,-179.82,1.0833e+07,1e+06,-6.12712e-08,1.85134e-07,-6.9877e-08,0.00195941,0.0247957,5.55773e-06,0.024119,2,3765
12,7.74657e-22,1,5805,91.26,-2.99591e-06,1.26816e-05,-3.6579e-08,1.30307e-05,81,-49.63,-179.82,1.0833e+07,1e+06,-6.4516e-08,1.93988e-07,-7.31616e-08,0.00196432,0.0259468,1.53999e-06,0.025263,2,3766
12,7.74657e-22,1,5806,91.26,-3.06192e-06,1.26437e-05,-3.80915e-08,1.30092e-05,81,-49.63,-179.82,1.0833e+07,1e+06,-6.72755e-08,2.0195e-07,-7.617e-08,0.00201162,0.0269956,-6.79167e-06,0.0262595,2,3767
12,7.74657e-22,1,5807,91.26,-3.13046e-06,1.26087e-05,-3.94407e-08,1.29915e-05,81,-49.63,-179.82,1.0833e+07,1e+06,-6.96643e-08,2.09109e-07,-7.88748e-08,0.00208094,0.0279503,-7.13768e-06,0.0271313,2,3768
12,7.74657e-22,1,5808,91.26,-3.20125e-06,1.25777e-05,-4.06428e-08,1.29787e-05,81,-49.63,-179.82,1.0833e+07,1e+06,-7.17411e-08,2.1553e-07,-8.12905e-08,0.0021625,0.0288163,1.4598e-06,0.0278973,2,3769
12,7.74657e-22,1,5809,91.26,-3.27394e-06,1.25517e-05,-4.17051e-08,1.29717e-05,81,-49.63,-179.82,1.0833e+07,1e+06,-7.34153e-08,2.21088e-07,-8.34151e-08,0.00226623,0.0295772,8.77426e-06,0.0285558,2,3770
12,7.74657e-22,1,5810,91.26,-3.34808e-06,1.25318e-05,-4.26486e-08,1.29714e-05,81,-49.63,-179.82,1.0833e+07,1e+06,-7.46453e-08,2.25839e-07,-8.53016e-08,0.00240871,0.0302444,9.16832e-06,0.0291313,2,3771
12,7.74657e-22,1,5811,91.26,-3.42323e-06,1.25191e-05,-4.35125e-08,1.29787e-05,81,-49.63,-179.82,1.0833e+07,1e+06,-7.56181e-08,2.30159e-07,-8.70293e-08,0.00258174,0.0308684,1.52394e-05,0.0296926,2,3772
12,7.74657e-22,1,5812,91.26,-3.49931e-06,1.25151e-05,-4.43563e-08,1.29952e-05,81,-49.63,-179.82,1.0833e+07,1e+06,-7.69319e-08,2.34569e-07,-8.872e-08,0.00268508,0.0314719,4.85067e-06,0.0303566,2,3773
12,7.74657e-22,1,5813,91.26,-3.5771e-06,1.25219e-05,-4.40344e-08,1.30229e-05,81,-49.63,-179.82,1.0833e+07,1e+06,-7.93261e-08,2.39673e-07,-8.80575e-08,0.00278385,0.0323977,0.000652245,0.0311398,2,3774
12,6.62658e-22,1,5814,91.26,-3.65796e-06,1.25414e-05,-4.63875e-08,1.3064e-05,80,-49.63,-179.82,8.24975e+06,875000,-8.41926e-08,2.46661e-07,-9.22828e-08,0.00226517,0.0319845,-0.000653136,0.0328609,2,3775
12,4.38658e-22,2,5815,132.37,-3.74548e-06,1.25584e-05,-4.57556e-08,1.31051e-05,78,120.16,96.49,3.08325e+06,625000,-9.30017e-08,2.56369e-07,-9.26385e-08,0.00213142,0.0296958,-0.000920252,0.0316542,3,2038
12,3.2139e-22,2,5816,132.37,-3.84397e-06,1.25787e-05,-4.34486e-08,1.3153e-05,78.0625,120.16,96.49,1.14581e+06,531250,-9.81245e-08,2.64945e-07,-8.6322e-08,0.0024377,0.0308457,0.000673422,0.0317247,3,2039
12,3.00315e-22,2,5817,132.37,-3.94173e-06,1.25903e-05,-3.81213e-08,1.3193e-05,82.3125,120.16,96.49,3.72906e+06,656250,-8.49194e-08,2.46392e-07,-7.47671e-08,0.00223438,0.0355823,0.000233712,0.0364085,3,2040
12,2.68704e-22,1,5818,118.57,-4.01381e-06,1.25338e-05,-2.62577e-08,1.31608e-05,88.6875,73.1,-29.9,7.60394e+06,843750,-5.89629e-08,2.03693e-07,-5.40152e-08,0.00280873,0.0397403,-4.36786e-05,0.0393819,2,3776
12,2.47629e-22,1,5819,118.57,-4.05966e-06,1.24175e-05,-2.00041e-08,1.30643e-05,92.9375,73.1,-29.9,1.01872e+07,968750,-4.22911e-08,1.78779e-07,-4.07487e-08,0.00397305,0.042649,0.000316078,0.0407807,2,3777
12,2.42361e-22,1,5820,118.57,-4.09839e-06,1.22919e-05,-1.90032e-08,1.29571e-05,94,73.1,-29.9,1.0833e+07,1e+06,-3.94982e-08,1.73051e-07,-3.74988e-08,0.00424277,0.0430059,0.000364855,0.0408365,2,3778
12,2.42361e-22,1,5821,118.57,-4.13865e-06,1.21656e-05,-1.86244e-08,1.28503e-05,94,73.1,-29.9,1.0833e+07,1e+06,-4.35502e-08,1.70663e-07,-3.67683e-08,0.00337836,0.0416039,-0.000198781,0.040164,2,3779
12,2.42361e-22,1,5822,118.57,-4.18549e-06,1.20259e-05,-1.70349e-08,1.27335e-05,94,73.1,-29.9,1.0833e+07,1e+06,-5.15059e-08,1.76025e-07,-3.43638e-08,0.00259605,0.0421786,-8.50688e-05,0.0410987,2,3780
12,3.66926e-22,1,5823,118.57,-4.24166e-06,1.18685e-05,-1.76636e-08,1.26037e-05,98.75,73.1,-29.9,1.0833e+07,1e+06,-5.25096e-08,1.76476e-07,-3.54512e-08,0.00183924,0.0420624,-2.4905e-05,0.0417712,2,3781
12,6.16056e-22,1,5824,137.15,-4.29051e-06,1.17595e-05,-2.1073e-08,1.25178e-05,108.25,109.19,-42.07,1.0833e+07,1e+06,-4.30837e-08,1.63624e-07,-4.17485e-08,0.000606441,0.0387932,-0.000343003,0.0398969,2,3782
12,7.40621e-22,1,5825,137.15,-4.32783e-06,1.17077e-05,-2.24728e-08,1.24821e-05,113,109.19,-42.07,1.0833e+07,1e+06,-3.81808e-08,1.56737e-07,-4.4896e-08,-0.000262126,0.0369682,-0.000192859,0.038555,2,3783
12,7.40621e-22,1,5826,137.15,-4.36687e-06,1.16616e-05,-2.19757e-08,1.24524e-05,113,109.19,-42.07,1.0833e+07,1e+06,-4.04114e-08,1.56747e-07,-4.41086e-08,-0.000890233,0.03668,1.27667e-05,0.0382815,2,3784
12,7.40621e-22,1,5827,137.15,-4.40865e-06,1.16268e-05,-2.18583e-08,1.24346e-05,113,109.19,-42.07,1.0833e+07,1e+06,-4.25133e-08,1.55383e-07,-4.37507e-08,-0.00162339,0.0358079,7.77476e-05,0.0374784,2,3785
12,7.40621e-22,1,5828,137.15,-4.4519e-06,1.16061e-05,-2.21886e-08,1.24307e-05,113,109.19,-42.07,1.0833e+07,1e+06,-4.40231e-08,1.54789e-07,-4.44083e-08,-0.00216574,0.0350166,4.244e-05,0.036708,2,3786
12,7.40621e-22,1,5829,137.15,-4.4967e-06,1.16032e-05,-2.28844e-08,1.2444e-05,113,109.19,-42.07,1.0833e+07,1e+06,-4.5858e-08,1.55972e-07,-4.57456e-08,-0.00268463,0.0345695,2.24308e-05,0.0363048,2,3787
12,7.40621e-22,1,5830,137.15,-4.54361e-06,1.16202e-05,-2.39398e-08,1.2477e-05,113,109.19,-42.07,1.0833e+07,1e+06,-4.83505e-08,1.59252e-07,-4.78581e-08,-0.00326403,0.0345412,-2.64741e-05,0.0364459,2,3788
12,7.40621e-22,1,5831,137.15,-4.5934e-06,1.16588e-05,-2.53627e-08,1.25311e-05,113,109.19,-42.07,1.0833e+07,1e+06,-5.16294e-08,1.65541e-07,-5.07396e-08,-0.003863,0.035234,-5.69098e-05,0.0373951,2,3789
12,7.40621e-22,1,5832,137.15,-4.64687e-06,1.17181e-05,-2.69556e-08,1.26059e-05,113,109.19,-42.07,1.0833e+07,1e+06,-5.54044e-08,1.7418e-07,-5.39068e-08,-0.00442056,0.0366188,-4.31814e-05,0.0390542,2,3790
12,7.40621e-22,1,5833,137.15,-4.70421e-06,1.17943e-05,-2.84012e-08,1.26978e-05,113,109.19,-42.07,1.0833e+07,1e+06,-5.8965e-08,1.8313e-07,-5.6795e-08,-0.00487039,0.0382911,-2.58575e-05,0.0409627,2,3791
12,7.40621e-22,1,5834,137.15,-4.7648e-06,1.18818e-05,-2.94563e-08,1.28016e-05,113,109.19,-42.07,1.0833e+07,1e+06,-6.15033e-08,1.90513e-07,-5.89217e-08,-0.00510664,0.0398516,-2.43728e-06,0.0426386,2,3792
12,7.40621e-22,1,5835,137.15,-4.82722e-06,1.19747e-05,-2.99106e-08,1.29111e-05,113,109.19,-42.07,1.0833e+07,1e+06,-6.22913e-08,1.94255e-07,-5.98219e-08,-0.00506499,0.0407985,2.70184e-05,0.0435434,2,3793
12,7.40621e-22,1,5836,137.15,-4.88938e-06,1.20679e-05,-2.96856e-08,1.30208e-05,113,109.19,-42.07,1.0833e+07,1e+06,-6.0973e-08,1.92987e-07,-5.93631e-08,-0.00475444,0.0407323,3.48841e-05,0.043298,2,3794
12,7.40621e-22,1,5837,137.15,-4.94916e-06,1.21575e-05,-2.89197e-08,1.31263e-05,113,109.19,-42.07,1.0833e+07,1e+06,-5.78488e-08,1.87379e-07,-5.78394e-08,-0.00422526,0.0397437,1.85174e-05,0.0420225,2,3795
12,7.40621e-22,1,5838,137.15,-5.00508e-06,1.22412e-05,-2.78507e-08,1.3225e-05,113,109.19,-42.07,1.0833e+07,1e+06,-5.37633e-08,1.79512e-07,-5.57066e-08,-0.00357247,0.0382972,-4.99617e-06,0.0402302,2,3796
12,7.40621e-22,1,5839,137.15,-5.05669e-06,1.23172e-05,-2.67337e-08,1.33148e-05,113,109.19,-42.07,1.0833e+07,1e+06,-4.97228e-08,1.71766e-07,-5.34711e-08,-0.00291591,0.0369317,-2.47764e-05,0.0385288,2,3797
12,7.40621e-22,1,5840,137.15,-5.10453e-06,1.23846e-05,-2.58141e-08,1.33953e-05,113,109.19,-42.07,1.0833e+07,1e+06,-4.65579e-08,1.66066e-07,-5.16273e-08,-0.00236354,0.0360465,-3.44913e-05,0.0373796,2,3798
12,7.40621e-22,1,5841,137.15,-5.14981e-06,1.24441e-05,-2.52661e-08,1.34676e-05,113,109.19,-42.07,1.0833e+07,1e+06,-4.47093e-08,1.63344e-07,-5.05274e-08,-0.00198659,0.0357789,-3.15448e-05,0.0369526,2,3799
12,7.40621e-22,1,5842,137.15,-5.19395e-06,1.24984e-05,-2.51362e-08,1.35347e-05,113,109.19,-42.07,1.0833e+07,1e+06,-4.41539e-08,1.63382e-07,-5.02671e-08,-0.0018037,0.0360059,-1.86702e-05,0.0371156,2,3800
12,7.40621e-22,1,5843,137.15,-5.23811e-06,1.25512e-05,-2.53443e-08,1.36004e-05,113,109.19,-42.07,1.0833e+07,1e+06,-4.45118e-08,1.65139e-07,-5.06843e-08,-0.0017832,0.0364565,-2.7992e-06,0.0375615,2,3801
12,7.40621e-22,1,5844,137.15,-5.28297e-06,1.26061e-05,-2.57349e-08,1.36684e-05,113,109.19,-42.07,1.0833e+07,1e+06,-4.5265e-08,1.67358e-07,-5.14653e-08,-0.00186232,0.0368611,1.128e-05,0.0379823,2,3802
12,7.40621e-22,1,5845,137.15,-5.32864e-06,1.26658e-05,-2.61732e-08,1.37411e-05,113,109.19,-42.07,1.0833e+07,1e+06,-4.60074e-08,1.68967e-07,-5.23778e-08,-0.00200923,0.0370027,-6.4544e-06,0.0381681,2,3803
12,7.40621e-22,1,5846,137.15,-5.37498e-06,1.27325e-05,-2.68897e-08,1.38205e-05,113,109.19,-42.07,1.0833e+07,1e+06,-4.6832e-08,1.69567e-07,-5.35175e-08,-0.00229846,0.0367439,-0.000134814,0.0380728,2,3804
12,7.46643e-22,1,5847,137.15,-5.42231e-06,1.28096e-05,-2.47876e-08,1.391e-05,112.812,109.19,-42.07,1.0833e+07,1e+06,-4.86693e-08,1.66172e-07,-4.97097e-08,-0.00228962,0.0355236,0.000370943,0.0367731,2,3805
12,7.52664e-22,1,5848,137.15,-5.47232e-06,1.28845e-05,-2.40295e-08,1.39985e-05,112.625,109.19,-42.07,1.0833e+07,1e+06,-4.77421e-08,1.66343e-07,-4.85205e-08,-0.00132855,0.0352442,0.000822967,0.0359526,2,3806
12,7.46643e-22,1,5849,137.15,-5.51779e-06,1.29647e-05,-2.765e-08,1.40901e-05,112.812,109.19,-42.07,1.0833e+07,1e+06,-4.17006e-08,1.66157e-07,-5.50712e-08,-0.000621581,0.0348952,0.000120344,0.0354042,2,3807
12,7.31858e-22,1,5850,137.15,-5.55572e-06,1.3063e-05,-3.09035e-08,1.41954e-05,115,109.19,-42.07,1.0833e+07,1e+06,-2.89523e-08,1.61918e-07,-6.16004e-08,-0.000266581,0.035224,0.000417961,0.0355827,2,3808
12,7.14331e-22,1,5851,9.52003,-5.5757e-06,1.31183e-05,-3.99537e-08,1.42542e-05,119,63.66,-15.5,1.0833e+07,1e+06,-9.69784e-09,1.61353e-07,-7.99771e-08,-0.00092188,0.0362317,0.000220652,0.0370888,2,3809
12,7.05568e-22,1,5852,9.52003,-5.57512e-06,1.3126e-05,-4.69892e-08,1.4261e-05,121,63.66,-15.5,1.0833e+07,1e+06,2.33377e-09,1.60066e-07,-9.39977e-08,-0.00135346,0.0357888,-0.000528662,0.0369451,2,3810
12,7.05568e-22,1,5853,9.52003,-5.57103e-06,1.31297e-05,-4.57576e-08,1.42628e-05,121,63.66,-15.5,1.0833e+07,1e+06,4.13039e-09,1.57317e-07,-9.15125e-08,-0.000617235,0.0353993,-0.000115441,0.0359328,2,3811
12,7.05568e-22,1,5854,9.52003,-5.56686e-06,1.31271e-05,-4.47132e-08,1.42588e-05,121,63.66,-15.5,1.0833e+07,1e+06,4.36451e-09,1.54248e-07,-8.94226e-08,-0.000425841,0.0347233,-1.36988e-07,0.0350551,2,3812
12,7.05568e-22,1,5855,9.52003,-5.5623e-06,1.3117e-05,-4.41615e-08,1.42477e-05,121,63.66,-15.5,1.0833e+07,1e+06,4.73413e-09,1.51876e-07,-8.83242e-08,-0.00026895,0.0341309,-1.30282e-05,0.034343,2,3813
12,7.05568e-22,1,5856,9.52003,-5.55739e-06,1.30986e-05,-4.38832e-08,1.42288e-05,121,63.66,-15.5,1.0833e+07,1e+06,4.97388e-09,1.5066e-07,-8.7767e-08,-0.000141351,0.0337994,-1.64716e-05,0.0339122,2,3814
12,7.05568e-22,1,5857,9.52003,-5.55235e-06,1.30717e-05,-4.38211e-08,1.42021e-05,121,63.66,-15.5,1.0833e+07,1e+06,5.01754e-09,1.50458e-07,-8.76454e-08,-6.51057e-05,0.0337035,-1.49961e-05,0.033755,2,3815
12,7.05568e-22,1,5858,9.52003,-5.54736e-06,1.30375e-05,-4.38727e-08,1.41687e-05,121,63.66,-15.5,1.0833e+07,1e+06,4.96997e-09,1.5094e-07,-8.77437e-08,-1.96107e-05,0.0337953,1.40995e-05,0.0338004,2,3816
12,5.69008e-22,1,5859,71.87,-4.24386e-08,1.1055e-05,-3.33708e-08,1.10551e-05,27,-131.18,-164.33,1.0833e+07,1e+06,-8.11499e-08,2.29305e-07,-6.68852e-08,-0.000177842,0.0397532,0.000710138,0.040122,2,3817
12,5.69008e-22,1,5860,71.87,-1.19861e-07,1.1099e-05,-3.39581e-08,1.10997e-05,27,-131.18,-164.33,1.0833e+07,1e+06,-7.14481e-08,2.12773e-07,-6.64449e-08,0.000991583,0.036868,-0.00074206,0.0374417,2,3818
12,5.42755e-22,1,5861,71.87,-1.85335e-07,1.11175e-05,-3.08866e-08,1.11191e-05,26.5,-131.18,-164.33,1.01872e+07,968750,-6.54293e-08,2.04797e-07,-6.28791e-08,0.00234047,0.0349804,0.000103489,0.0348887,2,3819
12,4.37744e-22,1,5862,71.87,-2.5072e-07,1.11352e-05,-3.88599e-08,1.11381e-05,24.5,-131.18,-164.33,7.60394e+06,843750,-7.53258e-08,2.289e-07,-7.9576e-08,0.00278204,0.0321252,-0.000344574,0.0322412,2,3820
12,2.80227e-22,2,5863,161.73,-3.35986e-07,1.11922e-05,-5.52323e-08,1.11974e-05,21.5,119.12,126.69,3.72906e+06,656250,-9.74433e-08,2.76195e-07,-1.10132e-07,0.00240129,0.0280589,-0.000429513,0.0280882,3,2041
12,1.75215e-22,2,5864,161.73,-4.45606e-07,1.12946e-05,-6.90558e-08,1.13036e-05,19.5,119.12,126.69,1.14581e+06,531250,-1.13857e-07,3.14984e-07,-1.36886e-07,0.00187812,0.0254223,-0.000254672,0.0252156,3,2042
12,1.48963e-22,2,5865,161.73,-5.63701e-07,1.14101e-05,-7.49311e-08,1.14243e-05,19,119.12,126.69,500000,500000,-1.16435e-07,3.28724e-07,-1.49083e-07,0.00178938,0.0249803,-0.000349252,0.0247847,3,2043
12,1.48963e-22,2,5866,161.73,-6.78477e-07,1.15255e-05,-7.50908e-08,1.15457e-05,19,119.12,126.69,500000,500000,-1.1302e-07,3.26368e-07,-1.50333e-07,0.00192221,0.0248575,-0.000439411,0.0246528,3,2044
12,1.48963e-22,2,5867,161.73,-7.8974e-07,1.16406e-05,-7.38112e-08,1.16676e-05,19,119.12,126.69,500000,500000,-1.11689e-07,3.22658e-07,-1.48002e-07,0.00198688,0.0246633,-0.000329974,0.0243717,3,2045
12,1.48963e-22,2,5868,161.73,-9.01855e-07,1.17553e-05,-7.24542e-08,1.179e-05,19,119.12,126.69,500000,500000,-1.1299e-07,3.2057e-07,-1.44977e-07,0.00187492,0.0244986,-0.000205073,0.0241736,3,2046
12,1.48963e-22,2,5869,161.73,-1.01572e-06,1.18745e-05,-7.01534e-08,1.1918e-05,19,119.12,126.69,500000,500000,-1.12675e-07,3.13464e-07,-1.40209e-07,0.0016638,0.0238266,-0.000167576,0.023498,3,2047
12,1.48963e-22,2,5870,161.73,-1.1272e-06,1.19985e-05,-6.63171e-08,1.20515e-05,19,119.12,126.69,500000,500000,-1.07158e-07,2.97076e-07,-1.32827e-07,0.00153705,0.0225335,-0.000206562,0.022264,3,2048
12,1.65797e-22,2,5871,161.73,-1.23004e-06,1.21193e-05,-5.99625e-08,1.21817e-05,19.0625,119.12,126.69,500000,500000,-9.07934e-08,2.70213e-07,-1.20153e-07,0.00216488,0.0224363,0.000172064,0.0218185,3,2049
12,2.49967e-22,2,5872,161.73,-1.30879e-06,1.22542e-05,-5.15964e-08,1.2324e-05,19.375,119.12,126.69,500000,500000,-5.84045e-08,2.35179e-07,-1.02644e-07,0.00349933,0.0274991,-1.16936e-05,0.0269181,3,2050
12,3.91816e-22,2,5873,91.16,-1.34684e-06,1.24096e-05,-3.47847e-08,1.24825e-05,25.3125,126.83,-47.63,3.08325e+06,625000,-3.05377e-08,1.99904e-07,-6.98129e-08,0.00530327,0.0380294,0.000363263,0.0364304,3,2051
12,4.90338e-22,1,5874,125.44,-1.36987e-06,1.25475e-05,-2.02272e-08,1.26221e-05,36.5,67.45,-41.35,8.24975e+06,875000,-2.72228e-08,1.84923e-07,-4.08413e-08,0.0062741,0.0483973,0.000884979,0.0454715,2,3821
12,5.14349e-22,1,5875,125.44,-1.40129e-06,1.26566e-05,-1.73883e-08,1.27339e-05,42,67.45,-41.35,1.0833e+07,1e+06,-3.03998e-08,1.79776e-07,-3.44473e-08,0.00595036,0.0507485,0.000271065,0.0480824,2,3822
12,5.14349e-22,1,5876,125.44,-1.43067e-06,1.27544e-05,-1.66129e-08,1.28344e-05,42,67.45,-41.35,1.0833e+07,1e+06,-2.58984e-08,1.66571e-07,-3.32431e-08,0.0059678,0.0471604,0.000124047,0.0445881,2,3823
12,5.14349e-22,1,5877,125.44,-1.45309e-06,1.28541e-05,-1.64098e-08,1.2936e-05,42,67.45,-41.35,1.0833e+07,1e+06,-1.84007e-08,1.51152e-07,-3.28994e-08,0.00622378,0.043222,5.03631e-05,0.0407467,2,3824
12,5.14349e-22,1,5878,125.44,-1.46747e-06,1.29614e-05,-1.59816e-08,1.30442e-05,42,67.45,-41.35,1.0833e+07,1e+06,-1.08915e-08,1.33442e-07,-3.17767e-08,0.00634913,0.038618,2.91912e-05,0.0362908,2,3825
12,5.14349e-22,1,5879,125.44,-1.47487e-06,1.30727e-05,-1.45332e-08,1.31556e-05,42,67.45,-41.35,1.0833e+07,1e+06,-5.12601e-09,1.14258e-07,-2.81179e-08,0.00630823,0.0334942,0.000356084,0.0310871,2,3826
12,5.01051e-22,1,5880,125.44,-1.47772e-06,1.31821e-05,-1.30163e-08,1.32647e-05,41.75,67.45,-41.35,1.01872e+07,968750,-4.93046e-09,1.02139e-07,-2.56747e-08,0.00592472,0.028517,0.000589278,0.0261652,2,3827
12,4.74457e-22,1,5881,125.44,-1.48473e-06,1.32709e-05,-1.49534e-08,1.33537e-05,41.25,67.45,-41.35,8.89556e+06,906250,-1.26394e-08,1.1095e-07,-3.13546e-08,0.00552595,0.0250496,0.000715322,0.0228113,2,3828
12,4.34566e-22,1,5882,125.44,-1.503e-06,1.33113e-05,-2.22641e-08,1.33959e-05,40.5,67.45,-41.35,6.95812e+06,812500,-2.59565e-08,1.40161e-07,-4.67698e-08,0.00514976,0.0244263,0.00068295,0.0223812,2,3829
12,3.81378e-22,2,5883,95.55,-1.53664e-06,1.33032e-05,-3.92603e-08,1.33917e-05,39.5,20.95,172.44,4.37488e+06,687500,-3.96642e-08,1.79332e-07,-7.66513e-08,0.00467415,0.0226159,-9.21514e-05,0.0214131,3,2052
12,3.62532e-22,2,5884,95.55,-1.58233e-06,1.32604e-05,-4.40593e-08,1.33546e-05,39.875,20.95,172.44,2.43744e+06,593750,-5.02372e-08,2.02287e-07,-8.70262e-08,0.00483996,0.0227606,-0.000258349,0.0219226,3,2053
12,3.85045e-22,2,5885,44.42,-1.63712e-06,1.31674e-05,-2.93959e-08,1.32688e-05,42,-34.07,-165.31,1.14581e+06,531250,-6.38654e-08,2.05977e-07,-6.00616e-08,0.00612325,0.028067,0.000354378,0.0262945,3,2054
12,4.06824e-22,2,5886,44.42,-1.71006e-06,1.30341e-05,-1.8919e-08,1.31459e-05,43.625,-34.07,-165.31,500000,500000,-8.23649e-08,2.14005e-07,-3.72946e-08,0.00682404,0.0323395,0.000273092,0.0297977,3,2055
12,4.13839e-22,2,5887,44.42,-1.80185e-06,1.29058e-05,-1.5219e-08,1.3031e-05,44,-34.07,-165.31,500000,500000,-9.78755e-08,2.25789e-07,-3.04389e-08,0.00618489,0.0344961,6.36208e-05,0.0319128,3,2056
12,4.13839e-22,2,5888,44.42,-1.90581e-06,1.27936e-05,-1.42024e-08,1.29347e-05,44,-34.07,-165.31,500000,500000,-1.07592e-07,2.35023e-07,-2.8307e-08,0.005555,0.0357144,0.00016431,0.033212,3,2057
12,4.13839e-22,2,5889,44.42,-2.01703e-06,1.26949e-05,-1.34146e-08,1.28542e-05,44,-34.07,-165.31,500000,500000,-1.12717e-07,2.39792e-07,-2.66382e-08,0.00520471,0.0364842,0.000293659,0.0340719,3,2058
12,4.13839e-22,2,5890,44.42,-2.13124e-06,1.26166e-05,-1.32208e-08,1.27953e-05,44,-34.07,-165.31,500000,500000,-1.06577e-07,2.40526e-07,-2.69229e-08,0.00604385,0.0377003,0.000992902,0.0347737,3,2059
12,5.17173e-22,2,5891,44.42,-2.23019e-06,1.25678e-05,-2.42114e-08,1.27641e-05,46.75,-34.07,-165.31,3.08325e+06,625000,-8.14367e-08,2.24244e-07,-4.84975e-08,0.00457195,0.0378334,-0.00114938,0.0373878,3,2060
12,7.23841e-22,1,5892,130.6,-2.29412e-06,1.25985e-05,-3.26315e-08,1.28057e-05,52.25,117.2,-48.36,8.24975e+06,875000,-5.46122e-08,2.01692e-07,-6.47853e-08,0.00359564,0.0374455,-0.00135017,0.0374109,2,3830
12,8.27175e-22,1,5893,130.6,-2.33941e-06,1.26855e-05,-3.08338e-08,1.28994e-05,55,117.2,-48.36,1.0833e+07,1e+06,-4.60867e-08,1.93634e-07,-6.18125e-08,0.00458743,0.0373352,0.000575836,0.0351644,2,3831
12,8.27175e-22,1,5894,130.6,-2.38629e-06,1.27634e-05,-3.10148e-08,1.29846e-05,55,117.2,-48.36,1.0833e+07,1e+06,-4.73309e-08,1.9126e-07,-6.20762e-08,0.00392562,0.0366249,2.36825e-05,0.0349383,2,3832
12,8.27175e-22,1,5895,130.6,-2.43407e-06,1.28348e-05,-3.02677e-08,1.30636e-05,55,117.2,-48.36,1.0833e+07,1e+06,-4.74534e-08,1.88084e-07,-6.04936e-08,0.00359526,0.0360928,3.56602e-05,0.0344798,2,3833
12,8.27175e-22,1,5896,130.6,-2.4812e-06,1.28974e-05,-2.92719e-08,1.31339e-05,55,117.2,-48.36,1.0833e+07,1e+06,-4.584e-08,1.82615e-07,-5.86422e-08,0.00350459,0.0352556,-3.00175e-05,0.0336861,2,3834
12,8.27175e-22,1,5897,130.6,-2.52575e-06,1.29486e-05,-2.86565e-08,1.31927e-05,55,117.2,-48.36,1.0833e+07,1e+06,-4.23549e-08,1.74644e-07,-5.7233e-08,0.00363498,0.0339373,-0.000367444,0.0325084,2,3835
12,8.14046e-22,1,5898,130.6,-2.56591e-06,1.29907e-05,-2.67445e-08,1.32417e-05,61.5,117.2,-48.36,1.0833e+07,1e+06,-4.13793e-08,1.64893e-07,-5.37097e-08,0.00375318,0.0304863,0.000362385,0.0289062,2,3836
12,7.87787e-22,1,5899,91.26,-2.60851e-06,1.30061e-05,-2.88249e-08,1.32651e-05,74.5,-49.63,-179.82,1.0833e+07,1e+06,-4.46309e-08,1.5929e-07,-5.7464e-08,0.00347869,0.0246635,0.000209431,0.0234182,2,3837
12,7.74657e-22,1,5900,91.26,-2.65517e-06,1.3e-05,-3.1601e-08,1.32684e-05,81,-49.63,-179.82,1.0833e+07,1e+06,-4.64523e-08,1.57992e-07,-6.29052e-08,0.00321425,0.0214946,-0.000600997,0.0205908,2,3838
12,7.74657e-22,1,5901,91.26,-2.70142e-06,1.29931e-05,-3.07095e-08,1.3271e-05,81,-49.63,-179.82,1.0833e+07,1e+06,-4.72541e-08,1.58987e-07,-6.17066e-08,0.00315003,0.0217747,-0.000126879,0.0205151,2,3839
12,7.74657e-22,1,5902,91.26,-2.74968e-06,1.29796e-05,-3.1413e-08,1.32677e-05,81,-49.63,-179.82,1.0833e+07,1e+06,-4.98258e-08,1.63456e-07,-6.27967e-08,0.0029028,0.0223107,-1.53582e-05,0.0210511,2,3840
12,7.74657e-22,1,5903,91.26,-2.80107e-06,1.29595e-05,-3.24228e-08,1.32588e-05,81,-49.63,-179.82,1.0833e+07,1e+06,-5.32542e-08,1.69895e-07,-6.4856e-08,0.0026161,0.0230518,1.78635e-06,0.0219502,2,3841
12,7.74657e-22,1,5904,91.26,-2.85618e-06,1.29343e-05,-3.37016e-08,1.32459e-05,81,-49.63,-179.82,1.0833e+07,1e+06,-5.71012e-08,1.77571e-07,-6.74081e-08,0.00233921,0.0239529,1.04458e-05,0.0230328,2,3842
12,7.74657e-22,1,5905,91.26,-2.91527e-06,1.29057e-05,-3.51063e-08,1.32309e-05,81,-49.63,-179.82,1.0833e+07,1e+06,-6.1019e-08,1.8579e-07,-7.02149e-08,0.00209653,0.0249337,1.27972e-05,0.0241633,2,3843
12,7.74657e-22,1,5906,91.26,-2.97822e-06,1.28755e-05,-3.65265e-08,1.32155e-05,81,-49.63,-179.82,1.0833e+07,1e+06,-6.46983e-08,1.93913e-07,-7.30551e-08,0.00190832,0.0259196,1.03988e-05,0.0252409,2,3844
12,7.74657e-22,1,5907,91.26,-3.04467e-06,1.28455e-05,-3.7868e-08,1.32014e-05,81,-49.63,-179.82,1.0833e+07,1e+06,-6.79351e-08,2.01434e-07,-7.57336e-08,0.00177995,0.0268479,6.44387e-06,0.0262018,2,3845
12,7.74657e-22,1,5908,91.26,-3.11409e-06,1.28174e-05,-3.90707e-08,1.31903e-05,81,-49.63,-179.82,1.0833e+07,1e+06,-7.06564e-08,2.08083e-07,-7.81379e-08,0.00170457,0.0276817,2.78526e-06,0.0270235,2,3846
12,7.74657e-22,1,5909,91.26,-3.18598e-06,1.27924e-05,-4.01223e-08,1.31832e-05,81,-49.63,-179.82,1.0833e+07,1e+06,-7.28942e-08,2.13838e-07,-8.02451e-08,0.00167164,0.0284154,1.33087e-06,0.0277173,2,3847
12,7.74657e-22,1,5910,91.26,-3.25988e-06,1.27716e-05,-4.10355e-08,1.31812e-05,81,-49.63,-179.82,1.0833e+07,1e+06,-7.4717e-08,2.1877e-07,-8.2074e-08,0.00166892,0.0290529,8.59059e-07,0.0283055,2,3848
12,7.74657e-22,1,5911,91.26,-3.33541e-06,1.27562e-05,-4.18232e-08,1.31851e-05,81,-49.63,-179.82,1.0833e+07,1e+06,-7.61938e-08,2.22946e-07,-8.36466e-08,0.00168428,0.0295979,-9.36959e-07,0.0288131,2,3849
12,7.74657e-22,1,5912,91.26,-3.41227e-06,1.27474e-05,-4.24714e-08,1.31963e-05,81,-49.63,-179.82,1.0833e+07,1e+06,-7.74098e-08,2.26457e-07,-8.49512e-08,0.00170682,0.030061,4.4044e-06,0.0292735,2,3850
12,7.74657e-22,1,5913,91.26,-3.49023e-06,1.27472e-05,-4.29967e-08,1.32164e-05,81,-49.63,-179.82,1.0833e+07,1e+06,-7.86833e-08,2.29383e-07,-8.59394e-08,0.00166995,0.0304246,6.867e-06,0.0297544,2,3851
12,7.74657e-22,1,5914,91.26,-3.56964e-06,1.2758e-05,-4.22401e-08,1.3248e-05,81,-49.63,-179.82,1.0833e+07,1e+06,-8.04241e-08,2.31821e-07,-8.47299e-08,0.00163085,0.0309053,0.00051044,0.0303126,2,3852
12,6.90657e-22,1,5915,91.26,-3.65108e-06,1.27836e-05,-4.38771e-08,1.32949e-05,80.25,-49.63,-179.82,8.89556e+06,906250,-8.4222e-08,2.34403e-07,-8.79789e-08,0.00084507,0.0300761,-0.000926255,0.0317948,2,3853
12,4.94658e-22,2,5916,132.37,-3.73808e-06,1.28106e-05,-4.6092e-08,1.33449e-05,78.5,120.16,96.49,4.37488e+06,687500,-9.03159e-08,2.43337e-07,-9.09169e-08,0.000827856,0.0285144,-0.0018401,0.0318343,3,2061
12,3.38853e-22,2,5917,132.37,-3.83171e-06,1.28304e-05,-3.63831e-08,1.33904e-05,80.4375,120.16,96.49,3.08325e+06,625000,-8.3914e-08,2.35512e-07,-7.26196e-08,0.00207375,0.0319431,0.00067243,0.0330594,3,2062
12,2.73972e-22,1,5918,118.57,-3.90591e-06,1.28059e-05,-2.36694e-08,1.33883e-05,87.625,73.1,-29.9,6.95812e+06,812500,-5.98022e-08,1.97002e-07,-4.86938e-08,0.00255776,0.0377765,0.00104515,0.0373062,2,3854
12,2.47629e-22,1,5919,118.57,-3.95132e-06,1.27114e-05,-1.9295e-08,1.33114e-05,92.9375,73.1,-29.9,1.01872e+07,968750,-4.27306e-08,1.72823e-07,-3.8822e-08,0.00321227,0.0413272,0.000226035,0.0399922,2,3855
12,2.42361e-22,1,5920,118.57,-3.99137e-06,1.25906e-05,-1.87322e-08,1.32081e-05,94,73.1,-29.9,1.0833e+07,1e+06,-4.1275e-08,1.74373e-07,-3.70582e-08,0.00382091,0.0433831,0.000402816,0.0413948,2,3856
12,2.42361e-22,1,5921,118.57,-4.03387e-06,1.24669e-05,-1.89534e-08,1.31033e-05,94,73.1,-29.9,1.0833e+07,1e+06,-4.29793e-08,1.76043e-07,-3.76799e-08,0.00367318,0.0434907,0.000117599,0.0417277,2,3857
12,2.42361e-22,1,5922,118.57,-4.07733e-06,1.23391e-05,-1.86508e-08,1.29953e-05,94,73.1,-29.9,1.0833e+07,1e+06,-4.42746e-08,1.74843e-07,-3.73675e-08,0.0034778,0.0428122,-9.05001e-05,0.0412443,2,3858
12,2.42361e-22,1,5923,118.57,-4.12242e-06,1.22027e-05,-1.81201e-08,1.28802e-05,94,73.1,-29.9,1.0833e+07,1e+06,-4.73698e-08,1.76781e-07,-3.63303e-08,0.00324088,0.0428926,6.61379e-06,0.0414113,2,3859
12,3.35784e-22,1,5924,118.57,-4.17207e-06,1.20495e-05,-1.87852e-08,1.27513e-05,97.5625,73.1,-29.9,1.0833e+07,1e+06,-4.91885e-08,1.83674e-07,-3.72705e-08,0.00298315,0.044699,0.000506871,0.0434349,2,3860
12,5.53774e-22,1,5925,137.15,-4.22079e-06,1.19278e-05,-2.0307e-08,1.26526e-05,105.875,109.19,-42.07,1.0833e+07,1e+06,-4.64379e-08,1.71757e-07,-4.05397e-08,0.000671665,0.0412068,0.000146431,0.041789,2,3861
12,7.0948e-22,1,5926,137.15,-4.26494e-06,1.1864e-05,-2.15e-08,1.26073e-05,111.812,109.19,-42.07,1.0833e+07,1e+06,-4.4254e-08,1.57344e-07,-4.32907e-08,-0.00169409,0.0365583,-0.000264991,0.0386429,2,3862
12,7.40621e-22,1,5927,137.15,-4.3093e-06,1.18183e-05,-2.18661e-08,1.25794e-05,113,109.19,-42.07,1.0833e+07,1e+06,-4.49172e-08,1.5711e-07,-4.36956e-08,-0.00217669,0.0360783,5.23286e-05,0.0380754,2,3863
12,7.40621e-22,1,5928,137.15,-4.35478e-06,1.17813e-05,-2.1539e-08,1.25604e-05,113,109.19,-42.07,1.0833e+07,1e+06,-4.63255e-08,1.54275e-07,-4.31189e-08,-0.00280889,0.0348834,6.19131e-05,0.0369905,2,3864
12,7.40621e-22,1,5929,137.15,-4.40195e-06,1.17598e-05,-2.1711e-08,1.25567e-05,113,109.19,-42.07,1.0833e+07,1e+06,-4.83902e-08,1.54204e-07,-4.34594e-08,-0.00344179,0.0342418,0.000108765,0.0364535,2,3865
12,7.40621e-22,1,5930,137.15,-4.45156e-06,1.17581e-05,-2.21319e-08,1.25726e-05,113,109.19,-42.07,1.0833e+07,1e+06,-5.08655e-08,1.55015e-07,-4.4321e-08,-0.0041494,0.0337217,8.44933e-05,0.0361645,2,3866
12,7.40621e-22,1,5931,137.15,-4.50368e-06,1.17785e-05,-2.31808e-08,1.26102e-05,113,109.19,-42.07,1.0833e+07,1e+06,-5.36689e-08,1.57616e-07,-4.62967e-08,-0.00487626,0.0334878,-3.43668e-05,0.0362893,2,3867
12,7.40621e-22,1,5932,137.15,-4.5589e-06,1.1824e-05,-2.48681e-08,1.26724e-05,113,109.19,-42.07,1.0833e+07,1e+06,-5.71262e-08,1.65054e-07,-4.96235e-08,-0.00545927,0.0344379,-7.72573e-05,0.0375351,2,3868
12,7.40621e-22,1,5933,137.15,-4.61794e-06,1.18927e-05,-2.66331e-08,1.27578e-05,113,109.19,-42.07,1.0833e+07,1e+06,-6.09161e-08,1.75252e-07,-5.32582e-08,-0.00591678,0.036256,-6.33177e-05,0.0395882,2,3869
12,7.40621e-22,1,5934,137.15,-4.68073e-06,1.19782e-05,-2.81937e-08,1.28603e-05,113,109.19,-42.07,1.0833e+07,1e+06,-6.41206e-08,1.85046e-07,-5.64115e-08,-0.00620895,0.0382484,-6.01101e-05,0.0417351,2,3870
12,7.40621e-22,1,5935,137.15,-4.74618e-06,1.20733e-05,-2.92895e-08,1.29728e-05,113,109.19,-42.07,1.0833e+07,1e+06,-6.5871e-08,1.93128e-07,-5.8612e-08,-0.00615569,0.0401968,-1.39448e-05,0.0436122,2,3871
12,7.40621e-22,1,5936,137.15,-4.81247e-06,1.21698e-05,-2.95502e-08,1.30868e-05,113,109.19,-42.07,1.0833e+07,1e+06,-6.54728e-08,1.96217e-07,-5.90865e-08,-0.00579019,0.0412732,3.75767e-05,0.0444522,2,3872
12,7.40621e-22,1,5937,137.15,-4.87712e-06,1.2261e-05,-2.90314e-08,1.31954e-05,113,109.19,-42.07,1.0833e+07,1e+06,-6.27698e-08,1.93203e-07,-5.80503e-08,-0.00518603,0.041036,3.00774e-05,0.0438864,2,3873
12,7.40621e-22,1,5938,137.15,-4.93801e-06,1.23445e-05,-2.81224e-08,1.32955e-05,113,109.19,-42.07,1.0833e+07,1e+06,-5.85422e-08,1.86385e-07,-5.62473e-08,-0.00441959,0.0399073,2.11394e-06,0.0423525,2,3874
12,7.40621e-22,1,5939,137.15,-4.99421e-06,1.24204e-05,-2.71175e-08,1.33869e-05,113,109.19,-42.07,1.0833e+07,1e+06,-5.39442e-08,1.78442e-07,-5.42402e-08,-0.00363032,0.0384764,-1.94036e-05,0.0405052,2,3875
12,7.40621e-22,1,5940,137.15,-5.0459e-06,1.2489e-05,-2.62075e-08,1.34699e-05,113,109.19,-42.07,1.0833e+07,1e+06,-4.98872e-08,1.71383e-07,-5.24183e-08,-0.00293509,0.0372094,-3.2596e-05,0.0388792,2,3876
12,7.40621e-22,1,5941,137.15,-5.09398e-06,1.25511e-05,-2.55357e-08,1.35455e-05,113,109.19,-42.07,1.0833e+07,1e+06,-4.6921e-08,1.66474e-07,-5.10715e-08,-0.00240371,0.0363862,-3.6373e-05,0.0377929,2,3877
12,7.40621e-22,1,5942,137.15,-5.13974e-06,1.26081e-05,-2.51823e-08,1.36155e-05,113,109.19,-42.07,1.0833e+07,1e+06,-4.52416e-08,1.64129e-07,-5.0362e-08,-0.00206835,0.0360675,-3.13296e-05,0.0373166,2,3878
12,7.40621e-22,1,5943,137.15,-5.18447e-06,1.26623e-05,-2.51447e-08,1.36826e-05,113,109.19,-42.07,1.0833e+07,1e+06,-4.47228e-08,1.63987e-07,-5.02867e-08,-0.00192342,0.036136,-2.0751e-05,0.0373171,2,3879
12,7.40621e-22,1,5944,137.15,-5.22919e-06,1.27165e-05,-2.53448e-08,1.37497e-05,113,109.19,-42.07,1.0833e+07,1e+06,-4.50139e-08,1.65201e-07,-5.06888e-08,-0.00192961,0.0363885,-8.94175e-06,0.0375619,2,3880
12,7.40621e-22,1,5945,137.15,-5.27449e-06,1.27732e-05,-2.56599e-08,1.38194e-05,113,109.19,-42.07,1.0833e+07,1e+06,-4.56687e-08,1.66775e-07,-5.13347e-08,-0.00202833,0.0366169,-3.1312e-06,0.0378146,2,3881
12,7.40621e-22,1,5946,137.15,-5.32052e-06,1.28342e-05,-2.60043e-08,1.38934e-05,113,109.19,-42.07,1.0833e+07,1e+06,-4.62403e-08,1.67789e-07,-5.19453e-08,-0.00214941,0.0366407,1.10196e-05,0.0378564,2,3882
12,7.40621e-22,1,5947,137.15,-5.36697e-06,1.2901e-05,-2.60794e-08,1.39729e-05,113,109.19,-42.07,1.0833e+07,1e+06,-4.58857e-08,1.67092e-07,-5.25417e-08,-0.00215796,0.0362415,-4.69123e-05,0.0374371,2,3883
12,7.40621e-22,1,5948,137.15,-5.41229e-06,1.29727e-05,-2.61085e-08,1.40565e-05,113,109.19,-42.07,1.0833e+07,1e+06,-4.38648e-08,1.62144e-07,-5.2161e-08,-0.00198222,0.0348865,-0.000129664,0.035995,2,3884
12,7.40621e-22,1,5949,137.15,-5.4547e-06,1.30464e-05,-2.6661e-08,1.41408e-05,113,109.19,-42.07,1.0833e+07,1e+06,-4.18362e-08,1.59704e-07,-5.27166e-08,-0.00161842,0.0340302,-0.000116381,0.0349373,2,3885
12,7.40621e-22,1,5950,137.15,-5.49597e-06,1.31283e-05,-2.74521e-08,1.42324e-05,113,109.19,-42.07,1.0833e+07,1e+06,-4.06107e-08,1.59911e-07,-5.50337e-08,-0.00142947,0.0335325,-0.000246128,0.0344374,2,3886
12,7.31858e-22,1,5951,137.15,-5.53592e-06,1.32239e-05,-2.99602e-08,1.4336e-05,115,109.19,-42.07,1.0833e+07,1e+06,-3.03611e-08,1.59344e-07,-6.01041e-08,-0.000815689,0.0345613,0.000397624,0.0352007,2,3887
12,7.14331e-22,1,5952,9.52003,-5.55669e-06,1.32795e-05,-3.9935e-08,1.43953e-05,119,63.66,-15.5,1.0833e+07,1e+06,-1.02723e-08,1.61383e-07,-7.98675e-08,-0.00109644,0.0362126,0.000198947,0.0371522,2,3888
12,7.05568e-22,1,5953,9.52003,-5.55647e-06,1.32867e-05,-4.73607e-08,1.44019e-05,121,63.66,-15.5,1.0833e+07,1e+06,2.10307e-09,1.61724e-07,-9.47558e-08,-0.00138424,0.0361424,-0.000519743,0.037281,2,3889
12,7.05568e-22,1,5954,9.52003,-5.55248e-06,1.32879e-05,-4.62819e-08,1.44014e-05,121,63.66,-15.5,1.0833e+07,1e+06,4.1725e-09,1.59073e-07,-9.25621e-08,-0.000590004,0.0357543,-0.000126568,0.0362432,2,3890
12,7.05568e-22,1,5955,9.52003,-5.54812e-06,1.32822e-05,-4.5278e-08,1.43945e-05,121,63.66,-15.5,1.0833e+07,1e+06,4.60264e-09,1.55931e-07,-9.055e-08,-0.000358799,0.0350625,-1.30445e-05,0.0353377,2,3891
12,7.05568e-22,1,5956,9.52003,-5.54328e-06,1.32699e-05,-4.47562e-08,1.43812e-05,121,63.66,-15.5,1.0833e+07,1e+06,5.01025e-09,1.5368e-07,-8.951e-08,-0.000200123,0.0345103,-1.77003e-05,0.0346733,2,3892
12,7.05568e-22,1,5957,9.52003,-5.5381e-06,1.32503e-05,-4.4464e-08,1.43611e-05,121,63.66,-15.5,1.0833e+07,1e+06,5.19408e-09,1.52504e-07,-8.8927e-08,-9.30768e-05,0.0341994,-1.66881e-05,0.0342811,2,3893
12,7.05568e-22,1,5958,9.52003,-5.53289e-06,1.3223e-05,-4.43029e-08,1.4334e-05,121,63.66,-15.5,1.0833e+07,1e+06,5.15261e-09,1.52072e-07,-8.86072e-08,-3.80923e-05,0.0340616,-1.00108e-05,0.034095,2,3894
12,7.05568e-22,1,5959,9.52003,-5.5278e-06,1.3189e-05,-4.41832e-08,1.43006e-05,121,63.66,-15.5,1.0833e+07,1e+06,5.04931e-09,1.51928e-07,-8.83641e-08,-9.11206e-06,0.0340109,9.81898e-06,0.0340125,2,3895
12,5.21963e-22,1,5960,71.87,-3.89507e-08,1.12918e-05,-3.62035e-08,1.1292e-05,20.75,-131.18,-164.33,8.24975e+06,875000,-7.6586e-08,2.58924e-07,-7.19227e-08,0.00499725,0.0446012,0.00177826,0.0427184,2,3896
12,5.07472e-22,1,5961,71.87,-1.14221e-07,1.1313e-05,-3.45408e-08,1.13136e-05,21.8125,-131.18,-164.33,8.24975e+06,875000,-7.44506e-08,2.35963e-07,-6.90754e-08,0.00352559,0.0386487,0.000664898,0.0381688,2,3897
12,4.25983e-22,1,5962,71.87,-1.87852e-07,1.13302e-05,-4.2497e-08,1.13318e-05,22.9375,-131.18,-164.33,6.95813e+06,812500,-8.0742e-08,2.46024e-07,-8.69151e-08,0.0026433,0.0337958,-0.000554663,0.0345597,2,3898
12,2.80227e-22,2,5963,161.73,-2.75705e-07,1.13938e-05,-6.09985e-08,1.13973e-05,21.5,119.12,126.69,3.72906e+06,656250,-9.91349e-08,2.92895e-07,-1.21612e-07,0.00268898,0.0299172,-0.000983768,0.0303383,3,2063
12,1.75215e-22,2,5964,161.73,-3.86122e-07,1.15045e-05,-7.3466e-08,1.15112e-05,19.5,119.12,126.69,1.14581e+06,531250,-1.14037e-07,3.2848e-07,-1.45384e-07,0.00245282,0.0268272,-0.000191018,0.0263456,3,2064
12,1.48963e-22,2,5965,161.73,-5.0378e-07,1.16287e-05,-7.73473e-08,1.16399e-05,19,119.12,126.69,500000,500000,-1.16162e-07,3.36982e-07,-1.54658e-07,0.00218656,0.0257353,-0.000265605,0.0252422,3,2065
12,1.48963e-22,2,5966,161.73,-6.18445e-07,1.17449e-05,-7.70817e-08,1.17614e-05,19,119.12,126.69,500000,500000,-1.14061e-07,3.34909e-07,-1.54594e-07,0.0022946,0.025667,-0.000267322,0.0251529,3,2066
12,1.48963e-22,2,5967,161.73,-7.31902e-07,1.18559e-05,-7.56865e-08,1.18787e-05,19,119.12,126.69,500000,500000,-1.13162e-07,3.30249e-07,-1.51417e-07,0.00226563,0.0253482,-0.000163543,0.0247933,3,2067
12,1.48963e-22,2,5968,161.73,-8.44769e-07,1.19654e-05,-7.37061e-08,1.19954e-05,19,119.12,126.69,500000,500000,-1.1295e-07,3.2472e-07,-1.47376e-07,0.00211302,0.0248917,-8.75286e-05,0.0243502,3,2068
12,1.48963e-22,2,5969,161.73,-9.57801e-07,1.20757e-05,-7.14499e-08,1.21139e-05,19,119.12,126.69,500000,500000,-1.13135e-07,3.19178e-07,-1.42933e-07,0.00195324,0.0244173,9.33018e-06,0.0238518,3,2069
12,1.48963e-22,2,5970,161.73,-1.07104e-06,1.2187e-05,-6.88259e-08,1.22342e-05,19,119.12,126.69,500000,500000,-1.12107e-07,3.10711e-07,-1.3771e-07,0.00174936,0.023671,3.35213e-05,0.0231309,3,2070
12,1.48963e-22,2,5971,161.73,-1.18201e-06,1.2296e-05,-6.57608e-08,1.23529e-05,19,119.12,126.69,500000,500000,-1.08625e-07,2.97997e-07,-1.32055e-07,0.00151602,0.0225644,-0.000121724,0.0222094,3,2071
12,1.48963e-22,2,5972,161.73,-1.28829e-06,1.23992e-05,-6.36026e-08,1.24661e-05,19,119.12,126.69,500000,500000,-1.00918e-07,2.83802e-07,-1.26764e-07,0.00180301,0.021691,-3.53539e-05,0.0212254,3,2072
12,1.99465e-22,2,5973,161.73,-1.38385e-06,1.25013e-05,-5.81525e-08,1.25778e-05,19.1875,119.12,126.69,500000,500000,-7.7267e-08,2.55333e-07,-1.15088e-07,0.00246076,0.0244277,-0.000563401,0.0244213,3,2073
12,3.41314e-22,2,5974,91.16,-1.44282e-06,1.2614e-05,-3.95598e-08,1.26963e-05,25.125,126.83,-47.63,3.08325e+06,625000,-4.34562e-08,2.16841e-07,-8.0164e-08,0.00472335,0.0364661,0.000112534,0.0352061,3,2074
12,4.73504e-22,1,5975,125.44,-1.47076e-06,1.27346e-05,-2.30095e-08,1.28193e-05,36.4375,67.45,-41.35,8.24975e+06,875000,-2.65228e-08,1.94431e-07,-4.67536e-08,0.00718391,0.0496969,0.000942287,0.0464298,2,3899
12,5.14349e-22,1,5976,125.44,-1.49587e-06,1.28368e-05,-1.90095e-08,1.29237e-05,42,67.45,-41.35,1.0833e+07,1e+06,-2.3134e-08,1.79545e-07,-3.74304e-08,0.0075291,0.0512006,0.000248723,0.0479331,2,3900
12,5.14349e-22,1,5977,125.44,-1.51703e-06,1.29192e-05,-1.77129e-08,1.3008e-05,42,67.45,-41.35,1.0833e+07,1e+06,-1.78163e-08,1.62323e-07,-3.54144e-08,0.00746195,0.0464956,0.000119325,0.0433503,2,3901
12,5.14349e-22,1,5978,125.44,-1.5315e-06,1.30033e-05,-1.72843e-08,1.30932e-05,42,67.45,-41.35,1.0833e+07,1e+06,-1.15989e-08,1.46773e-07,-3.45228e-08,0.00739179,0.0424412,5.936e-05,0.0395559,2,3902
12,5.14349e-22,1,5979,125.44,-1.54023e-06,1.3094e-05,-1.65654e-08,1.31843e-05,42,67.45,-41.35,1.0833e+07,1e+06,-6.50108e-09,1.31213e-07,-3.31736e-08,0.00709105,0.0382931,-8.68889e-06,0.0357855,2,3903
12,5.14349e-22,1,5980,125.44,-1.5445e-06,1.31884e-05,-1.53962e-08,1.32785e-05,42,67.45,-41.35,1.0833e+07,1e+06,-2.64556e-09,1.15547e-07,-3.06646e-08,0.00672024,0.0340077,3.66719e-05,0.0317537,2,3904
12,5.14349e-22,1,5981,125.44,-1.54552e-06,1.328e-05,-1.35334e-08,1.33696e-05,42,67.45,-41.35,1.0833e+07,1e+06,-7.81749e-11,9.8957e-08,-2.63826e-08,0.00637947,0.0293198,0.000236882,0.027058,2,3905
12,5.14349e-22,1,5982,125.44,-1.54466e-06,1.33553e-05,-1.05814e-08,1.34443e-05,42,67.45,-41.35,1.0833e+07,1e+06,-5.52924e-10,8.65484e-08,-2.09779e-08,0.00597091,0.0256345,0.000623604,0.0231258,2,3906
12,5.01051e-22,1,5983,125.44,-1.54663e-06,1.3407e-05,-9.44712e-09,1.34959e-05,41.75,67.45,-41.35,1.01872e+07,968750,-6.2622e-09,8.93615e-08,-1.91434e-08,0.00557373,0.0246186,0.00107136,0.0218619,2,3907
12,4.74457e-22,1,5984,125.44,-1.55718e-06,1.34346e-05,-1.39969e-08,1.35246e-05,41.25,67.45,-41.35,8.89556e+06,906250,-1.49089e-08,1.05309e-07,-2.82782e-08,0.00519956,0.0233636,0.000485305,0.0213602,2,3908
12,4.55612e-22,1,5985,125.44,-1.57644e-06,1.34185e-05,-1.4321e-08,1.35108e-05,41.625,67.45,-41.35,6.95812e+06,812500,-2.75999e-08,1.25147e-07,-3.03286e-08,0.00510381,0.0245245,0.000713575,0.022949,2,3909
12,4.38233e-22,2,5986,44.42,-1.61238e-06,1.33474e-05,-1.23505e-08,1.34445e-05,43,-34.07,-165.31,3.72906e+06,656250,-5.07051e-08,1.58264e-07,-2.51064e-08,0.00575536,0.0289861,0.00135625,0.0267522,3,2075
12,4.20121e-22,2,5987,44.42,-1.67785e-06,1.32409e-05,-1.51776e-08,1.33468e-05,43.875,-34.07,-165.31,1.14581e+06,531250,-7.75528e-08,1.9665e-07,-2.8763e-08,0.00608566,0.0317238,0.000329477,0.0293598,3,2076
12,4.13839e-22,2,5988,44.42,-1.76749e-06,1.31286e-05,-1.50789e-08,1.32471e-05,44,-34.07,-165.31,500000,500000,-9.62766e-08,2.18557e-07,-2.98044e-08,0.00554823,0.0333289,-0.000222045,0.0311059,3,2077
12,4.13839e-22,2,5989,44.42,-1.87041e-06,1.30257e-05,-1.34232e-08,1.31593e-05,44,-34.07,-165.31,500000,500000,-1.07174e-07,2.29812e-07,-2.71787e-08,0.00504591,0.0348277,2.83691e-05,0.0326069,3,2078
12,4.13839e-22,2,5990,44.42,-1.98184e-06,1.29327e-05,-1.27579e-08,1.30837e-05,44,-34.07,-165.31,500000,500000,-1.12842e-07,2.35089e-07,-2.54018e-08,0.00465129,0.0356332,0.0001968,0.0335358,3,2079
12,4.13839e-22,2,5991,44.42,-2.09609e-06,1.28543e-05,-1.17663e-08,1.30241e-05,44,-34.07,-165.31,500000,500000,-1.08101e-07,2.34112e-07,-2.40023e-08,0.00528477,0.036397,0.000958089,0.0338201,3,2080
12,5.17173e-22,2,5992,44.42,-2.19804e-06,1.27929e-05,-2.34023e-08,1.29803e-05,46.75,-34.07,-165.31,3.08325e+06,625000,-8.55943e-08,2.25033e-07,-4.65788e-08,0.00397098,0.0378223,-0.00106003,0.0375974,3,2081
12,7.23841e-22,1,5993,130.6,-2.26728e-06,1.28036e-05,-3.28396e-08,1.30029e-05,52.25,117.2,-48.36,8.24975e+06,875000,-5.86962e-08,2.06128e-07,-6.51703e-08,0.00303954,0.0379547,-0.00134387,0.0381447,2,3910
12,8.27175e-22,1,5994,130.6,-2.31543e-06,1.288e-05,-3.10928e-08,1.30865e-05,55,117.2,-48.36,1.0833e+07,1e+06,-4.84208e-08,1.95756e-07,-6.24822e-08,0.00415857,0.0373595,0.000543156,0.0353699,2,3911
12,8.27175e-22,1,5995,130.6,-2.36412e-06,1.29558e-05,-3.17453e-08,1.31698e-05,55,117.2,-48.36,1.0833e+07,1e+06,-4.87897e-08,1.95293e-07,-6.34674e-08,0.00388994,0.0372535,1.7038e-05,0.035612,2,3912
12,8.27175e-22,1,5996,130.6,-2.41301e-06,1.30241e-05,-3.08014e-08,1.32458e-05,55,117.2,-48.36,1.0833e+07,1e+06,-4.76497e-08,1.91193e-07,-6.16102e-08,0.00381805,0.0367557,4.01465e-05,0.0350504,2,3913
12,8.27175e-22,1,5997,130.6,-2.45942e-06,1.30811e-05,-2.99716e-08,1.33103e-05,55,117.2,-48.36,1.0833e+07,1e+06,-4.4541e-08,1.84765e-07,-6.00004e-08,0.00401383,0.0358999,-0.000147121,0.034188,2,3914
12,8.23893e-22,1,5998,130.6,-2.50209e-06,1.31243e-05,-2.87754e-08,1.33607e-05,56.625,117.2,-48.36,1.0833e+07,1e+06,-4.14946e-08,1.77637e-07,-5.71569e-08,0.00440219,0.0345831,0.00016751,0.0326867,2,3915
12,8.07481e-22,1,5999,130.6,-2.54241e-06,1.3153e-05,-2.64533e-08,1.33964e-05,64.75,117.2,-48.36,1.0833e+07,1e+06,-4.23464e-08,1.64908e-07,-5.32533e-08,0.0038764,0.0296868,0.000792861,0.0280194,2,3916
12,7.84504e-22,1,6000,91.26,-2.58678e-06,1.31636e-05,-2.8842e-08,1.34154e-05,76.125,-49.63,-179.82,1.0833e+07,1e+06,-4.68602e-08,1.59641e-07,-5.81315e-08,0.00304049,0.0238757,0.000173147,0.022921,2,3917
12,7.74657e-22,1,6001,91.26,-2.63613e-06,1.31613e-05,-3.22166e-08,1.34228e-05,81,-49.63,-179.82,1.0833e+07,1e+06,-4.95615e-08,1.64117e-07,-6.40414e-08,0.00302323,0.0223234,-0.000307207,0.0213409,2,3918
12,7.74657e-22,1,6002,91.26,-2.68591e-06,1.31556e-05,-3.19567e-08,1.34271e-05,81,-49.63,-179.82,1.0833e+07,1e+06,-5.01073e-08,1.65766e-07,-6.38786e-08,0.0030597,0.0226528,-4.52263e-05,0.0213625,2,3919
12,7.74657e-22,1,6003,91.26,-2.73634e-06,1.31457e-05,-3.24963e-08,1.34275e-05,81,-49.63,-179.82,1.0833e+07,1e+06,-5.15121e-08,1.68993e-07,-6.49922e-08,0.00299443,0.0230567,-3.28234e-05,0.0217501,2,3920
12,7.74657e-22,1,6004,91.26,-2.78893e-06,1.31313e-05,-3.32707e-08,1.34242e-05,81,-49.63,-179.82,1.0833e+07,1e+06,-5.41737e-08,1.73996e-07,-6.65438e-08,0.0027766,0.0236397,-6.30203e-06,0.0224341,2,3921
12,7.74657e-22,1,6005,91.26,-2.84469e-06,1.3113e-05,-3.42673e-08,1.34181e-05,81,-49.63,-179.82,1.0833e+07,1e+06,-5.7578e-08,1.80229e-07,-6.85382e-08,0.00247553,0.0243446,3.23821e-06,0.023314,2,3922
12,7.74657e-22,1,6006,91.26,-2.90409e-06,1.3092e-05,-3.53931e-08,1.34102e-05,81,-49.63,-179.82,1.0833e+07,1e+06,-6.1254e-08,1.87124e-07,-7.07893e-08,0.0021656,0.0251298,8.07013e-06,0.0242756,2,3923
12,7.74657e-22,1,6007,91.26,-2.9672e-06,1.30694e-05,-3.65605e-08,1.3402e-05,81,-49.63,-179.82,1.0833e+07,1e+06,-6.48648e-08,1.94133e-07,-7.31235e-08,0.00188379,0.0259378,9.28512e-06,0.0252253,2,3924
12,7.74657e-22,1,6008,91.26,-3.03382e-06,1.30466e-05,-3.76908e-08,1.33947e-05,81,-49.63,-179.82,1.0833e+07,1e+06,-6.81708e-08,2.00793e-07,-7.53832e-08,0.00164923,0.026716,7.77047e-06,0.0260969,2,3925
12,7.74657e-22,1,6009,91.26,-3.10354e-06,1.30248e-05,-3.87256e-08,1.33895e-05,81,-49.63,-179.82,1.0833e+07,1e+06,-7.10454e-08,2.06787e-07,-7.74513e-08,0.00146496,0.0274249,4.37758e-06,0.0268556,2,3926
12,7.74657e-22,1,6010,91.26,-3.17591e-06,1.30054e-05,-3.96326e-08,1.33876e-05,81,-49.63,-179.82,1.0833e+07,1e+06,-7.34715e-08,2.11976e-07,-7.9265e-08,0.0013217,0.0280434,-4.20342e-08,0.0274953,2,3927
12,7.74657e-22,1,6011,91.26,-3.25048e-06,1.29893e-05,-4.03985e-08,1.33899e-05,81,-49.63,-179.82,1.0833e+07,1e+06,-7.55001e-08,2.16335e-07,-8.07969e-08,0.001203,0.0285623,-4.49169e-06,0.0280264,2,3928
12,7.74657e-22,1,6012,91.26,-3.32691e-06,1.29777e-05,-4.10081e-08,1.33974e-05,81,-49.63,-179.82,1.0833e+07,1e+06,-7.71884e-08,2.19831e-07,-8.20157e-08,0.00109007,0.0289709,-8.23108e-06,0.0284617,2,3929
12,7.74657e-22,1,6013,91.26,-3.40486e-06,1.2972e-05,-4.14168e-08,1.34115e-05,81,-49.63,-179.82,1.0833e+07,1e+06,-7.85497e-08,2.22325e-07,-8.28279e-08,0.000967812,0.0292478,-4.32067e-06,0.0288085,2,3930
12,7.74657e-22,1,6014,91.26,-3.48401e-06,1.29739e-05,-4.15316e-08,1.34336e-05,81,-49.63,-179.82,1.0833e+07,1e+06,-7.95889e-08,2.23483e-07,-8.30624e-08,0.000808806,0.0293394,5.8462e-06,0.0290798,2,3931
12,7.74657e-22,1,6015,91.26,-3.56404e-06,1.29855e-05,-4.06805e-08,1.34658e-05,81,-49.63,-179.82,1.0833e+07,1e+06,-7.982e-08,2.2262e-07,-8.12652e-08,0.000782194,0.0293483,0.000372059,0.0292379,2,3932
12,7.46657e-22,1,6016,91.26,-3.64365e-06,1.30102e-05,-3.99437e-08,1.35108e-05,80.75,-49.63,-179.82,1.01872e+07,968750,-7.90163e-08,2.18117e-07,-8.07003e-08,0.00049616,0.0284214,-0.000235416,0.0297944,2,3933
12,6.01389e-22,1,6017,91.26,-3.72207e-06,1.30451e-05,-4.15505e-08,1.35658e-05,80.5625,-49.63,-179.82,7.60394e+06,843750,-7.61028e-08,2.17134e-07,-8.20129e-08,0.000817962,0.0283488,-0.00165548,0.0315088,2,3934
12,3.79047e-22,2,6018,132.37,-3.79585e-06,1.30497e-05,-3.1121e-08,1.35906e-05,84.125,120.16,96.49,6.31231e+06,781250,-6.38705e-08,2.01455e-07,-6.17915e-08,0.00214617,0.0329738,-0.000128526,0.0341256,3,2082
12,2.58166e-22,1,6019,118.57,-3.84981e-06,1.29843e-05,-1.88747e-08,1.3543e-05,90.8125,73.1,-29.9,8.89556e+06,906250,-4.60132e-08,1.74557e-07,-3.91007e-08,0.00314586,0.0391142,0.000974025,0.0377357,2,3935
12,2.42361e-22,1,6020,118.57,-3.88788e-06,1.28794e-05,-1.90032e-08,1.34535e-05,94,73.1,-29.9,1.0833e+07,1e+06,-3.90952e-08,1.70091e-07,-3.75568e-08,0.00368814,0.0424977,0.000131606,0.0407959,2,3936
12,2.42361e-22,1,6021,118.57,-3.928e-06,1.27663e-05,-1.92886e-08,1.33569e-05,94,73.1,-29.9,1.0833e+07,1e+06,-4.16159e-08,1.76291e-07,-3.84456e-08,0.00380788,0.0437888,0.000103964,0.0420064,2,3937
12,2.42361e-22,1,6022,118.57,-3.97111e-06,1.2644e-05,-1.91386e-08,1.32529e-05,94,73.1,-29.9,1.0833e+07,1e+06,-4.32575e-08,1.78105e-07,-3.83824e-08,0.00378786,0.0439718,5.79079e-05,0.0421904,2,3938
12,2.42361e-22,1,6023,118.57,-4.01452e-06,1.25152e-05,-1.91343e-08,1.31434e-05,94,73.1,-29.9,1.0833e+07,1e+06,-4.30747e-08,1.77199e-07,-3.83105e-08,0.00392588,0.0435561,1.25397e-05,0.0417315,2,3939
12,2.42361e-22,1,6024,118.57,-4.05726e-06,1.23795e-05,-1.93566e-08,1.30274e-05,94,73.1,-29.9,1.0833e+07,1e+06,-4.36238e-08,1.77456e-07,-3.84311e-08,0.00393278,0.0434002,-4.31896e-05,0.0416111,2,3940
12,2.73502e-22,1,6025,118.57,-4.10177e-06,1.22358e-05,-1.90313e-08,1.2905e-05,95.1875,73.1,-29.9,1.0833e+07,1e+06,-4.61674e-08,1.8486e-07,-3.80647e-08,0.00386358,0.0455023,0.000515181,0.0435941,2,3941
12,4.29208e-22,1,6026,118.57,-4.1496e-06,1.2103e-05,-2.0038e-08,1.27946e-05,101.125,73.1,-29.9,1.0833e+07,1e+06,-4.70135e-08,1.77417e-07,-4.05523e-08,0.00163735,0.0430092,-0.000107417,0.042885,2,3942
12,6.47197e-22,1,6027,137.15,-4.19579e-06,1.20224e-05,-2.29912e-08,1.27336e-05,109.438,109.19,-42.07,1.0833e+07,1e+06,-4.49171e-08,1.61675e-07,-4.5799e-08,-0.00122165,0.0372824,-0.000886802,0.0390957,2,3943
12,7.40621e-22,1,6028,137.15,-4.23943e-06,1.19758e-05,-2.38624e-08,1.2704e-05,113,109.19,-42.07,1.0833e+07,1e+06,-4.52718e-08,1.56672e-07,-4.75513e-08,-0.00254627,0.0348908,-0.000694667,0.0371012,2,3944
12,7.40621e-22,1,6029,137.15,-4.28634e-06,1.19353e-05,-2.32597e-08,1.26817e-05,113,109.19,-42.07,1.0833e+07,1e+06,-5.03566e-08,1.55103e-07,-4.66217e-08,-0.00411125,0.0337003,-0.000776812,0.0366215,2,3945
12,7.40621e-22,1,6030,137.15,-4.34014e-06,1.19145e-05,-2.28804e-08,1.26804e-05,113,109.19,-42.07,1.0833e+07,1e+06,-5.6769e-08,1.57502e-07,-4.58348e-08,-0.00573657,0.0335314,-0.000582227,0.0371396,2,3946
12,7.40621e-22,1,6031,137.15,-4.39987e-06,1.19132e-05,-2.23334e-08,1.26997e-05,113,109.19,-42.07,1.0833e+07,1e+06,-6.08522e-08,1.57607e-07,-4.45132e-08,-0.00681327,0.0330648,-0.000355294,0.0371757,2,3947
12,7.40621e-22,1,6032,137.15,-4.46185e-06,1.19355e-05,-2.22244e-08,1.27422e-05,113,109.19,-42.07,1.0833e+07,1e+06,-6.31826e-08,1.57477e-07,-4.43426e-08,-0.00750025,0.0325046,-0.000243318,0.0369763,2,3948
12,7.40621e-22,1,6033,137.15,-4.52624e-06,1.1989e-05,-2.35432e-08,1.28149e-05,113,109.19,-42.07,1.0833e+07,1e+06,-6.6117e-08,1.65369e-07,-4.72802e-08,-0.00791234,0.0338123,-0.000137922,0.0384613,2,3949
12,7.40621e-22,1,6034,137.15,-4.59408e-06,1.20686e-05,-2.57498e-08,1.29135e-05,113,109.19,-42.07,1.0833e+07,1e+06,-6.87078e-08,1.76368e-07,-5.1464e-08,-0.00801338,0.0359719,-0.000102132,0.0406373,2,3950
12,7.40621e-22,1,6035,137.15,-4.66365e-06,1.21644e-05,-2.77595e-08,1.30277e-05,113,109.19,-42.07,1.0833e+07,1e+06,-7.0154e-08,1.86922e-07,-5.55111e-08,-0.00778367,0.0382999,-0.000151601,0.0427981,2,3951
12,7.40621e-22,1,6036,137.15,-4.73439e-06,1.2268e-05,-2.90371e-08,1.31499e-05,113,109.19,-42.07,1.0833e+07,1e+06,-7.05367e-08,1.96944e-07,-5.80957e-08,-0.00717371,0.0410387,-3.21736e-06,0.0450776,2,3952
12,7.40621e-22,1,6037,137.15,-4.80473e-06,1.23672e-05,-2.89804e-08,1.32677e-05,113,109.19,-42.07,1.0833e+07,1e+06,-6.84803e-08,1.98456e-07,-5.79244e-08,-0.00641267,0.0420704,5.80482e-05,0.0456696,2,3953
12,7.40621e-22,1,6038,137.15,-4.87135e-06,1.24543e-05,-2.81553e-08,1.33731e-05,113,109.19,-42.07,1.0833e+07,1e+06,-6.38408e-08,1.9279e-07,-5.63118e-08,-0.00543326,0.041425,1.43117e-05,0.044524,2,3954
12,7.40621e-22,1,6039,137.15,-4.93241e-06,1.25303e-05,-2.71907e-08,1.34662e-05,113,109.19,-42.07,1.0833e+07,1e+06,-5.82739e-08,1.84557e-07,-5.43879e-08,-0.00438754,0.0400421,-1.63382e-05,0.0425897,2,3955
12,7.40621e-22,1,6040,137.15,-4.9879e-06,1.25981e-05,-2.63174e-08,1.35496e-05,113,109.19,-42.07,1.0833e+07,1e+06,-5.31413e-08,1.76461e-07,-5.26404e-08,-0.00346981,0.0385376,-3.22672e-05,0.0405882,2,3956
12,7.40621e-22,1,6041,137.15,-5.03869e-06,1.266e-05,-2.56408e-08,1.36259e-05,113,109.19,-42.07,1.0833e+07,1e+06,-4.90813e-08,1.69975e-07,-5.12849e-08,-0.00275249,0.0372965,-3.89674e-05,0.0389555,2,3957
12,7.40621e-22,1,6042,137.15,-5.08606e-06,1.27175e-05,-2.52162e-08,1.36969e-05,113,109.19,-42.07,1.0833e+07,1e+06,-4.63361e-08,1.65772e-07,-5.04329e-08,-0.00225533,0.0364976,-3.79221e-05,0.0378846,2,3958
12,7.40621e-22,1,6043,137.15,-5.13136e-06,1.27724e-05,-2.50566e-08,1.37646e-05,113,109.19,-42.07,1.0833e+07,1e+06,-4.48835e-08,1.63853e-07,-5.01112e-08,-0.00197349,0.0361381,-3.15751e-05,0.0373661,2,3959
12,7.40621e-22,1,6044,137.15,-5.17583e-06,1.28264e-05,-2.51315e-08,1.38313e-05,113,109.19,-42.07,1.0833e+07,1e+06,-4.45091e-08,1.63764e-07,-5.02601e-08,-0.00188033,0.0361036,-2.26571e-05,0.0372646,2,3960
12,7.40621e-22,1,6045,137.15,-5.22038e-06,1.28816e-05,-2.53665e-08,1.38992e-05,113,109.19,-42.07,1.0833e+07,1e+06,-4.48676e-08,1.64793e-07,-5.0734e-08,-0.00192714,0.0362381,-1.29547e-05,0.037396,2,3961
12,7.40621e-22,1,6046,137.15,-5.26556e-06,1.29397e-05,-2.56553e-08,1.397e-05,113,109.19,-42.07,1.0833e+07,1e+06,-4.55185e-08,1.66093e-07,-5.13084e-08,-0.00204372,0.0363789,-3.33193e-07,0.0375624,2,3962
12,7.40621e-22,1,6047,137.15,-5.31142e-06,1.30014e-05,-2.58356e-08,1.40445e-05,113,109.19,-42.07,1.0833e+07,1e+06,-4.58311e-08,1.66634e-07,-5.1685e-08,-0.00211299,0.0363464,2.79365e-05,0.0375212,2,3963
12,7.40621e-22,1,6048,137.15,-5.35723e-06,1.30666e-05,-2.57056e-08,1.41222e-05,113,109.19,-42.07,1.0833e+07,1e+06,-4.51726e-08,1.64796e-07,-5.1373e-08,-0.00205581,0.0358124,7.51187e-05,0.0369047,2,3964
12,7.40621e-22,1,6049,137.15,-5.40177e-06,1.31339e-05,-2.52394e-08,1.42014e-05,113,109.19,-42.07,1.0833e+07,1e+06,-4.34411e-08,1.604e-07,-5.03972e-08,-0.00185938,0.0347217,0.000131857,0.0356565,2,3965
12,7.40621e-22,1,6050,137.15,-5.44411e-06,1.32039e-05,-2.49247e-08,1.42822e-05,113,109.19,-42.07,1.0833e+07,1e+06,-4.08696e-08,1.55623e-07,-4.97184e-08,-0.00145803,0.033461,0.00023471,0.0341222,2,3966
12,7.40621e-22,1,6051,137.15,-5.4835e-06,1.32846e-05,-2.55519e-08,1.43718e-05,113,109.19,-42.07,1.0833e+07,1e+06,-3.83626e-08,1.53107e-07,-5.13135e-08,-0.00109806,0.0324124,0.00012802,0.0329625,2,3967
12,7.31858e-22,1,6052,137.15,-5.52083e-06,1.33817e-05,-2.89439e-08,1.44758e-05,115,109.19,-42.07,1.0833e+07,1e+06,-2.88716e-08,1.5587e-07,-5.81832e-08,-0.000530171,0.0340364,0.00060506,0.0344088,2,3968
12,7.14331e-22,1,6053,9.52003,-5.54125e-06,1.34411e-05,-4.00033e-08,1.45386e-05,119,63.66,-15.5,1.0833e+07,1e+06,-1.00871e-08,1.6198e-07,-7.98589e-08,-0.00100564,0.0364201,0.000292734,0.0372453,2,3969
12,7.05568e-22,1,6054,9.52003,-5.54101e-06,1.34494e-05,-4.79989e-08,1.45462e-05,121,63.66,-15.5,1.0833e+07,1e+06,2.42327e-09,1.63958e-07,-9.58919e-08,-0.00125727,0.0366509,-0.000452558,0.0376638,2,3970
12,7.05568e-22,1,6055,9.52003,-5.5364e-06,1.34479e-05,-4.6978e-08,1.4543e-05,121,63.66,-15.5,1.0833e+07,1e+06,4.89873e-09,1.60787e-07,-9.39687e-08,-0.000406467,0.0360904,-0.000134206,0.0364543,2,3971
12,7.05568e-22,1,6056,9.52003,-5.53121e-06,1.3439e-05,-4.59337e-08,1.45328e-05,121,63.66,-15.5,1.0833e+07,1e+06,5.47506e-09,1.5722e-07,-9.1858e-08,-0.000157722,0.0353051,-3.35225e-05,0.0354648,2,3972
12,7.05568e-22,1,6057,9.52003,-5.52545e-06,1.34244e-05,-4.54089e-08,1.45171e-05,121,63.66,-15.5,1.0833e+07,1e+06,5.85082e-09,1.55087e-07,-9.08134e-08,-1.49608e-05,0.0348005,-2.51296e-05,0.0348634,2,3973
12,7.05568e-22,1,6058,9.52003,-5.51951e-06,1.34036e-05,-4.5089e-08,1.44957e-05,121,63.66,-15.5,1.0833e+07,1e+06,5.83424e-09,1.54058e-07,-9.01706e-08,3.96425e-05,0.0345384,-1.70442e-05,0.0345509,2,3974
12,7.05568e-22,1,6059,9.52003,-5.51378e-06,1.33758e-05,-4.48228e-08,1.44678e-05,121,63.66,-15.5,1.0833e+07,1e+06,5.5366e-09,1.53577e-07,-8.96427e-08,3.80782e-05,0.0344009,-2.46213e-06,0.0343924,2,3975
12,7.05568e-22,1,6060,9.52003,-5.50843e-06,1.33413e-05,-4.45137e-08,1.44339e-05,121,63.66,-15.5,1.0833e+07,1e+06,5.25253e-09,1.52895e-07,-8.90303e-08,2.55735e-05,0.0342264,9.05815e-06,0.0342112,2,3976
12,4.27875e-22,2,6061,62.06,-4.65249e-08,1.15729e-05,-4.12217e-08,1.1573e-05,8.25,141.86,-77.97,3.08325e+06,625000,-9.29679e-08,3.0617e-07,-8.2241e-08,0.00945213,0.0466888,0.000553782,0.0435962,3,2083
12,3.844e-22,2,6062,62.06,-1.39411e-07,1.15709e-05,-4.11829e-08,1.15718e-05,11.4375,141.86,-77.97,3.08325e+06,625000,-9.3471e-08,2.89401e-07,-8.37046e-08,0.00687059,0.0400097,0.00121399,0.0379548,3,2084
12,2.71196e-22,2,6063,161.73,-2.33467e-07,1.16096e-05,-6.40897e-08,1.16121e-05,17.3125,119.12,126.69,2.43744e+06,593750,-9.82626e-08,3.09036e-07,-1.27314e-07,0.00373791,0.0323023,-0.000572235,0.0325675,3,2085
12,1.75215e-22,2,6064,161.73,-3.35936e-07,1.1721e-05,-8.1674e-08,1.17261e-05,19.5,119.12,126.69,1.14581e+06,531250,-1.06607e-07,3.39427e-07,-1.62283e-07,0.00297365,0.0277986,-0.00106204,0.0277422,3,2086
12,1.48963e-22,2,6065,161.73,-4.4668e-07,1.18492e-05,-8.18684e-08,1.18578e-05,19,119.12,126.69,500000,500000,-1.1102e-07,3.4575e-07,-1.63989e-07,0.00305033,0.0267229,-0.000203206,0.0257905,3,2087
12,1.48963e-22,2,6066,161.73,-5.57976e-07,1.19686e-05,-7.98222e-08,1.19819e-05,19,119.12,126.69,500000,500000,-1.10919e-07,3.40085e-07,-1.60045e-07,0.00285163,0.0262354,-0.000194811,0.0253889,3,2088
12,1.48963e-22,2,6067,161.73,-6.68519e-07,1.20799e-05,-7.77246e-08,1.20987e-05,19,119.12,126.69,500000,500000,-1.10639e-07,3.34443e-07,-1.55561e-07,0.00275121,0.0258466,-7.20389e-05,0.0249952,3,2089
12,1.48963e-22,2,6068,161.73,-7.79255e-07,1.2186e-05,-7.56369e-08,1.22112e-05,19,119.12,126.69,500000,500000,-1.1114e-07,3.29154e-07,-1.5131e-07,0.00253184,0.0253768,-2.58243e-05,0.0245842,3,2090
12,1.48963e-22,2,6069,161.73,-8.90799e-07,1.229e-05,-7.34688e-08,1.23225e-05,19,119.12,126.69,500000,500000,-1.11784e-07,3.23601e-07,-1.46917e-07,0.00227895,0.0248425,7.12413e-06,0.0241061,3,2091
12,1.48963e-22,2,6070,161.73,-1.00282e-06,1.23936e-05,-7.11201e-08,1.24343e-05,19,119.12,126.69,500000,500000,-1.11538e-07,3.16726e-07,-1.42248e-07,0.00205812,0.0242152,3.56612e-05,0.0235177,3,2092
12,1.48963e-22,2,6071,161.73,-1.11387e-06,1.24959e-05,-6.87111e-08,1.25456e-05,19,119.12,126.69,500000,500000,-1.09868e-07,3.08046e-07,-1.37466e-07,0.00187835,0.0234723,2.71959e-05,0.0228312,3,2093
12,1.48963e-22,2,6072,161.73,-1.22256e-06,1.25945e-05,-6.64871e-08,1.26539e-05,19,119.12,126.69,500000,500000,-1.07521e-07,2.98625e-07,-1.32822e-07,0.00168472,0.0227001,-2.28417e-05,0.0221885,3,2094
12,1.48963e-22,2,6073,161.73,-1.32892e-06,1.26869e-05,-6.4327e-08,1.27565e-05,19,119.12,126.69,500000,500000,-1.04795e-07,2.89543e-07,-1.28542e-07,0.00152935,0.0220646,-9.94718e-05,0.0218165,3,2095
12,1.65797e-22,2,6074,161.73,-1.43215e-06,1.27648e-05,-6.11277e-08,1.28451e-05,19.0625,119.12,126.69,500000,500000,-9.50391e-08,2.77109e-07,-1.22324e-07,0.00192428,0.0231258,-7.58437e-05,0.0230152,3,2096
12,2.77723e-22,2,6075,161.73,-1.51899e-06,1.28433e-05,-4.98258e-08,1.29329e-05,24.0625,119.12,126.69,3.08325e+06,625000,-6.49496e-08,2.50316e-07,-9.97826e-08,0.00397564,0.0344202,3.34632e-05,0.0335974,3,2097
12,4.47327e-22,1,6076,125.44,-1.56205e-06,1.29363e-05,-3.19991e-08,1.30304e-05,34.6875,67.45,-41.35,8.24975e+06,875000,-2.74733e-08,2.10458e-07,-6.43242e-08,0.00767388,0.0491863,0.000457657,0.0462844,2,3977
12,5.18094e-22,1,6077,125.44,-1.57394e-06,1.30157e-05,-2.16778e-08,1.31105e-05,41.1875,67.45,-41.35,1.0833e+07,1e+06,-1.03018e-08,1.7729e-07,-4.333e-08,0.00974713,0.0510045,0.000545432,0.0468323,2,3978
12,5.14349e-22,1,6078,125.44,-1.58265e-06,1.3079e-05,-1.94084e-08,1.31744e-05,42,67.45,-41.35,1.0833e+07,1e+06,-7.05327e-09,1.57079e-07,-3.85716e-08,0.00931263,0.0457862,0.000148286,0.0420716,2,3979
12,5.14349e-22,1,6079,125.44,-1.58805e-06,1.31477e-05,-1.83943e-08,1.32432e-05,42,67.45,-41.35,1.0833e+07,1e+06,-3.93125e-09,1.42004e-07,-3.67555e-08,0.00853829,0.0416453,3.87776e-05,0.0385201,2,3980
12,5.14349e-22,1,6080,125.44,-1.59051e-06,1.32238e-05,-1.73917e-08,1.33191e-05,42,67.45,-41.35,1.0833e+07,1e+06,-1.26734e-09,1.28517e-07,-3.47841e-08,0.00787371,0.037941,2.00086e-05,0.0353092,2,3981
12,5.14349e-22,1,6081,125.44,-1.59058e-06,1.33037e-05,-1.6166e-08,1.33985e-05,42,67.45,-41.35,1.0833e+07,1e+06,9.92301e-10,1.15295e-07,-3.23828e-08,0.00733878,0.0342392,1.33139e-05,0.0319346,2,3982
12,5.14349e-22,1,6082,125.44,-1.58853e-06,1.33801e-05,-1.46436e-08,1.3474e-05,42,67.45,-41.35,1.0833e+07,1e+06,2.30279e-09,1.016e-07,-2.94016e-08,0.0067744,0.0302414,-8.59927e-05,0.0281469,2,3983
12,5.14349e-22,1,6083,125.44,-1.58598e-06,1.34439e-05,-1.29633e-08,1.35372e-05,42,67.45,-41.35,1.0833e+07,1e+06,1.77282e-09,9.08531e-08,-2.56224e-08,0.00627501,0.0269652,-2.68114e-05,0.0248142,2,3984
12,5.14349e-22,1,6084,125.44,-1.58498e-06,1.349e-05,-1.10246e-08,1.35828e-05,42,67.45,-41.35,1.0833e+07,1e+06,1.22811e-10,8.44572e-08,-2.12362e-08,0.00611311,0.0249383,0.00034791,0.0224345,2,3985
12,5.14349e-22,1,6085,125.44,-1.58573e-06,1.35138e-05,-8.77541e-09,1.36065e-05,42,67.45,-41.35,1.0833e+07,1e+06,-3.30756e-09,8.12375e-08,-1.8423e-08,0.00571657,0.0235688,0.000212019,0.0212974,2,3986
12,5.08067e-22,1,6086,125.44,-1.5916e-06,1.35107e-05,-7.99657e-09,1.36042e-05,42.125,67.45,-41.35,1.01872e+07,968750,-1.28794e-08,9.0554e-08,-1.65928e-08,0.00493405,0.0247653,0.000244516,0.0229722,2,3987
12,4.82939e-22,1,6087,125.44,-1.61149e-06,1.34839e-05,-8.59785e-09,1.35798e-05,42.625,67.45,-41.35,7.60394e+06,843750,-3.30165e-08,1.21419e-07,-1.7136e-08,0.00433324,0.0282138,0.000806471,0.0266216,2,3988
12,4.45248e-22,2,6088,44.42,-1.65763e-06,1.34274e-05,-1.1365e-08,1.35294e-05,43.375,-34.07,-165.31,3.72906e+06,656250,-6.14251e-08,1.6558e-07,-2.25219e-08,0.00443888,0.0307395,0.000677046,0.0291213,3,2098
12,4.20121e-22,2,6089,44.42,-1.73434e-06,1.3343e-05,-1.42417e-08,1.34552e-05,43.875,-34.07,-165.31,1.14581e+06,531250,-8.75592e-08,2.02387e-07,-2.81545e-08,0.00470342,0.0320989,-0.000204332,0.0304324,3,2099
12,4.13839e-22,2,6090,44.42,-1.83275e-06,1.32532e-05,-1.41484e-08,1.33793e-05,44,-34.07,-165.31,500000,500000,-1.03162e-07,2.23094e-07,-2.83463e-08,0.00476071,0.0338601,-0.00033806,0.0320131,3,2100
12,4.13839e-22,2,6091,44.42,-1.94066e-06,1.31651e-05,-1.31484e-08,1.33074e-05,44,-34.07,-165.31,500000,500000,-1.08191e-07,2.28903e-07,-2.60646e-08,0.00468745,0.0348475,2.74925e-05,0.0328601,3,2101
12,4.13839e-22,2,6092,44.42,-2.04913e-06,1.30848e-05,-1.1814e-08,1.32443e-05,44,-34.07,-165.31,500000,500000,-1.04268e-07,2.26811e-07,-2.44906e-08,0.00516715,0.0352097,0.000609394,0.0328582,3,2102
12,4.91339e-22,2,6093,44.42,-2.1492e-06,1.30178e-05,-2.07927e-08,1.31941e-05,46.0625,-34.07,-165.31,2.43744e+06,593750,-8.76447e-08,2.26575e-07,-4.07054e-08,0.00447949,0.0381212,-5.93739e-05,0.0371893,3,2103
12,6.72174e-22,1,6094,130.6,-2.22442e-06,1.30108e-05,-2.97507e-08,1.31996e-05,50.875,117.2,-48.36,6.95812e+06,812500,-6.59407e-08,2.12125e-07,-5.92926e-08,0.00246016,0.038704,-0.000621024,0.0391337,2,3989
12,8.01341e-22,1,6095,130.6,-2.28108e-06,1.3077e-05,-3.06297e-08,1.32745e-05,54.3125,117.2,-48.36,1.01872e+07,968750,-5.55977e-08,1.99933e-07,-6.20938e-08,0.00241303,0.0376703,0.000317828,0.0368501,2,3990
12,8.27175e-22,1,6096,130.6,-2.33562e-06,1.31539e-05,-3.19552e-08,1.33597e-05,55,117.2,-48.36,1.0833e+07,1e+06,-5.29455e-08,2.00029e-07,-6.34676e-08,0.00317391,0.038028,0.000246082,0.0365528,2,3991
12,8.27175e-22,1,6097,130.6,-2.38697e-06,1.32172e-05,-3.12018e-08,1.3431e-05,55,117.2,-48.36,1.0833e+07,1e+06,-4.92567e-08,1.94639e-07,-6.26079e-08,0.00363332,0.0374366,-3.90291e-05,0.0358341,2,3992
12,8.27175e-22,1,6098,130.6,-2.43413e-06,1.32669e-05,-3.08659e-08,1.34884e-05,55,117.2,-48.36,1.0833e+07,1e+06,-4.45006e-08,1.87756e-07,-6.15395e-08,0.00421615,0.0366234,-0.00033314,0.0349309,2,3993
12,8.17328e-22,1,6099,130.6,-2.47597e-06,1.33039e-05,-2.89588e-08,1.35324e-05,59.875,117.2,-48.36,1.0833e+07,1e+06,-4.28075e-08,1.79801e-07,-5.80292e-08,0.0045739,0.0341442,0.000424148,0.0322147,2,3994
12,7.94351e-22,1,6100,91.26,-2.51975e-06,1.33205e-05,-2.9248e-08,1.35568e-05,71.25,-49.63,-179.82,1.0833e+07,1e+06,-4.68479e-08,1.71103e-07,-5.85798e-08,0.0037943,0.0281387,0.000621962,0.0267179,2,3995
12,7.7794e-22,1,6101,91.26,-2.56967e-06,1.33253e-05,-3.21923e-08,1.35709e-05,79.375,-49.63,-179.82,1.0833e+07,1e+06,-5.05222e-08,1.67316e-07,-6.41649e-08,0.00297063,0.0234308,-0.000313453,0.0227222,2,3996
12,7.74657e-22,1,6102,91.26,-2.62079e-06,1.33283e-05,-3.28324e-08,1.35835e-05,81,-49.63,-179.82,1.0833e+07,1e+06,-5.13895e-08,1.69463e-07,-6.58203e-08,0.00306462,0.0230614,-0.000224509,0.0220158,2,3997
12,7.74657e-22,1,6103,91.26,-2.67245e-06,1.33247e-05,-3.30056e-08,1.35901e-05,81,-49.63,-179.82,1.0833e+07,1e+06,-5.22038e-08,1.71557e-07,-6.59664e-08,0.00306941,0.0234167,-2.24257e-05,0.0221021,2,3998
12,7.74657e-22,1,6104,91.26,-2.7252e-06,1.33175e-05,-3.34613e-08,1.35936e-05,81,-49.63,-179.82,1.0833e+07,1e+06,-5.36602e-08,1.74382e-07,-6.69167e-08,0.00295097,0.0237436,-2.34125e-05,0.022437,2,3999
12,7.74657e-22,1,6105,91.26,-2.77977e-06,1.33075e-05,-3.40839e-08,1.35947e-05,81,-49.63,-179.82,1.0833e+07,1e+06,-5.58831e-08,1.78392e-07,-6.81685e-08,0.00274991,0.0241979,-1.14064e-05,0.022976,2,4000
12,7.74657e-22,1,6106,91.26,-2.83696e-06,1.32948e-05,-3.48631e-08,1.35941e-05,81,-49.63,-179.82,1.0833e+07,1e+06,-5.87501e-08,1.83388e-07,-6.97282e-08,0.00247123,0.02475,-2.5553e-06,0.0236758,2,4001
12,7.74657e-22,1,6107,91.26,-2.89727e-06,1.32799e-05,-3.57456e-08,1.35923e-05,81,-49.63,-179.82,1.0833e+07,1e+06,-6.19422e-08,1.88973e-07,-7.14936e-08,0.00216158,0.0253651,2.86041e-06,0.0244594,2,4002
12,7.74657e-22,1,6108,91.26,-2.96085e-06,1.32637e-05,-3.6671e-08,1.35902e-05,81,-49.63,-179.82,1.0833e+07,1e+06,-6.51753e-08,1.94737e-07,-7.33444e-08,0.00185763,0.0260039,5.35252e-06,0.0252526,2,4003
12,7.74657e-22,1,6109,91.26,-3.02762e-06,1.32471e-05,-3.75809e-08,1.35887e-05,81,-49.63,-179.82,1.0833e+07,1e+06,-6.82413e-08,2.00318e-07,-7.51638e-08,0.00157986,0.0266266,5.09596e-06,0.0259982,2,4004
12,7.74657e-22,1,6110,91.26,-3.09733e-06,1.32309e-05,-3.84252e-08,1.35887e-05,81,-49.63,-179.82,1.0833e+07,1e+06,-7.10111e-08,2.05432e-07,-7.68516e-08,0.00133508,0.0271993,2.50019e-06,0.0266602,2,4005
12,7.74657e-22,1,6111,91.26,-3.16964e-06,1.32164e-05,-3.91638e-08,1.35912e-05,81,-49.63,-179.82,1.0833e+07,1e+06,-7.34275e-08,2.0988e-07,-7.83274e-08,0.00111905,0.0276947,-1.54462e-06,0.0272212,2,4006
12,7.74657e-22,1,6112,91.26,-3.24419e-06,1.32043e-05,-3.97608e-08,1.35971e-05,81,-49.63,-179.82,1.0833e+07,1e+06,-7.5472e-08,2.13506e-07,-7.95196e-08,0.000921459,0.0280896,-5.56764e-06,0.0276742,2,4007
12,7.74657e-22,1,6113,91.26,-3.32058e-06,1.31959e-05,-4.01708e-08,1.36073e-05,81,-49.63,-179.82,1.0833e+07,1e+06,-7.71052e-08,2.16112e-07,-8.03392e-08,0.000733369,0.0283555,-7.45768e-06,0.0280106,2,4008
12,7.74657e-22,1,6114,91.26,-3.3984e-06,1.31921e-05,-4.0323e-08,1.36228e-05,81,-49.63,-179.82,1.0833e+07,1e+06,-7.81951e-08,2.1734e-07,-8.06302e-08,0.000557191,0.0284491,-6.64865e-07,0.0282091,2,4009
12,7.74657e-22,1,6115,91.26,-3.47698e-06,1.31942e-05,-4.00556e-08,1.36447e-05,81,-49.63,-179.82,1.0833e+07,1e+06,-7.83834e-08,2.16536e-07,-8.01529e-08,0.000428447,0.0283009,2.11434e-05,0.0282261,2,4010
12,7.74657e-22,1,6116,91.26,-3.55516e-06,1.32032e-05,-3.91446e-08,1.36735e-05,81,-49.63,-179.82,1.0833e+07,1e+06,-7.68144e-08,2.12528e-07,-7.79939e-08,0.00051247,0.0278797,0.000219547,0.0279487,2,4011
12,7.74657e-22,1,6117,91.26,-3.6306e-06,1.32198e-05,-3.68346e-08,1.37094e-05,81,-49.63,-179.82,1.0833e+07,1e+06,-7.21254e-08,2.03195e-07,-7.32697e-08,0.00100595,0.026997,0.000648026,0.0272478,2,4012
12,6.46852e-22,1,6118,91.26,-3.69941e-06,1.32448e-05,-3.2131e-08,1.37518e-05,83.1875,-49.63,-179.82,1.01872e+07,968750,-6.01937e-08,1.8797e-07,-6.52732e-08,0.00180254,0.0287951,-9.56645e-05,0.029888,2,4013
12,3.85972e-22,1,6119,118.57,-3.75099e-06,1.32334e-05,-2.39831e-08,1.37547e-05,88.625,73.1,-29.9,9.54138e+06,937500,-4.50454e-08,1.71015e-07,-4.82216e-08,0.00280421,0.0347409,-1.51343e-05,0.0348858,2,4014
12,2.47629e-22,1,6120,118.57,-3.7895e-06,1.3155e-05,-1.88106e-08,1.369e-05,92.9375,73.1,-29.9,1.01872e+07,968750,-3.85773e-08,1.66825e-07,-3.69474e-08,0.00361729,0.0405143,0.000596699,0.0388657,2,4015
12,2.42361e-22,1,6121,118.57,-3.82815e-06,1.30516e-05,-1.92379e-08,1.36014e-05,94,73.1,-29.9,1.0833e+07,1e+06,-3.94148e-08,1.73078e-07,-3.85952e-08,0.00385326,0.0432325,3.9153e-05,0.0415007,2,4016
12,2.42361e-22,1,6122,118.57,-3.86833e-06,1.29432e-05,-1.97638e-08,1.35089e-05,94,73.1,-29.9,1.0833e+07,1e+06,-4.12591e-08,1.77958e-07,-3.95008e-08,0.00394837,0.0442312,1.03786e-06,0.0424529,2,4017
12,2.42361e-22,1,6123,118.57,-3.91066e-06,1.28232e-05,-1.96875e-08,1.34062e-05,94,73.1,-29.9,1.0833e+07,1e+06,-4.2716e-08,1.80557e-07,-3.93833e-08,0.00410571,0.0446296,6.96384e-05,0.0427049,2,4018
12,2.42361e-22,1,6124,118.57,-3.95377e-06,1.26935e-05,-1.95849e-08,1.3295e-05,94,73.1,-29.9,1.0833e+07,1e+06,-4.27045e-08,1.79476e-07,-3.91652e-08,0.00422801,0.0441252,3.00862e-05,0.0421614,2,4019
12,2.42361e-22,1,6125,118.57,-3.99607e-06,1.25576e-05,-1.98276e-08,1.31781e-05,94,73.1,-29.9,1.0833e+07,1e+06,-4.21722e-08,1.78486e-07,-3.95943e-08,0.00430253,0.0437433,-0.000102241,0.0418275,2,4020
12,2.42361e-22,1,6126,118.57,-4.03811e-06,1.24192e-05,-2.00365e-08,1.30592e-05,94,73.1,-29.9,1.0833e+07,1e+06,-4.05027e-08,1.81118e-07,-4.02754e-08,0.00480395,0.0447368,0.00019746,0.0424445,2,4021
12,3.35784e-22,1,6127,118.57,-4.07708e-06,1.22826e-05,-2.20358e-08,1.29416e-05,97.5625,73.1,-29.9,1.0833e+07,1e+06,-3.45885e-08,1.79346e-07,-4.34869e-08,0.00535302,0.0446319,0.000214416,0.0423811,2,4022
12,5.29737e-22,1,6128,137.15,-4.10729e-06,1.21873e-05,-2.44465e-08,1.28608e-05,104.25,109.19,-42.07,1.01872e+07,968750,-3.16899e-08,1.6953e-07,-4.82656e-08,0.0040192,0.0397937,9.65676e-05,0.0384436,2,4023
12,6.37371e-22,1,6129,137.15,-4.14046e-06,1.21316e-05,-2.49877e-08,1.28187e-05,106.938,109.19,-42.07,8.89556e+06,906250,-4.17408e-08,1.707e-07,-5.05588e-08,0.00122,0.0350541,0.000713416,0.0347306,2,4024
12,6.44476e-22,1,6130,137.15,-4.19077e-06,1.20915e-05,-2.46627e-08,1.27971e-05,106.5,109.19,-42.07,8.24975e+06,875000,-5.79095e-08,1.80826e-07,-4.96743e-08,-0.00179751,0.0342214,0.00117875,0.035313,2,4025
12,6.44476e-22,1,6131,137.15,-4.25628e-06,1.20748e-05,-2.34673e-08,1.2803e-05,106.5,109.19,-42.07,8.24975e+06,875000,-7.17872e-08,1.85711e-07,-4.67925e-08,-0.00481629,0.0342833,0.00125303,0.0370778,2,4026
12,6.44476e-22,1,6132,137.15,-4.33434e-06,1.20733e-05,-2.1095e-08,1.28278e-05,106.5,109.19,-42.07,8.24975e+06,875000,-8.30057e-08,1.86422e-07,-4.28223e-08,-0.00742609,0.0337093,0.00139032,0.0382047,2,4027
12,6.68512e-22,1,6133,137.15,-4.42229e-06,1.20935e-05,-2.01991e-08,1.28767e-05,108.125,109.19,-42.07,8.89556e+06,906250,-8.68943e-08,1.77482e-07,-4.13451e-08,-0.0100618,0.0326239,0.000434898,0.0392069,2,4028
12,7.16585e-22,1,6134,137.15,-4.50813e-06,1.21547e-05,-2.23698e-08,1.29638e-05,111.375,109.19,-42.07,1.01872e+07,968750,-8.12072e-08,1.70806e-07,-4.40653e-08,-0.0108664,0.0334361,-0.000285002,0.0403281,2,4029
12,7.40621e-22,1,6135,137.15,-4.5847e-06,1.22454e-05,-2.46882e-08,1.30756e-05,113,109.19,-42.07,1.0833e+07,1e+06,-7.55487e-08,1.74462e-07,-4.85976e-08,-0.00995954,0.0351879,-0.000286972,0.0411331,2,4030
12,7.40621e-22,1,6136,137.15,-4.65923e-06,1.23521e-05,-2.71015e-08,1.32016e-05,113,109.19,-42.07,1.0833e+07,1e+06,-7.5406e-08,1.88767e-07,-5.43414e-08,-0.00908633,0.0386567,-0.000314505,0.0440522,2,4031
12,7.40621e-22,1,6137,137.15,-4.73551e-06,1.24672e-05,-2.85783e-08,1.33363e-05,113,109.19,-42.07,1.0833e+07,1e+06,-7.4894e-08,2.02082e-07,-5.71628e-08,-0.00795767,0.0425843,8.4593e-05,0.0471522,2,4032
12,7.40621e-22,1,6138,137.15,-4.80902e-06,1.25667e-05,-2.80497e-08,1.34555e-05,113,109.19,-42.07,1.0833e+07,1e+06,-6.99559e-08,1.9938e-07,-5.60794e-08,-0.00665949,0.0429546,6.1762e-05,0.0468796,2,4033
12,7.40621e-22,1,6139,137.15,-4.87543e-06,1.26466e-05,-2.70553e-08,1.35538e-05,113,109.19,-42.07,1.0833e+07,1e+06,-6.27355e-08,1.90562e-07,-5.41152e-08,-0.0051702,0.041713,-4.12197e-06,0.0448819,2,4034
12,7.40621e-22,1,6140,137.15,-4.93449e-06,1.27136e-05,-2.61631e-08,1.36377e-05,113,109.19,-42.07,1.0833e+07,1e+06,-5.59917e-08,1.81135e-07,-5.23307e-08,-0.00388848,0.0400092,-2.78812e-05,0.0424771,2,4035
12,7.40621e-22,1,6141,137.15,-4.98741e-06,1.27733e-05,-2.5498e-08,1.37125e-05,113,109.19,-42.07,1.0833e+07,1e+06,-5.06238e-08,1.73109e-07,-5.09989e-08,-0.00291997,0.0383936,-3.82328e-05,0.0402972,2,4036
12,7.40621e-22,1,6142,137.15,-5.03574e-06,1.2829e-05,-2.50871e-08,1.37819e-05,113,109.19,-42.07,1.0833e+07,1e+06,-4.68024e-08,1.67341e-07,-5.01768e-08,-0.00224276,0.0371611,-4.01762e-05,0.0386495,2,4037
12,7.40621e-22,1,6143,137.15,-5.08101e-06,1.28827e-05,-2.4915e-08,1.38485e-05,113,109.19,-42.07,1.0833e+07,1e+06,-4.44475e-08,1.63938e-07,-4.98296e-08,-0.00182151,0.0363884,-3.60991e-05,0.0376029,2,4038
12,7.40621e-22,1,6144,137.15,-5.12463e-06,1.29358e-05,-2.49505e-08,1.39139e-05,113,109.19,-42.07,1.0833e+07,1e+06,-4.33531e-08,1.62564e-07,-4.98978e-08,-0.00162159,0.0360107,-3.07078e-05,0.0370739,2,4039
12,7.40621e-22,1,6145,137.15,-5.16772e-06,1.29898e-05,-2.51558e-08,1.39801e-05,113,109.19,-42.07,1.0833e+07,1e+06,-4.32625e-08,1.62738e-07,-5.03073e-08,-0.00160532,0.0359179,-2.60501e-05,0.0369286,2,4040
12,7.40621e-22,1,6146,137.15,-5.21116e-06,1.30461e-05,-2.54668e-08,1.40484e-05,113,109.19,-42.07,1.0833e+07,1e+06,-4.38798e-08,1.63902e-07,-5.09276e-08,-0.00172634,0.0359973,-2.11065e-05,0.0370299,2,4041
12,7.40621e-22,1,6147,137.15,-5.25548e-06,1.31054e-05,-2.57624e-08,1.41199e-05,113,109.19,-42.07,1.0833e+07,1e+06,-4.47978e-08,1.65335e-07,-5.15225e-08,-0.00191195,0.0361303,-8.16068e-06,0.0372225,2,4042
12,7.40621e-22,1,6148,137.15,-5.30075e-06,1.31675e-05,-2.58291e-08,1.41944e-05,113,109.19,-42.07,1.0833e+07,1e+06,-4.54959e-08,1.6585e-07,-5.16632e-08,-0.00208262,0.0361097,2.26302e-05,0.0372571,2,4043
12,7.40621e-22,1,6149,137.15,-5.34647e-06,1.32306e-05,-2.54337e-08,1.42701e-05,113,109.19,-42.07,1.0833e+07,1e+06,-4.54085e-08,1.63914e-07,-5.07886e-08,-0.00216156,0.0356148,0.000113551,0.0367481,2,4044
12,7.40621e-22,1,6150,137.15,-5.39157e-06,1.32935e-05,-2.47179e-08,1.43453e-05,113,109.19,-42.07,1.0833e+07,1e+06,-4.45018e-08,1.58871e-07,-4.90049e-08,-0.00221026,0.0343883,0.000222617,0.0354771,2,4045
12,7.17722e-22,1,6151,137.15,-5.43548e-06,1.33576e-05,-2.44339e-08,1.44212e-05,112.938,109.19,-42.07,1.01872e+07,968750,-4.33675e-08,1.5535e-07,-4.89601e-08,-0.00214608,0.0327389,0.000294834,0.0337745,2,4046
12,6.71924e-22,1,6152,137.15,-5.4783e-06,1.34346e-05,-2.68427e-08,1.45086e-05,112.812,109.19,-42.07,8.89556e+06,906250,-4.06609e-08,1.59224e-07,-5.42201e-08,-0.00148225,0.0317405,0.000320894,0.032458,2,4047
12,6.6316e-22,1,6153,137.15,-5.5168e-06,1.35357e-05,-3.13863e-08,1.46168e-05,114.812,109.19,-42.07,8.89556e+06,906250,-2.75111e-08,1.61815e-07,-6.30442e-08,-0.000112631,0.0333467,0.000823704,0.0333949,2,4048
12,6.91432e-22,1,6154,9.52003,-5.53333e-06,1.36035e-05,-4.14351e-08,1.46858e-05,118.938,63.66,-15.5,1.01872e+07,968750,-6.39441e-09,1.6473e-07,-8.29002e-08,-7.64863e-05,0.0365542,0.000613228,0.036699,2,4049
12,7.05568e-22,1,6155,9.52003,-5.52959e-06,1.36146e-05,-4.90872e-08,1.46948e-05,121,63.66,-15.5,1.0833e+07,1e+06,5.14845e-09,1.66982e-07,-9.79116e-08,-0.00048348,0.0374419,-0.000168148,0.0378821,2,4050
12,7.05568e-22,1,6156,9.52003,-5.52303e-06,1.36095e-05,-4.80575e-08,1.46875e-05,121,63.66,-15.5,1.0833e+07,1e+06,7.10284e-09,1.61915e-07,-9.59928e-08,8.44877e-05,0.0362732,-0.000159432,0.036374,2,4051
12,7.05568e-22,1,6157,9.52003,-5.51538e-06,1.35967e-05,-4.68044e-08,1.46728e-05,121,63.66,-15.5,1.0833e+07,1e+06,7.76349e-09,1.57817e-07,-9.35957e-08,0.000343123,0.0353943,-5.50184e-05,0.0353033,2,4052
12,7.05568e-22,1,6158,9.52003,-5.5075e-06,1.35801e-05,-4.61825e-08,1.46544e-05,121,63.66,-15.5,1.0833e+07,1e+06,7.65567e-09,1.56035e-07,-9.23526e-08,0.000374512,0.0350047,-1.71006e-05,0.0348703,2,4053
12,7.05568e-22,1,6159,9.52003,-5.50007e-06,1.35584e-05,-4.57761e-08,1.46316e-05,121,63.66,-15.5,1.0833e+07,1e+06,7.03393e-09,1.55323e-07,-9.15416e-08,0.000285108,0.0348269,-9.12312e-06,0.0347177,2,4054
12,7.05568e-22,1,6160,9.52003,-5.49343e-06,1.35302e-05,-4.54049e-08,1.46029e-05,121,63.66,-15.5,1.0833e+07,1e+06,6.21522e-09,1.55028e-07,-9.08041e-08,0.000168841,0.0347388,9.00611e-06,0.034663,2,4055
12,7.05568e-22,1,6161,9.52003,-5.48764e-06,1.34947e-05,-4.49295e-08,1.45679e-05,121,63.66,-15.5,1.0833e+07,1e+06,5.6025e-09,1.54064e-07,-8.98748e-08,8.54782e-05,0.0344961,1.37703e-05,0.0344504,2,4056
12,3.80831e-22,2,6162,62.06,-6.42584e-08,1.19042e-05,-4.4141e-08,1.19044e-05,2,141.86,-77.97,500000,500000,-1.26303e-07,3.41761e-07,-8.88437e-08,0.00836193,0.0461849,-0.00162167,0.0440913,3,2104
12,3.22864e-22,2,6163,62.06,-1.88348e-07,1.18918e-05,-4.73457e-08,1.18934e-05,6.25,141.86,-77.97,500000,500000,-1.17519e-07,3.33825e-07,-9.44613e-08,0.00824767,0.0416113,0.00107237,0.0383547,3,2105
12,2.0693e-22,2,6164,161.73,-2.99297e-07,1.19483e-05,-7.61126e-08,1.19523e-05,14.75,119.12,126.69,500000,500000,-1.05291e-07,3.45837e-07,-1.51046e-07,0.0052083,0.0325719,-0.00036932,0.031537,3,2106
12,1.48963e-22,2,6165,161.73,-3.98931e-07,1.20726e-05,-9.06137e-08,1.20796e-05,19,119.12,126.69,500000,500000,-1.0013e-07,3.5354e-07,-1.81425e-07,0.00392262,0.027297,-0.00112967,0.0265914,3,2107
12,1.48963e-22,2,6166,161.73,-4.99556e-07,1.2196e-05,-8.4892e-08,1.22066e-05,19,119.12,126.69,500000,500000,-1.02813e-07,3.47351e-07,-1.70342e-07,0.00398299,0.0271551,-0.000124056,0.0257368,3,2108
12,1.48963e-22,2,6167,161.73,-6.04556e-07,1.23089e-05,-8.12615e-08,1.2324e-05,19,119.12,126.69,500000,500000,-1.05599e-07,3.39882e-07,-1.62602e-07,0.00350912,0.0264864,-3.26716e-05,0.0252267,3,2109
12,1.48963e-22,2,6168,161.73,-7.10755e-07,1.24137e-05,-7.84677e-08,1.24343e-05,19,119.12,126.69,500000,500000,-1.06822e-07,3.33103e-07,-1.56933e-07,0.00314125,0.0258555,-9.34935e-06,0.0247391,3,2110
12,1.48963e-22,2,6169,161.73,-8.18201e-07,1.25142e-05,-7.59295e-08,1.25412e-05,19,119.12,126.69,500000,500000,-1.08239e-07,3.27321e-07,-1.5186e-07,0.00279867,0.0252811,1.91357e-05,0.0242715,3,2111
12,1.48963e-22,2,6170,161.73,-9.27233e-07,1.26126e-05,-7.35295e-08,1.26468e-05,19,119.12,126.69,500000,500000,-1.09468e-07,3.21625e-07,-1.47068e-07,0.0024708,0.0247016,3.45931e-05,0.0237926,3,2112
12,1.48963e-22,2,6171,161.73,-1.03714e-06,1.27092e-05,-7.12124e-08,1.27516e-05,19,119.12,126.69,500000,500000,-1.09603e-07,3.14995e-07,-1.42446e-07,0.00219851,0.0240774,3.56364e-05,0.0232619,3,2113
12,1.48963e-22,2,6172,161.73,-1.14644e-06,1.28031e-05,-6.90804e-08,1.28545e-05,19,119.12,126.69,500000,500000,-1.08118e-07,3.074e-07,-1.38214e-07,0.0020371,0.023455,3.43638e-05,0.0227084,3,2114
12,1.48963e-22,2,6173,161.73,-1.25337e-06,1.28933e-05,-6.74066e-08,1.29542e-05,19,119.12,126.69,500000,500000,-1.0491e-07,2.99592e-07,-1.34879e-07,0.00203259,0.0229297,3.56456e-05,0.0222149,3,2115
12,1.48963e-22,2,6174,161.73,-1.35626e-06,1.29783e-05,-6.61711e-08,1.30491e-05,19,119.12,126.69,500000,500000,-1.02761e-07,2.93138e-07,-1.32861e-07,0.00184944,0.0223905,-0.000198063,0.0219908,3,2116
12,1.48963e-22,2,6175,161.73,-1.4589e-06,1.30556e-05,-6.70473e-08,1.3137e-05,19,119.12,126.69,500000,500000,-1.02374e-07,2.95971e-07,-1.34603e-07,0.00197007,0.0229546,-0.0002648,0.0229793,3,2117
12,2.51545e-22,2,6176,161.73,-1.56101e-06,1.31146e-05,-6.43155e-08,1.32074e-05,22.3125,119.12,126.69,3.08325e+06,625000,-7.74573e-08,2.78511e-07,-1.2673e-07,0.00233291,0.0325619,-0.00121601,0.0333899,3,2118
12,4.4922e-22,1,6177,153.51,-1.61381e-06,1.31556e-05,-4.54433e-08,1.32542e-05,30.5625,-89.16,129.77,8.24975e+06,875000,-2.83484e-08,2.21402e-07,-9.01211e-08,0.00519707,0.04584,-0.000756509,0.0449388,2,4057
12,5.33076e-22,1,6178,125.44,-1.6177e-06,1.31914e-05,-2.64238e-08,1.32903e-05,37.9375,67.45,-41.35,1.0833e+07,1e+06,-2.34399e-09,1.74428e-07,-5.44194e-08,0.00909388,0.0485724,0.000659891,0.044894,2,4058
12,5.18094e-22,1,6179,125.44,-1.6185e-06,1.32334e-05,-2.10085e-08,1.3332e-05,41.1875,67.45,-41.35,1.0833e+07,1e+06,-3.36322e-10,1.53294e-07,-4.22443e-08,0.00981024,0.044797,0.000273068,0.0410863,2,4059
12,5.14349e-22,1,6180,125.44,-1.61838e-06,1.32873e-05,-1.91966e-08,1.33855e-05,42,67.45,-41.35,1.0833e+07,1e+06,5.62264e-10,1.38012e-07,-3.8091e-08,0.00892048,0.04087,1.86158e-05,0.0378568,2,4060
12,5.14349e-22,1,6181,125.44,-1.61737e-06,1.3351e-05,-1.79627e-08,1.34486e-05,42,67.45,-41.35,1.0833e+07,1e+06,1.51129e-09,1.26278e-07,-3.58784e-08,0.00804831,0.0375384,-2.70486e-05,0.0351096,2,4061
12,5.14349e-22,1,6182,125.44,-1.61535e-06,1.3419e-05,-1.6727e-08,1.35159e-05,42,67.45,-41.35,1.0833e+07,1e+06,2.23033e-09,1.15946e-07,-3.35109e-08,0.00744137,0.0345588,-3.1635e-05,0.0324254,2,4062
12,5.14349e-22,1,6183,125.44,-1.61291e-06,1.34832e-05,-1.5185e-08,1.35793e-05,42,67.45,-41.35,1.0833e+07,1e+06,2.45939e-09,1.0486e-07,-3.03643e-08,0.00690994,0.0312657,-2.92029e-05,0.0292016,2,4063
12,5.14349e-22,1,6184,125.44,-1.61043e-06,1.3537e-05,-1.35023e-08,1.36325e-05,42,67.45,-41.35,1.0833e+07,1e+06,2.03161e-09,9.51718e-08,-2.70624e-08,0.00650076,0.028295,-2.71309e-05,0.0261388,2,4064
12,5.14349e-22,1,6185,125.44,-1.60885e-06,1.35759e-05,-1.19191e-08,1.36709e-05,42,67.45,-41.35,1.0833e+07,1e+06,6.8802e-11,8.8379e-08,-2.39134e-08,0.00603648,0.0260266,-7.36925e-05,0.0238373,2,4065
12,5.14349e-22,1,6186,125.44,-1.6103e-06,1.35971e-05,-1.05347e-08,1.36921e-05,42,67.45,-41.35,1.0833e+07,1e+06,-4.61236e-09,8.61735e-08,-2.09055e-08,0.00533979,0.0248836,-0.000156621,0.0228856,2,4066
12,5.14349e-22,1,6187,125.44,-1.61807e-06,1.35996e-05,-9.3392e-09,1.36956e-05,42,67.45,-41.35,1.0833e+07,1e+06,-1.21329e-08,9.12153e-08,-1.85227e-08,0.00455112,0.0256843,-0.000216205,0.0239698,2,4067
12,5.08067e-22,1,6188,125.44,-1.63456e-06,1.35903e-05,-8.40154e-09,1.36882e-05,42.125,67.45,-41.35,1.01872e+07,968750,-2.33254e-08,1.03606e-07,-1.66208e-08,0.00350054,0.0276936,-1.41774e-05,0.0263772,2,4068
12,4.82939e-22,1,6189,125.44,-1.66473e-06,1.35721e-05,-7.47574e-09,1.36738e-05,42.625,67.45,-41.35,7.60394e+06,843750,-4.26314e-08,1.29307e-07,-1.5801e-08,0.00268172,0.0296973,0.000759537,0.0285814,2,4069
12,4.5153e-22,2,6190,44.42,-1.71983e-06,1.35334e-05,-1.13587e-08,1.36422e-05,43.25,-34.07,-165.31,4.37488e+06,687500,-6.6399e-08,1.65884e-07,-2.26809e-08,0.00250849,0.0311965,1.23354e-05,0.0306608,3,2119
12,4.32684e-22,2,6191,44.42,-1.79752e-06,1.34719e-05,-1.34898e-08,1.35913e-05,43.625,-34.07,-165.31,2.43744e+06,593750,-8.63372e-08,1.97047e-07,-2.63816e-08,0.00300397,0.0332386,-0.000343341,0.0325951,3,2120
12,4.20121e-22,2,6192,44.42,-1.8925e-06,1.33905e-05,-1.24201e-08,1.35236e-05,43.875,-34.07,-165.31,1.14581e+06,531250,-9.9967e-08,2.15832e-07,-2.51818e-08,0.00393409,0.0342529,9.27798e-05,0.0327607,3,2121
12,4.13839e-22,2,6193,44.42,-1.99746e-06,1.33079e-05,-1.28652e-08,1.3457e-05,44,-34.07,-165.31,500000,500000,-1.03634e-07,2.21695e-07,-2.43229e-08,0.0047716,0.0341164,0.000294422,0.0320291,3,2122
12,4.39672e-22,2,6194,44.42,-2.09977e-06,1.3246e-05,-1.44078e-08,1.34114e-05,44.6875,-34.07,-165.31,1.14581e+06,531250,-9.56469e-08,2.28229e-07,-2.97365e-08,0.00525363,0.0372092,0.00102957,0.0351303,3,2123
12,5.6884e-22,2,6195,44.42,-2.18875e-06,1.32279e-05,-2.51481e-08,1.34078e-05,48.125,-34.07,-165.31,4.37488e+06,687500,-7.76262e-08,2.23762e-07,-5.14727e-08,0.00330002,0.0393387,-0.000451389,0.0395698,3,2124
12,7.49674e-22,1,6196,130.6,-2.25502e-06,1.32799e-05,-3.25847e-08,1.347e-05,52.9375,117.2,-48.36,8.89556e+06,906250,-5.96504e-08,2.08671e-07,-6.42862e-08,0.00247915,0.0390478,-0.000550725,0.0391055,2,4070
12,8.27175e-22,1,6197,130.6,-2.30805e-06,1.33559e-05,-3.18401e-08,1.35539e-05,55,117.2,-48.36,1.0833e+07,1e+06,-5.12899e-08,2.02147e-07,-6.37588e-08,0.00382938,0.0388903,0.000454565,0.037026,2,4071
12,8.27175e-22,1,6198,130.6,-2.3576e-06,1.34134e-05,-3.2077e-08,1.3619e-05,55,117.2,-48.36,1.0833e+07,1e+06,-4.79256e-08,1.97263e-07,-6.4099e-08,0.00417831,0.0382407,-0.000166769,0.0364645,2,4072
12,8.23893e-22,1,6199,130.6,-2.4039e-06,1.34566e-05,-3.14006e-08,1.36696e-05,56.625,117.2,-48.36,1.0833e+07,1e+06,-4.5842e-08,1.93719e-07,-6.24843e-08,0.00460694,0.0376301,9.20826e-05,0.0356947,2,4073
12,8.07481e-22,1,6200,130.6,-2.44928e-06,1.34839e-05,-2.94866e-08,1.37046e-05,64.75,117.2,-48.36,1.0833e+07,1e+06,-4.81897e-08,1.83936e-07,-5.96297e-08,0.00398948,0.0330264,0.000714833,0.0314077,2,4074
12,7.84504e-22,1,6201,91.26,-2.50028e-06,1.34952e-05,-3.2199e-08,1.37249e-05,76.125,-49.63,-179.82,1.0833e+07,1e+06,-5.27568e-08,1.76535e-07,-6.43303e-08,0.0030483,0.026357,6.28904e-05,0.025543,2,4075
12,7.74657e-22,1,6202,91.26,-2.5548e-06,1.34982e-05,-3.48399e-08,1.37379e-05,81,-49.63,-179.82,1.0833e+07,1e+06,-5.36714e-08,1.75813e-07,-6.90614e-08,0.00305178,0.023774,-0.00051424,0.0230136,2,4076
12,7.74657e-22,1,6203,91.26,-2.60763e-06,1.35003e-05,-3.36445e-08,1.37498e-05,81,-49.63,-179.82,1.0833e+07,1e+06,-5.30702e-08,1.74804e-07,-6.76486e-08,0.00314575,0.0238147,-0.000150761,0.0226573,2,4077
12,7.74657e-22,1,6204,91.26,-2.66094e-06,1.34988e-05,-3.39068e-08,1.37586e-05,81,-49.63,-179.82,1.0833e+07,1e+06,-5.41157e-08,1.76552e-07,-6.77832e-08,0.00304739,0.0240598,-1.56608e-05,0.0227541,2,4078
12,7.74657e-22,1,6205,91.26,-2.71586e-06,1.34945e-05,-3.42933e-08,1.37651e-05,81,-49.63,-179.82,1.0833e+07,1e+06,-5.58832e-08,1.79315e-07,-6.85909e-08,0.00284215,0.0243496,-7.17507e-06,0.023075,2,4079
12,7.74657e-22,1,6206,91.26,-2.7727e-06,1.34881e-05,-3.48262e-08,1.37702e-05,81,-49.63,-179.82,1.0833e+07,1e+06,-5.79649e-08,1.82742e-07,-6.96486e-08,0.00261813,0.0247153,-6.2851e-06,0.0235278,2,4080
12,7.74657e-22,1,6207,91.26,-2.83179e-06,1.34798e-05,-3.54449e-08,1.37741e-05,81,-49.63,-179.82,1.0833e+07,1e+06,-6.03431e-08,1.86737e-07,-7.08898e-08,0.00237092,0.0251462,-4.06514e-06,0.0240825,2,4081
12,7.74657e-22,1,6208,91.26,-2.89339e-06,1.34699e-05,-3.61252e-08,1.37772e-05,81,-49.63,-179.82,1.0833e+07,1e+06,-6.29393e-08,1.91109e-07,-7.22512e-08,0.00210175,0.0256178,-1.01103e-06,0.0246971,2,4082
12,7.74657e-22,1,6209,91.26,-2.95767e-06,1.34589e-05,-3.68304e-08,1.37801e-05,81,-49.63,-179.82,1.0833e+07,1e+06,-6.56056e-08,1.95612e-07,-7.36622e-08,0.00182579,0.0261028,1.01033e-06,0.0253231,2,4083
12,7.74657e-22,1,6210,91.26,-3.0246e-06,1.34472e-05,-3.75223e-08,1.37832e-05,81,-49.63,-179.82,1.0833e+07,1e+06,-6.81978e-08,1.99998e-07,-7.50458e-08,0.00155737,0.0265742,1.51041e-06,0.0259178,2,4084
12,7.74657e-22,1,6211,91.26,-3.09406e-06,1.34357e-05,-3.81619e-08,1.37874e-05,81,-49.63,-179.82,1.0833e+07,1e+06,-7.06015e-08,2.04038e-07,-7.63244e-08,0.00130477,0.0270052,5.98009e-07,0.0264494,2,4085
12,7.74657e-22,1,6212,91.26,-3.16581e-06,1.34251e-05,-3.87089e-08,1.37934e-05,81,-49.63,-179.82,1.0833e+07,1e+06,-7.27247e-08,2.07513e-07,-7.74169e-08,0.00107121,0.0273687,-9.62208e-07,0.0268949,2,4086
12,7.74657e-22,1,6213,91.26,-3.23951e-06,1.34163e-05,-3.9116e-08,1.38019e-05,81,-49.63,-179.82,1.0833e+07,1e+06,-7.44679e-08,2.10177e-07,-7.82292e-08,0.00085958,0.0276347,-1.51238e-06,0.0272336,2,4087
12,7.74657e-22,1,6214,91.26,-3.31474e-06,1.34099e-05,-3.93212e-08,1.38136e-05,81,-49.63,-179.82,1.0833e+07,1e+06,-7.56678e-08,2.11695e-07,-7.86354e-08,0.000681628,0.027765,2.18786e-06,0.0274364,2,4088
12,7.74657e-22,1,6215,91.26,-3.39085e-06,1.34067e-05,-3.92314e-08,1.38289e-05,81,-49.63,-179.82,1.0833e+07,1e+06,-7.60037e-08,2.11547e-07,-7.8457e-08,0.000574468,0.0277078,1.52498e-05,0.0274535,2,4089
12,7.74657e-22,1,6216,91.26,-3.46675e-06,1.34069e-05,-3.87229e-08,1.3848e-05,81,-49.63,-179.82,1.0833e+07,1e+06,-7.49095e-08,2.08934e-07,-7.7424e-08,0.000616551,0.027392,4.82704e-05,0.0271998,2,4090
12,7.74657e-22,1,6217,91.26,-3.54067e-06,1.34106e-05,-3.75605e-08,1.38702e-05,81,-49.63,-179.82,1.0833e+07,1e+06,-7.15427e-08,2.02776e-07,-7.5202e-08,0.000934271,0.0267283,0.000112162,0.0265559,2,4091
12,7.74657e-22,1,6218,91.26,-3.60983e-06,1.34166e-05,-3.58481e-08,1.38938e-05,81,-49.63,-179.82,1.0833e+07,1e+06,-6.4963e-08,1.91834e-07,-7.13488e-08,0.0016952,0.0256149,0.000211923,0.0253187,2,4092
12,6.41583e-22,1,6219,91.26,-3.67059e-06,1.3421e-05,-3.02011e-08,1.3914e-05,84.25,-49.63,-179.82,1.0833e+07,1e+06,-5.08292e-08,1.74375e-07,-6.05115e-08,0.0027706,0.0286765,-0.000201162,0.028477,2,4093
12,3.75435e-22,1,6220,118.57,-3.71149e-06,1.33918e-05,-2.16126e-08,1.38966e-05,90.75,73.1,-29.9,1.0833e+07,1e+06,-3.49019e-08,1.59997e-07,-4.3761e-08,0.00400113,0.0361736,0.000142493,0.0349866,2,4094
12,2.42361e-22,1,6221,118.57,-3.7404e-06,1.3318e-05,-1.87485e-08,1.38333e-05,94,73.1,-29.9,1.0833e+07,1e+06,-3.13572e-08,1.62791e-07,-3.72946e-08,0.00469757,0.0413482,0.000618853,0.0390485,2,4095
12,2.42361e-22,1,6222,118.57,-3.77421e-06,1.32256e-05,-2.00997e-08,1.37536e-05,94,73.1,-29.9,1.0833e+07,1e+06,-3.57356e-08,1.72966e-07,-4.00516e-08,0.00456112,0.043497,0.000112881,0.041439,2,4096
12,2.42361e-22,1,6223,118.57,-3.81187e-06,1.31222e-05,-2.05359e-08,1.36646e-05,94,73.1,-29.9,1.0833e+07,1e+06,-3.93697e-08,1.79878e-07,-4.10895e-08,0.00441391,0.0448892,-2.15959e-05,0.0429327,2,4097
12,2.42361e-22,1,6224,118.57,-3.85295e-06,1.30051e-05,-2.0418e-08,1.35638e-05,94,73.1,-29.9,1.0833e+07,1e+06,-4.20081e-08,1.83991e-07,-4.08343e-08,0.00449483,0.0455745,6.98603e-05,0.0434882,2,4098
12,2.42361e-22,1,6225,118.57,-3.89588e-06,1.28742e-05,-2.00359e-08,1.34508e-05,94,73.1,-29.9,1.0833e+07,1e+06,-4.23008e-08,1.82392e-07,-4.00838e-08,0.00462123,0.0448565,9.57547e-05,0.0426965,2,4099
12,2.42361e-22,1,6226,118.57,-3.93755e-06,1.27364e-05,-2.01541e-08,1.33312e-05,94,73.1,-29.9,1.0833e+07,1e+06,-3.97929e-08,1.78951e-07,-4.03809e-08,0.00497196,0.0439737,1.77957e-05,0.041727,2,4100
12,2.42361e-22,1,6227,118.57,-3.97547e-06,1.2598e-05,-2.1239e-08,1.32104e-05,94,73.1,-29.9,1.0833e+07,1e+06,-3.51162e-08,1.78322e-07,-4.17836e-08,0.00584051,0.0442248,0.000209351,0.0415015,2,4101
12,2.80607e-22,1,6228,118.57,-4.00778e-06,1.24617e-05,-2.29542e-08,1.30904e-05,94.75,73.1,-29.9,1.01872e+07,968750,-3.1796e-08,1.83824e-07,-4.57272e-08,0.00674724,0.0446567,0.000701388,0.04152,2,4102
12,3.71309e-22,1,6229,118.57,-4.03906e-06,1.23615e-05,-2.82239e-08,1.30047e-05,95.375,73.1,-29.9,7.60394e+06,843750,-3.87812e-08,1.95447e-07,-5.78592e-08,0.00541853,0.0402709,0.000847687,0.0379821,2,4103
12,4.37975e-22,2,6230,26.35,-4.08534e-06,1.23172e-05,-3.68558e-08,1.29771e-05,94.375,19.24,-38.99,4.37488e+06,687500,-5.70997e-08,2.16648e-07,-7.37706e-08,0.00255475,0.0343905,0.000991956,0.0335031,3,2125
12,4.52185e-22,2,6231,26.35,-4.15326e-06,1.2297e-05,-4.05619e-08,1.29795e-05,93.5,19.24,-38.99,3.08325e+06,625000,-7.45844e-08,2.35024e-07,-8.04041e-08,0.000290623,0.0329989,0.00105896,0.0332797,3,2126
12,4.52185e-22,2,6232,26.35,-4.23451e-06,1.22859e-05,-3.95131e-08,1.29952e-05,93.5,19.24,-38.99,3.08325e+06,625000,-8.59451e-08,2.39706e-07,-7.89506e-08,-0.00173572,0.0329849,0.000759782,0.0345689,3,2127
12,4.52185e-22,2,6233,26.35,-4.32515e-06,1.2286e-05,-3.74153e-08,1.30252e-05,93.5,19.24,-38.99,3.08325e+06,625000,-9.41637e-08,2.40114e-07,-7.4343e-08,-0.00337949,0.0327674,0.00106175,0.0353502,3,2128
12,5.00258e-22,2,6234,26.35,-4.42284e-06,1.22904e-05,-3.27737e-08,1.30621e-05,96.75,19.24,-38.99,4.37488e+06,687500,-9.39445e-08,2.27564e-07,-6.51636e-08,-0.00516608,0.0338592,0.000899126,0.0378638,3,2129
12,5.96403e-22,1,6235,137.15,-4.51304e-06,1.23306e-05,-2.52626e-08,1.31305e-05,103.25,109.19,-42.07,6.95812e+06,812500,-8.68187e-08,2.04794e-07,-5.15368e-08,-0.00678763,0.0352725,0.00132347,0.0398142,2,4104
12,6.68512e-22,1,6236,137.15,-4.59648e-06,1.24176e-05,-2.25541e-08,1.3241e-05,108.125,109.19,-42.07,8.89556e+06,906250,-8.37907e-08,1.88497e-07,-4.61307e-08,-0.00884094,0.0353081,0.000855636,0.0408014,2,4105
12,7.16585e-22,1,6237,137.15,-4.68062e-06,1.25419e-05,-2.64632e-08,1.33869e-05,111.375,109.19,-42.07,1.01872e+07,968750,-8.16085e-08,1.96039e-07,-5.23865e-08,-0.00944642,0.0398322,7.25249e-06,0.0457318,2,4106
12,7.40621e-22,1,6238,137.15,-4.75969e-06,1.26722e-05,-2.81239e-08,1.35366e-05,113,109.19,-42.07,1.0833e+07,1e+06,-7.50238e-08,2.05935e-07,-5.57528e-08,-0.0075674,0.0444911,0.000332059,0.0489925,2,4107
12,7.40621e-22,1,6239,137.15,-4.83067e-06,1.27659e-05,-2.70581e-08,1.36494e-05,113,109.19,-42.07,1.0833e+07,1e+06,-6.61314e-08,1.97034e-07,-5.41372e-08,-0.00561794,0.0436422,2.83786e-05,0.0473287,2,4108
12,7.40621e-22,1,6240,137.15,-4.89196e-06,1.28354e-05,-2.59883e-08,1.37361e-05,113,109.19,-42.07,1.0833e+07,1e+06,-5.73979e-08,1.85758e-07,-5.19546e-08,-0.00388074,0.0417508,3.9112e-06,0.0445264,2,4109
12,7.40621e-22,1,6241,137.15,-4.94546e-06,1.28926e-05,-2.52258e-08,1.38086e-05,113,109.19,-42.07,1.0833e+07,1e+06,-5.06412e-08,1.75788e-07,-5.04431e-08,-0.00265852,0.0397104,-2.15208e-05,0.0417627,2,4110
12,7.40621e-22,1,6242,137.15,-4.99324e-06,1.29443e-05,-2.47899e-08,1.3874e-05,113,109.19,-42.07,1.0833e+07,1e+06,-4.58425e-08,1.68289e-07,-4.95781e-08,-0.00184053,0.0379947,-3.32985e-05,0.039492,2,4111
12,7.40621e-22,1,6243,137.15,-5.03715e-06,1.29947e-05,-2.46433e-08,1.39368e-05,113,109.19,-42.07,1.0833e+07,1e+06,-4.27697e-08,1.63559e-07,-4.92881e-08,-0.00132629,0.0368024,-3.29608e-05,0.0379056,2,4112
12,7.40621e-22,1,6244,137.15,-5.07878e-06,1.30454e-05,-2.47018e-08,1.39992e-05,113,109.19,-42.07,1.0833e+07,1e+06,-4.10966e-08,1.61117e-07,-4.94017e-08,-0.00105027,0.0360836,-2.77185e-05,0.0369389,2,4113
12,7.40621e-22,1,6245,137.15,-5.11934e-06,1.30975e-05,-2.49132e-08,1.40625e-05,113,109.19,-42.07,1.0833e+07,1e+06,-4.05086e-08,1.60364e-07,-4.98212e-08,-0.000966802,0.035709,-2.62393e-05,0.0364383,2,4114
12,7.40621e-22,1,6246,137.15,-5.15979e-06,1.31519e-05,-2.52557e-08,1.41278e-05,113,109.19,-42.07,1.0833e+07,1e+06,-4.07875e-08,1.60928e-07,-5.05063e-08,-0.00104262,0.0355889,-2.90193e-05,0.036291,2,4115
12,7.40621e-22,1,6247,137.15,-5.20092e-06,1.32094e-05,-2.56837e-08,1.41964e-05,113,109.19,-42.07,1.0833e+07,1e+06,-4.175e-08,1.62474e-07,-5.13588e-08,-0.00124706,0.0356638,-3.25335e-05,0.0364208,2,4116
12,7.40621e-22,1,6248,137.15,-5.24329e-06,1.32703e-05,-2.60743e-08,1.42687e-05,113,109.19,-42.07,1.0833e+07,1e+06,-4.3131e-08,1.64434e-07,-5.21372e-08,-0.00153637,0.0358566,-3.4923e-05,0.0367323,2,4117
12,7.40621e-22,1,6249,137.15,-5.28718e-06,1.33331e-05,-2.61346e-08,1.43432e-05,113,109.19,-42.07,1.0833e+07,1e+06,-4.42962e-08,1.65795e-07,-5.21795e-08,-0.00175533,0.036061,5.54848e-05,0.0369977,2,4118
12,7.40621e-22,1,6250,137.15,-5.33189e-06,1.33945e-05,-2.55414e-08,1.44167e-05,113,109.19,-42.07,1.0833e+07,1e+06,-4.44864e-08,1.63733e-07,-5.07512e-08,-0.00187961,0.0356115,0.000220989,0.0365296,2,4119
12,7.17722e-22,1,6251,137.15,-5.37615e-06,1.34516e-05,-2.52741e-08,1.44862e-05,112.938,109.19,-42.07,1.01872e+07,968750,-4.41556e-08,1.59826e-07,-5.07134e-08,-0.00214754,0.0338594,0.000114231,0.0349863,2,4120
12,6.26125e-22,1,6252,137.15,-5.4202e-06,1.35146e-05,-2.91656e-08,1.4561e-05,112.688,109.19,-42.07,7.60394e+06,843750,-4.47241e-08,1.67261e-07,-5.92222e-08,-0.00238966,0.0320637,-7.49945e-05,0.0334582,2,4121
12,5.11629e-22,2,6253,97.33,-5.4656e-06,1.3603e-05,-3.67618e-08,1.466e-05,112.375,-57.95,-141.14,4.37488e+06,687500,-4.43027e-08,1.84047e-07,-7.34373e-08,-0.0021231,0.031284,4.74368e-05,0.0325004,3,2130
12,5.05057e-22,2,6254,97.33,-5.5088e-06,1.37053e-05,-4.1585e-08,1.47711e-05,113.875,-57.95,-141.14,4.37488e+06,687500,-3.16937e-08,1.83135e-07,-8.27381e-08,-0.001073,0.031791,-8.9716e-05,0.0327324,3,2131
12,6.04217e-22,1,6255,9.52003,-5.52899e-06,1.37706e-05,-4.7578e-08,1.48392e-05,117.688,63.66,-15.5,7.60394e+06,843750,-6.87992e-09,1.77334e-07,-9.50542e-08,0.000294489,0.0357849,-0.000297602,0.0362437,2,4122
12,6.84859e-22,1,6256,9.52004,-5.52256e-06,1.37834e-05,-5.16012e-08,1.48487e-05,120.438,63.66,-15.5,1.01872e+07,968750,9.83194e-09,1.72048e-07,-1.03032e-07,0.00111013,0.0378181,-0.00025681,0.0376221,2,4123
12,7.05568e-22,1,6257,9.52003,-5.50932e-06,1.37717e-05,-4.93793e-08,1.48329e-05,121,63.66,-15.5,1.0833e+07,1e+06,1.27803e-08,1.61252e-07,-9.88672e-08,0.00132172,0.0360842,-0.000146951,0.0355895,2,4124
12,7.05568e-22,1,6258,9.52003,-5.497e-06,1.37546e-05,-4.77109e-08,1.48124e-05,121,63.66,-15.5,1.0833e+07,1e+06,1.14614e-08,1.57815e-07,-9.5463e-08,0.00116538,0.0354211,2.6241e-06,0.0349186,2,4125
12,7.05568e-22,1,6259,9.52003,-5.4864e-06,1.37364e-05,-4.68893e-08,1.47916e-05,121,63.66,-15.5,1.0833e+07,1e+06,9.79757e-09,1.56621e-07,-9.37797e-08,0.000826081,0.0351649,1.59849e-05,0.0348114,2,4126
12,7.05568e-22,1,6260,9.52003,-5.47741e-06,1.37143e-05,-4.63928e-08,1.47677e-05,121,63.66,-15.5,1.0833e+07,1e+06,8.25185e-09,1.56409e-07,-9.27877e-08,0.000521801,0.0350976,8.07099e-06,0.0348778,2,4127
12,7.05568e-22,1,6261,9.52003,-5.4699e-06,1.36859e-05,-4.59976e-08,1.47386e-05,121,63.66,-15.5,1.0833e+07,1e+06,6.87192e-09,1.56528e-07,-9.19923e-08,0.000280394,0.0350976,1.84925e-05,0.0349705,2,4128
12,7.05568e-22,1,6262,9.52003,-5.46366e-06,1.36495e-05,-4.54819e-08,1.47024e-05,121,63.66,-15.5,1.0833e+07,1e+06,5.95349e-09,1.55741e-07,-9.09923e-08,0.000135701,0.0348888,2.21766e-05,0.0348174,2,4129
12,3.80831e-22,2,6263,62.06,-7.38176e-08,1.22564e-05,-4.14703e-08,1.22567e-05,2,141.86,-77.97,500000,500000,-1.45192e-07,3.59985e-07,-8.16608e-08,0.00770932,0.0478728,6.75276e-05,0.0448422,3,2132
12,3.22864e-22,2,6264,62.06,-2.16566e-07,1.22386e-05,-4.34257e-08,1.22405e-05,6.25,141.86,-77.97,500000,500000,-1.33919e-07,3.52147e-07,-8.87725e-08,0.00802895,0.0434907,0.00259267,0.0392396,3,2133
12,2.0693e-22,2,6265,161.73,-3.41656e-07,1.23012e-05,-7.54011e-08,1.23062e-05,14.75,119.12,126.69,500000,500000,-1.14126e-07,3.59801e-07,-1.51596e-07,0.00535961,0.0337526,0.000212777,0.0320666,3,2134
12,1.48963e-22,2,6266,161.73,-4.44818e-07,1.2428e-05,-9.35976e-08,1.24363e-05,19,119.12,126.69,500000,500000,-9.96637e-08,3.59287e-07,-1.85742e-07,0.00439679,0.0276287,-0.00114294,0.0265653,3,2135
12,1.48963e-22,2,6267,161.73,-5.40984e-07,1.25439e-05,-8.71586e-08,1.25558e-05,19,119.12,126.69,500000,500000,-9.78052e-08,3.48727e-07,-1.74316e-07,0.00464478,0.0274223,-4.55416e-05,0.0256279,3,2136
12,1.48963e-22,2,6268,161.73,-6.40428e-07,1.26484e-05,-8.26783e-08,1.26648e-05,19,119.12,126.69,500000,500000,-1.00665e-07,3.39293e-07,-1.65359e-07,0.00404429,0.0265649,1.72512e-05,0.0249852,3,2137
12,1.48963e-22,2,6269,161.73,-7.42314e-07,1.27461e-05,-7.92926e-08,1.2768e-05,19,119.12,126.69,500000,500000,-1.03202e-07,3.32114e-07,-1.58584e-07,0.00352482,0.0258365,3.56258e-05,0.0244481,3,2138
12,1.48963e-22,2,6270,161.73,-8.46833e-07,1.28407e-05,-7.64265e-08,1.28688e-05,19,119.12,126.69,500000,500000,-1.05606e-07,3.2622e-07,-1.52864e-07,0.00306611,0.0252068,4.68241e-05,0.0239836,3,2139
12,1.48963e-22,2,6271,161.73,-9.53526e-07,1.29333e-05,-7.39095e-08,1.29686e-05,19,119.12,126.69,500000,500000,-1.07273e-07,3.2047e-07,-1.47829e-07,0.00267416,0.0246074,4.22629e-05,0.0235361,3,2140
12,1.48963e-22,2,6272,161.73,-1.06138e-06,1.30236e-05,-7.16638e-08,1.3067e-05,19,119.12,126.69,500000,500000,-1.07938e-07,3.14441e-07,-1.43329e-07,0.00235556,0.0240249,2.64874e-05,0.0230943,3,2141
12,1.48963e-22,2,6273,161.73,-1.1694e-06,1.31107e-05,-6.96777e-08,1.31629e-05,19,119.12,126.69,500000,500000,-1.07732e-07,3.08415e-07,-1.39371e-07,0.00211254,0.0235031,1.26923e-05,0.0227039,3,2142
12,1.48963e-22,2,6274,161.73,-1.27684e-06,1.31937e-05,-6.79987e-08,1.32555e-05,19,119.12,126.69,500000,500000,-1.06829e-07,3.0288e-07,-1.36006e-07,0.00195931,0.0231132,2.65478e-05,0.0224273,3,2143
12,1.48963e-22,2,6275,161.73,-1.38306e-06,1.32732e-05,-6.66088e-08,1.33452e-05,19,119.12,126.69,500000,500000,-1.05187e-07,2.98346e-07,-1.33635e-07,0.00193913,0.0228697,7.24172e-05,0.0222181,3,2144
12,1.75545e-22,2,6276,161.73,-1.48722e-06,1.33568e-05,-6.63327e-08,1.34395e-05,19.625,119.12,126.69,1.14581e+06,531250,-9.51127e-08,2.90849e-07,-1.33171e-07,0.0017879,0.024902,-0.000328218,0.0252071,3,2145
12,3.08455e-22,2,6277,161.73,-1.57328e-06,1.34003e-05,-6.28791e-08,1.34925e-05,22.75,119.12,126.69,4.37488e+06,687500,-6.2124e-08,2.61654e-07,-1.24785e-07,0.00124594,0.0340598,-0.00147491,0.0358386,3,2146
12,4.90784e-22,1,6278,153.51,-1.61147e-06,1.33792e-05,-4.88801e-08,1.34759e-05,27.9375,-89.16,129.77,8.89556e+06,906250,-2.24892e-08,2.10822e-07,-9.66776e-08,0.00216874,0.0433608,-0.000973077,0.0441142,2,4130
12,5.55548e-22,1,6279,153.51,-1.61826e-06,1.33645e-05,-3.32049e-08,1.34622e-05,33.0625,-89.16,129.77,1.0833e+07,1e+06,-5.81371e-09,1.72942e-07,-6.68516e-08,0.00481213,0.0445311,0.00036373,0.0430032,2,4131
12,5.33076e-22,1,6280,125.44,-1.62309e-06,1.33856e-05,-2.41116e-08,1.34837e-05,37.9375,67.45,-41.35,1.0833e+07,1e+06,-3.0174e-09,1.53843e-07,-4.87883e-08,0.00726862,0.0427984,0.000512499,0.0401271,2,4132
12,5.18094e-22,1,6281,125.44,-1.6243e-06,1.34237e-05,-1.91507e-08,1.35216e-05,41.1875,67.45,-41.35,1.0833e+07,1e+06,-7.91273e-11,1.36425e-07,-3.85568e-08,0.00812658,0.0400304,0.000316498,0.0373292,2,4133
12,5.14349e-22,1,6282,125.44,-1.62325e-06,1.34764e-05,-1.7752e-08,1.35738e-05,42,67.45,-41.35,1.0833e+07,1e+06,9.54323e-10,1.25037e-07,-3.55601e-08,0.00759,0.037202,3.44474e-05,0.0350902,2,4134
12,5.14349e-22,1,6283,125.44,-1.62239e-06,1.35356e-05,-1.69488e-08,1.36325e-05,42,67.45,-41.35,1.0833e+07,1e+06,7.09691e-10,1.17928e-07,-3.37686e-08,0.0070193,0.0350789,-2.87683e-05,0.0332598,2,4135
12,5.14349e-22,1,6284,125.44,-1.62183e-06,1.35898e-05,-1.53752e-08,1.36862e-05,42,67.45,-41.35,1.0833e+07,1e+06,3.86116e-10,1.08434e-07,-3.0705e-08,0.00654973,0.0322015,-2.98364e-05,0.0303802,2,4136
12,5.14349e-22,1,6285,125.44,-1.62162e-06,1.36343e-05,-1.37243e-08,1.37304e-05,42,67.45,-41.35,1.0833e+07,1e+06,-6.10158e-10,9.96862e-08,-2.74089e-08,0.00609055,0.0294645,-2.98995e-05,0.0275285,2,4137
12,5.14349e-22,1,6286,125.44,-1.62305e-06,1.36668e-05,-1.20695e-08,1.37628e-05,42,67.45,-41.35,1.0833e+07,1e+06,-3.20314e-09,9.33379e-08,-2.41155e-08,0.00548895,0.0272941,-5.75314e-05,0.0253228,2,4138
12,5.14349e-22,1,6287,125.44,-1.62802e-06,1.36862e-05,-1.0521e-08,1.37826e-05,42,67.45,-41.35,1.0833e+07,1e+06,-8.08008e-09,9.12214e-08,-2.10403e-08,0.00468038,0.0261985,-9.55825e-05,0.0243679,2,4139
12,5.14349e-22,1,6288,125.44,-1.63921e-06,1.36932e-05,-9.19102e-09,1.37909e-05,42,67.45,-41.35,1.0833e+07,1e+06,-1.54259e-08,9.47172e-08,-1.84253e-08,0.0036745,0.0266001,-0.000103565,0.0250859,2,4140
12,5.14349e-22,1,6289,125.44,-1.65887e-06,1.36911e-05,-8.24202e-09,1.37912e-05,42,67.45,-41.35,1.0833e+07,1e+06,-2.42365e-08,1.01533e-07,-1.62873e-08,0.00249299,0.0278938,-0.000144764,0.0268427,2,4141
12,5.08067e-22,1,6290,125.44,-1.68769e-06,1.36861e-05,-6.60888e-09,1.37897e-05,42.125,67.45,-41.35,1.01872e+07,968750,-3.45505e-08,1.109e-07,-1.33237e-08,0.00136693,0.0291735,0.000357374,0.0284511,2,4142
12,4.95503e-22,1,6291,125.44,-1.72798e-06,1.36747e-05,-7.68775e-09,1.37835e-05,42.375,67.45,-41.35,8.89556e+06,906250,-4.5766e-08,1.27209e-07,-1.5455e-08,0.00058465,0.0305679,0.000101364,0.0305444,2,4143
12,4.76657e-22,1,6292,125.44,-1.77922e-06,1.36473e-05,-8.52522e-09,1.37628e-05,42.75,67.45,-41.35,6.95812e+06,812500,-6.21897e-08,1.52335e-07,-1.74449e-08,0.000307435,0.0327424,0.000181751,0.0331112,2,4144
12,4.45248e-22,2,6293,44.42,-1.85236e-06,1.35968e-05,-8.65177e-09,1.37224e-05,43.375,-34.07,-165.31,3.72906e+06,656250,-8.79568e-08,1.85966e-07,-1.67448e-08,0.00105605,0.0337327,0.000894474,0.0335328,3,2147
12,4.20121e-22,2,6294,44.42,-1.95513e-06,1.35282e-05,-9.40989e-09,1.36687e-05,43.875,-34.07,-165.31,1.14581e+06,531250,-1.08606e-07,2.11477e-07,-1.80048e-08,0.00223991,0.0330021,0.000590244,0.0321763,3,2148
12,4.39672e-22,2,6295,44.42,-2.06957e-06,1.34743e-05,-1.33099e-08,1.36323e-05,44.6875,-34.07,-165.31,1.14581e+06,531250,-1.05536e-07,2.23002e-07,-2.85218e-08,0.00283003,0.0349657,-0.000224318,0.0347007,3,2149
12,5.6884e-22,2,6296,44.42,-2.1662e-06,1.34583e-05,-2.82594e-08,1.36315e-05,48.125,-34.07,-165.31,4.37488e+06,687500,-8.03048e-08,2.27501e-07,-5.61593e-08,0.0029497,0.0397246,-0.001805,0.0408709,3,2150
12,7.49674e-22,1,6297,130.6,-2.23018e-06,1.34943e-05,-3.52688e-08,1.36774e-05,52.9375,117.2,-48.36,8.89556e+06,906250,-5.6348e-08,2.16861e-07,-6.93818e-08,0.00396168,0.0411826,-0.0010396,0.0408116,2,4145
12,8.27175e-22,1,6298,130.6,-2.2789e-06,1.35582e-05,-3.25344e-08,1.37485e-05,55,117.2,-48.36,1.0833e+07,1e+06,-4.82694e-08,2.04725e-07,-6.57547e-08,0.00487448,0.039775,0.000310505,0.0375012,2,4146
12,8.27175e-22,1,6299,130.6,-2.32672e-06,1.36117e-05,-3.32138e-08,1.38092e-05,55,117.2,-48.36,1.0833e+07,1e+06,-4.71737e-08,2.00942e-07,-6.63652e-08,0.00463438,0.0390981,-0.000407103,0.0372699,2,4147
12,8.17328e-22,1,6300,130.6,-2.37325e-06,1.36543e-05,-3.20895e-08,1.38591e-05,59.875,117.2,-48.36,1.0833e+07,1e+06,-4.91223e-08,2.00011e-07,-6.42057e-08,0.00467502,0.0377795,0.000514225,0.0357659,2,4148
12,7.94351e-22,1,6301,91.26,-2.42496e-06,1.36718e-05,-3.25963e-08,1.38852e-05,71.25,-49.63,-179.82,1.0833e+07,1e+06,-5.43281e-08,1.91801e-07,-6.5025e-08,0.00372032,0.0314675,0.000724338,0.0300564,2,4149
12,7.7794e-22,1,6302,91.26,-2.4819e-06,1.36736e-05,-3.4907e-08,1.38971e-05,79.375,-49.63,-179.82,1.0833e+07,1e+06,-5.65198e-08,1.82112e-07,-6.98221e-08,0.00277404,0.0253338,-0.000462936,0.0248623,2,4150
12,7.74657e-22,1,6303,91.26,-2.538e-06,1.3677e-05,-3.49604e-08,1.39105e-05,81,-49.63,-179.82,1.0833e+07,1e+06,-5.59717e-08,1.8079e-07,-7.00703e-08,0.00294694,0.0244675,-0.000275813,0.0236099,2,4151
12,7.74657e-22,1,6304,91.26,-2.59385e-06,1.36779e-05,-3.45927e-08,1.39217e-05,81,-49.63,-179.82,1.0833e+07,1e+06,-5.61164e-08,1.80431e-07,-6.91143e-08,0.0028916,0.0244985,-2.75104e-05,0.0233627,2,4152
12,7.74657e-22,1,6305,91.26,-2.65023e-06,1.36778e-05,-3.47304e-08,1.39322e-05,81,-49.63,-179.82,1.0833e+07,1e+06,-5.70465e-08,1.81779e-07,-6.94812e-08,0.00276813,0.0246355,-1.58646e-05,0.0234534,2,4153
12,7.74657e-22,1,6306,91.26,-2.70794e-06,1.36762e-05,-3.50772e-08,1.39417e-05,81,-49.63,-179.82,1.0833e+07,1e+06,-5.85413e-08,1.84153e-07,-7.01525e-08,0.00260117,0.0248908,-9.12926e-07,0.0237159,2,4154
12,7.74657e-22,1,6307,91.26,-2.76731e-06,1.3673e-05,-3.55161e-08,1.39502e-05,81,-49.63,-179.82,1.0833e+07,1e+06,-6.02677e-08,1.86985e-07,-7.10312e-08,0.0024144,0.0251917,-2.74812e-06,0.0240808,2,4155
12,7.74657e-22,1,6308,91.26,-2.82848e-06,1.36682e-05,-3.60001e-08,1.39579e-05,81,-49.63,-179.82,1.0833e+07,1e+06,-6.2108e-08,1.90073e-07,-7.19988e-08,0.00222251,0.0255239,-4.02262e-06,0.0245053,2,4156
12,7.74657e-22,1,6309,91.26,-2.89153e-06,1.36621e-05,-3.65036e-08,1.39648e-05,81,-49.63,-179.82,1.0833e+07,1e+06,-6.40444e-08,1.93307e-07,-7.30066e-08,0.00201891,0.0258707,-3.71568e-06,0.0249602,2,4157
12,7.74657e-22,1,6310,91.26,-2.95656e-06,1.36549e-05,-3.7007e-08,1.39714e-05,81,-49.63,-179.82,1.0833e+07,1e+06,-6.60303e-08,1.96566e-07,-7.40139e-08,0.00180392,0.0262163,-2.45301e-06,0.0254166,2,4158
12,7.74657e-22,1,6311,91.26,-3.02359e-06,1.36471e-05,-3.74887e-08,1.39781e-05,81,-49.63,-179.82,1.0833e+07,1e+06,-6.79871e-08,1.99709e-07,-7.49774e-08,0.0015846,0.0265446,-9.24728e-07,0.0258467,2,4159
12,7.74657e-22,1,6312,91.26,-3.09254e-06,1.3639e-05,-3.79216e-08,1.39853e-05,81,-49.63,-179.82,1.0833e+07,1e+06,-6.98138e-08,2.02564e-07,-7.58429e-08,0.00137117,0.026837,6.85092e-07,0.0262252,2,4160
12,7.74657e-22,1,6313,91.26,-3.16322e-06,1.36314e-05,-3.82706e-08,1.39936e-05,81,-49.63,-179.82,1.0833e+07,1e+06,-7.13837e-08,2.04913e-07,-7.65398e-08,0.00117665,0.0270702,2.86393e-06,0.0265275,2,4161
12,7.74657e-22,1,6314,91.26,-3.23531e-06,1.36247e-05,-3.84885e-08,1.40036e-05,81,-49.63,-179.82,1.0833e+07,1e+06,-7.25244e-08,2.06471e-07,-7.69737e-08,0.00101994,0.0272146,7.00507e-06,0.0267242,2,4162
12,7.74657e-22,1,6315,91.26,-3.30827e-06,1.36192e-05,-3.85126e-08,1.40153e-05,81,-49.63,-179.82,1.0833e+07,1e+06,-7.29781e-08,2.06851e-07,-7.70193e-08,0.0009335,0.027233,1.5777e-05,0.0267746,2,4163
12,7.74657e-22,1,6316,91.26,-3.38126e-06,1.36152e-05,-3.82608e-08,1.40288e-05,81,-49.63,-179.82,1.0833e+07,1e+06,-7.23448e-08,2.05518e-07,-7.65132e-08,0.000974534,0.0270786,3.31973e-05,0.0266165,2,4164
12,7.74657e-22,1,6317,91.26,-3.45296e-06,1.3612e-05,-3.76381e-08,1.40432e-05,81,-49.63,-179.82,1.0833e+07,1e+06,-7.00234e-08,2.01783e-07,-7.52758e-08,0.00123998,0.0266983,6.07359e-05,0.0261616,2,4165
12,7.74657e-22,1,6318,91.26,-3.52131e-06,1.36088e-05,-3.65256e-08,1.4057e-05,81,-49.63,-179.82,1.0833e+07,1e+06,-6.52109e-08,1.94879e-07,-7.30618e-08,0.00188043,0.0260577,0.000121656,0.0252966,2,4166
12,7.74657e-22,1,6319,91.26,-3.58338e-06,1.36035e-05,-3.50638e-08,1.40676e-05,81,-49.63,-179.82,1.0833e+07,1e+06,-5.79833e-08,1.84404e-07,-7.02709e-08,0.00281591,0.0249969,2.02588e-05,0.0239862,2,4167
12,6.41583e-22,1,6320,91.26,-3.63728e-06,1.35936e-05,-3.09048e-08,1.40718e-05,84.25,-49.63,-179.82,1.0833e+07,1e+06,-4.54513e-08,1.71957e-07,-6.17827e-08,0.0039049,0.0286933,-0.000515156,0.0277762,2,4168
12,3.75435e-22,1,6321,118.57,-3.67428e-06,1.35534e-05,-2.3433e-08,1.40426e-05,90.75,73.1,-29.9,1.0833e+07,1e+06,-3.0855e-08,1.62174e-07,-4.66794e-08,0.00512201,0.0368911,-5.75573e-05,0.035088,2,4169
12,2.42361e-22,1,6322,118.57,-3.69899e-06,1.34806e-05,-2.01483e-08,1.39789e-05,94,73.1,-29.9,1.0833e+07,1e+06,-2.58581e-08,1.61916e-07,-4.03178e-08,0.00568448,0.0413798,0.000393929,0.0387469,2,4170
12,2.42361e-22,1,6323,118.57,-3.726e-06,1.33975e-05,-2.1313e-08,1.3906e-05,94,73.1,-29.9,1.0833e+07,1e+06,-2.95186e-08,1.70435e-07,-4.26504e-08,0.00547721,0.0432592,-2.63546e-05,0.0409308,2,4171
12,2.42361e-22,1,6324,118.57,-3.75802e-06,1.33029e-05,-2.17311e-08,1.38236e-05,94,73.1,-29.9,1.0833e+07,1e+06,-3.53301e-08,1.80836e-07,-4.34086e-08,0.00514821,0.0455075,-4.6585e-05,0.0432917,2,4172
12,2.42361e-22,1,6325,118.57,-3.79666e-06,1.31911e-05,-2.15021e-08,1.37267e-05,94,73.1,-29.9,1.0833e+07,1e+06,-4.10754e-08,1.88531e-07,-4.29851e-08,0.00489677,0.046874,1.48553e-05,0.0446715,2,4173
12,2.42361e-22,1,6326,118.57,-3.84017e-06,1.30583e-05,-2.07851e-08,1.36112e-05,94,73.1,-29.9,1.0833e+07,1e+06,-4.25397e-08,1.87037e-07,-4.15638e-08,0.00488598,0.0460216,0.00011616,0.0437472,2,4174
12,2.42361e-22,1,6327,118.57,-3.88174e-06,1.29155e-05,-2.06282e-08,1.34862e-05,94,73.1,-29.9,1.0833e+07,1e+06,-3.97039e-08,1.79812e-07,-4.08464e-08,0.00511259,0.0440217,6.96707e-05,0.0417112,2,4175
12,2.49465e-22,1,6328,118.57,-3.91958e-06,1.27758e-05,-2.18568e-08,1.33636e-05,93.5625,73.1,-29.9,1.01872e+07,968750,-4.18405e-08,1.84913e-07,-4.37724e-08,0.0049974,0.0435347,0.000103899,0.0413135,2,4176
12,2.77885e-22,1,6329,118.57,-3.96542e-06,1.26503e-05,-2.81111e-08,1.32573e-05,91.8125,73.1,-29.9,7.60394e+06,843750,-5.55803e-08,2.13406e-07,-5.79896e-08,0.00378292,0.0426155,0.000399579,0.0411186,2,4177
12,3.20515e-22,2,6330,26.35,-4.03074e-06,1.25782e-05,-4.25122e-08,1.32083e-05,89.1875,19.24,-38.99,3.72906e+06,656250,-7.24662e-08,2.47946e-07,-8.53647e-08,0.00169175,0.0379186,6.2614e-05,0.0379492,3,2151
12,3.48935e-22,2,6331,26.35,-4.11035e-06,1.25649e-05,-5.42154e-08,1.32202e-05,87.4375,19.24,-38.99,1.14581e+06,531250,-8.26405e-08,2.66104e-07,-1.07213e-07,0.000107149,0.032864,-0.000830574,0.0340535,3,2152
12,3.5604e-22,2,6332,26.35,-4.19602e-06,1.25615e-05,-5.64608e-08,1.32439e-05,87,19.24,-38.99,500000,500000,-8.79553e-08,2.72187e-07,-1.12655e-07,-0.000305127,0.0314308,-0.00120642,0.0328039,3,2153
12,3.5604e-22,2,6333,26.35,-4.28626e-06,1.25542e-05,-5.58242e-08,1.32659e-05,87,19.24,-38.99,500000,500000,-9.07686e-08,2.73821e-07,-1.11666e-07,-0.000434743,0.0315273,-0.00125273,0.0329255,3,2154
12,3.5604e-22,2,6334,26.35,-4.37756e-06,1.25535e-05,-5.48719e-08,1.3295e-05,87,19.24,-38.99,500000,500000,-9.15362e-08,2.72087e-07,-1.0911e-07,-0.00041955,0.0313694,-0.00108767,0.0326468,3,2155
12,3.80076e-22,2,6335,26.35,-4.46933e-06,1.25486e-05,-5.12559e-08,1.33209e-05,88.625,19.24,-38.99,1.14581e+06,531250,-9.26746e-08,2.71732e-07,-1.01688e-07,-0.000416735,0.0335781,-0.00049791,0.0348778,3,2156
12,4.28149e-22,2,6336,26.35,-4.56291e-06,1.25643e-05,-4.19045e-08,1.33673e-05,91.875,19.24,-38.99,2.43744e+06,593750,-9.54879e-08,2.61439e-07,-8.42585e-08,-0.00161155,0.0353675,0.00105211,0.0370452,3,2157
12,5.24294e-22,2,6337,26.35,-4.66031e-06,1.26224e-05,-3.39186e-08,1.34553e-05,98.375,19.24,-38.99,5.02069e+06,718750,-9.13967e-08,2.32066e-07,-6.86564e-08,-0.00455988,0.0363288,0.000316184,0.0401872,3,2158
12,6.68512e-22,1,6338,137.15,-4.7457e-06,1.27442e-05,-3.08939e-08,1.35991e-05,108.125,109.19,-42.07,8.89556e+06,906250,-7.58141e-08,2.13788e-07,-6.18814e-08,-0.00541758,0.042607,-0.000281609,0.0468478,2,4178
12,7.40621e-22,1,6339,137.15,-4.81194e-06,1.28791e-05,-2.86276e-08,1.37487e-05,113,109.19,-42.07,1.0833e+07,1e+06,-6.20039e-08,2.0605e-07,-5.71754e-08,-0.00374564,0.0463305,0.000476627,0.0489781,2,4179
12,7.40621e-22,1,6340,137.15,-4.86971e-06,1.29608e-05,-2.68741e-08,1.38454e-05,113,109.19,-42.07,1.0833e+07,1e+06,-5.38992e-08,1.91562e-07,-5.37935e-08,-0.00244155,0.0440231,-7.65677e-06,0.0464045,2,4180
12,7.40621e-22,1,6341,137.15,-4.91974e-06,1.30181e-05,-2.54097e-08,1.39167e-05,113,109.19,-42.07,1.0833e+07,1e+06,-4.71381e-08,1.78994e-07,-5.08005e-08,-0.00135453,0.0414916,4.18469e-05,0.0432586,2,4181
12,7.40621e-22,1,6342,137.15,-4.96399e-06,1.30652e-05,-2.46343e-08,1.39764e-05,113,109.19,-42.07,1.0833e+07,1e+06,-4.22258e-08,1.6898e-07,-4.92523e-08,-0.000684642,0.0391049,-3.00124e-06,0.0403638,2,4182
12,7.40621e-22,1,6343,137.15,-5.00419e-06,1.31099e-05,-2.43533e-08,1.40325e-05,113,109.19,-42.07,1.0833e+07,1e+06,-3.90195e-08,1.62465e-07,-4.87065e-08,-0.000274206,0.0373438,-2.18892e-05,0.0381727,2,4183
12,7.40621e-22,1,6344,137.15,-5.04203e-06,1.31561e-05,-2.44106e-08,1.40892e-05,113,109.19,-42.07,1.0833e+07,1e+06,-3.72797e-08,1.59109e-07,-4.8825e-08,-6.00462e-05,0.0362658,-1.78037e-05,0.0367862,2,4184
12,7.40621e-22,1,6345,137.15,-5.07875e-06,1.32049e-05,-2.46273e-08,1.41479e-05,113,109.19,-42.07,1.0833e+07,1e+06,-3.6555e-08,1.57676e-07,-4.92504e-08,4.97297e-06,0.0356327,-1.17849e-05,0.0359695,2,4185
12,7.40621e-22,1,6346,137.15,-5.11514e-06,1.32565e-05,-2.49571e-08,1.42092e-05,113,109.19,-42.07,1.0833e+07,1e+06,-3.65339e-08,1.57454e-07,-4.99077e-08,-4.70562e-05,0.0352647,-1.67923e-05,0.0355182,2,4186
12,7.40621e-22,1,6347,137.15,-5.15182e-06,1.33117e-05,-2.54213e-08,1.42739e-05,113,109.19,-42.07,1.0833e+07,1e+06,-3.71422e-08,1.58394e-07,-5.08376e-08,-0.000202325,0.0351334,-2.71562e-05,0.0353832,2,4187
12,7.40621e-22,1,6348,137.15,-5.18942e-06,1.3371e-05,-2.59909e-08,1.43428e-05,113,109.19,-42.07,1.0833e+07,1e+06,-3.83471e-08,1.60446e-07,-5.19821e-08,-0.000452109,0.0352462,-3.75065e-05,0.0355662,2,4188
12,7.40621e-22,1,6349,137.15,-5.22851e-06,1.34343e-05,-2.65693e-08,1.44159e-05,113,109.19,-42.07,1.0833e+07,1e+06,-4.00433e-08,1.63218e-07,-5.31085e-08,-0.000784972,0.0355679,-5.14013e-05,0.0360311,2,4189
12,7.40621e-22,1,6350,137.15,-5.26951e-06,1.34991e-05,-2.68071e-08,1.44912e-05,113,109.19,-42.07,1.0833e+07,1e+06,-4.15878e-08,1.65972e-07,-5.3484e-08,-0.00101763,0.0361322,3.0307e-05,0.0366761,2,4190
12,7.17722e-22,1,6351,137.15,-5.31168e-06,1.35581e-05,-2.69176e-08,1.45615e-05,112.938,109.19,-42.07,1.01872e+07,968750,-4.17503e-08,1.66293e-07,-5.37384e-08,-0.00108705,0.0356238,0.000124393,0.0361947,2,4191
12,6.26125e-22,1,6352,137.15,-5.35301e-06,1.36132e-05,-3.06537e-08,1.46279e-05,112.688,109.19,-42.07,7.60394e+06,843750,-4.02371e-08,1.71127e-07,-6.2262e-08,-0.00113754,0.0333707,-0.000129922,0.0341495,2,4192
12,4.8873e-22,2,6353,97.33,-5.39216e-06,1.36922e-05,-4.09544e-08,1.47157e-05,112.312,-57.95,-141.14,3.72906e+06,656250,-3.83794e-08,1.89487e-07,-8.18397e-08,-0.00107792,0.0316938,-0.000263537,0.0324955,3,2159
12,3.97133e-22,2,6354,97.33,-5.42977e-06,1.38027e-05,-4.88434e-08,1.48323e-05,112.062,-57.95,-141.14,1.14581e+06,531250,-3.74134e-08,2.0459e-07,-9.71638e-08,-0.00117637,0.0309909,-0.000288587,0.0318131,3,2160
12,3.94942e-22,2,6355,97.33,-5.46699e-06,1.3902e-05,-4.97419e-08,1.49384e-05,112.562,-57.95,-141.14,1.14581e+06,531250,-3.31387e-08,2.02725e-07,-9.95356e-08,-0.00102251,0.031162,-0.000548358,0.0321429,3,2161
12,4.98484e-22,2,6356,97.33,-5.49604e-06,1.39581e-05,-5.09299e-08,1.50013e-05,115.375,-57.95,-141.14,4.37488e+06,687500,-1.59363e-08,1.92693e-07,-1.0125e-07,0.000211219,0.0345622,-0.000726664,0.0352432,3,2162
12,6.43443e-22,1,6357,9.52003,-5.49886e-06,1.39587e-05,-5.13899e-08,1.50029e-05,119.312,63.66,-15.5,8.89556e+06,906250,6.31182e-09,1.74001e-07,-1.0283e-07,0.00141857,0.0366301,-0.000563944,0.0365417,2,4193
12,7.05568e-22,1,6358,9.52003,-5.48342e-06,1.3932e-05,-4.94034e-08,1.49723e-05,121,63.66,-15.5,1.0833e+07,1e+06,1.4612e-08,1.59687e-07,-9.90709e-08,0.00168302,0.0357516,-0.000144344,0.0351179,2,4194
12,7.05568e-22,1,6359,9.52003,-5.46963e-06,1.39123e-05,-4.78784e-08,1.4949e-05,121,63.66,-15.5,1.0833e+07,1e+06,1.2352e-08,1.57801e-07,-9.58305e-08,0.00132141,0.0354831,3.67818e-05,0.0349314,2,4195
12,7.05568e-22,1,6360,9.52003,-5.45872e-06,1.38933e-05,-4.70868e-08,1.49273e-05,121,63.66,-15.5,1.0833e+07,1e+06,9.98363e-09,1.57206e-07,-9.4203e-08,0.000818775,0.0353379,2.24856e-05,0.035016,2,4196
12,7.05568e-22,1,6361,9.52003,-5.44967e-06,1.38712e-05,-4.67216e-08,1.49034e-05,121,63.66,-15.5,1.0833e+07,1e+06,8.3079e-09,1.57539e-07,-9.34527e-08,0.000488695,0.0353852,1.18088e-05,0.0352011,2,4197
12,7.05568e-22,1,6362,9.52003,-5.4421e-06,1.38432e-05,-4.65075e-08,1.48746e-05,121,63.66,-15.5,1.0833e+07,1e+06,6.95323e-09,1.58199e-07,-9.30143e-08,0.000252611,0.0354931,1.2647e-05,0.0353945,2,4198
12,7.05568e-22,1,6363,9.52003,-5.43576e-06,1.38062e-05,-4.618e-08,1.48378e-05,121,63.66,-15.5,1.0833e+07,1e+06,6.06379e-09,1.58138e-07,-9.23868e-08,0.000125154,0.0354451,2.83037e-05,0.0353806,2,4199
12,3.66339e-22,2,6364,62.06,-8.43365e-08,1.26241e-05,-4.47668e-08,1.26245e-05,3.0625,141.86,-77.97,500000,500000,-1.62744e-07,3.79935e-07,-8.8944e-08,0.00543392,0.0482956,-0.000122037,0.0468125,3,2163
12,2.9388e-22,2,6365,62.06,-2.41151e-07,1.25961e-05,-5.57106e-08,1.25985e-05,8.375,141.86,-77.97,500000,500000,-1.42665e-07,3.7741e-07,-1.12626e-07,0.00652119,0.042861,0.00166397,0.0402573,3,2164
12,1.92438e-22,2,6366,161.73,-3.69667e-07,1.26679e-05,-8.57639e-08,1.26735e-05,15.8125,119.12,126.69,500000,500000,-1.1544e-07,3.82408e-07,-1.71843e-07,0.00573054,0.0341976,-0.000165543,0.0325565,3,2165
12,1.48963e-22,2,6367,161.73,-4.72031e-07,1.27912e-05,-9.61712e-08,1.28003e-05,19,119.12,126.69,500000,500000,-9.78492e-08,3.67295e-07,-1.91374e-07,0.0051605,0.0283781,-0.000904492,0.02682,3,2166
12,1.48963e-22,2,6368,161.73,-5.65365e-07,1.28935e-05,-8.91552e-08,1.29062e-05,19,119.12,126.69,500000,500000,-9.45177e-08,3.51057e-07,-1.78292e-07,0.0051281,0.0276242,-4.45064e-05,0.0255866,3,2167
12,1.48963e-22,2,6369,161.73,-6.61066e-07,1.29875e-05,-8.39769e-08,1.30046e-05,19,119.12,126.69,500000,500000,-9.7602e-08,3.4001e-07,-1.67963e-07,0.00445121,0.026621,4.60005e-05,0.0247827,3,2168
12,1.48963e-22,2,6370,161.73,-7.60569e-07,1.3078e-05,-8.01345e-08,1.31003e-05,19,119.12,126.69,500000,500000,-1.01371e-07,3.3281e-07,-1.60298e-07,0.0038087,0.0258566,7.18092e-05,0.0242447,3,2169
12,1.48963e-22,2,6371,161.73,-8.63808e-07,1.31667e-05,-7.70854e-08,1.31952e-05,19,119.12,126.69,500000,500000,-1.04439e-07,3.26937e-07,-1.54194e-07,0.00326707,0.0252161,6.80209e-05,0.0238206,3,2170
12,1.48963e-22,2,6372,161.73,-9.69447e-07,1.32535e-05,-7.45062e-08,1.32891e-05,19,119.12,126.69,500000,500000,-1.06161e-07,3.20961e-07,-1.49031e-07,0.00283798,0.0246089,4.45971e-05,0.0234063,3,2171
12,1.48963e-22,2,6373,161.73,-1.07613e-06,1.33381e-05,-7.2303e-08,1.33816e-05,19,119.12,126.69,500000,500000,-1.06972e-07,3.15125e-07,-1.44624e-07,0.00249642,0.0240478,1.08593e-05,0.0230167,3,2172
12,1.48963e-22,2,6374,161.73,-1.18339e-06,1.34199e-05,-7.04243e-08,1.34722e-05,19,119.12,126.69,500000,500000,-1.07918e-07,3.10312e-07,-1.40806e-07,0.0021771,0.0235858,-1.90845e-05,0.0227289,3,2173
12,1.48963e-22,2,6375,161.73,-1.29197e-06,1.3499e-05,-6.85741e-08,1.35609e-05,19,119.12,126.69,500000,500000,-1.09954e-07,3.0703e-07,-1.37299e-07,0.00179427,0.0232428,-5.01403e-05,0.0226183,3,2174
12,1.48963e-22,2,6376,161.73,-1.4033e-06,1.3575e-05,-6.67955e-08,1.36475e-05,19,119.12,126.69,500000,500000,-1.07299e-07,3.02343e-07,-1.33531e-07,0.00200884,0.0233521,0.000351518,0.0226416,3,2175
12,2.28709e-22,2,6377,161.73,-1.50656e-06,1.36373e-05,-6.17957e-08,1.37204e-05,20.875,119.12,126.69,2.43744e+06,593750,-7.92407e-08,2.66979e-07,-1.2277e-07,0.00170888,0.0272029,-0.000426811,0.0276862,3,2176
12,4.14783e-22,1,6378,153.51,-1.56178e-06,1.36379e-05,-5.0008e-08,1.37272e-05,25.25,-89.16,129.77,6.95813e+06,812500,-3.40898e-08,2.11787e-07,-1.00843e-07,0.00148088,0.0358158,-0.000974367,0.0370665,2,4200
12,5.47694e-22,1,6379,153.51,-1.57474e-06,1.35772e-05,-4.10532e-08,1.36683e-05,28.375,-89.16,129.77,1.01872e+07,968750,-1.20033e-08,1.83774e-07,-8.29225e-08,0.00156823,0.0419439,-1.76902e-05,0.0423177,2,4201
12,5.7053e-22,1,6380,153.51,-1.58579e-06,1.35373e-05,-3.75539e-08,1.36299e-05,29.8125,-89.16,129.77,1.0833e+07,1e+06,-1.23741e-08,1.7162e-07,-7.37974e-08,0.00101078,0.0412811,6.4535e-05,0.04141,2,4202
12,5.55548e-22,1,6381,153.51,-1.59949e-06,1.35411e-05,-3.00799e-08,1.36352e-05,33.0625,-89.16,129.77,1.0833e+07,1e+06,-1.2994e-08,1.57259e-07,-5.97781e-08,0.00217078,0.0395702,0.000139113,0.0391138,2,4203
12,5.36821e-22,1,6382,125.44,-1.61177e-06,1.35602e-05,-2.27468e-08,1.36557e-05,37.125,67.45,-41.35,1.0833e+07,1e+06,-8.4649e-09,1.41742e-07,-4.62872e-08,0.00448504,0.0382649,0.000370835,0.0369773,2,4204
12,5.25585e-22,1,6383,125.44,-1.61642e-06,1.36011e-05,-1.99171e-08,1.36968e-05,39.5625,67.45,-41.35,1.0833e+07,1e+06,-1.90771e-09,1.2945e-07,-4.02314e-08,0.00622227,0.0367195,0.000337919,0.0350364,2,4205
12,5.18094e-22,1,6384,125.44,-1.61559e-06,1.36548e-05,-1.78321e-08,1.37501e-05,41.1875,67.45,-41.35,1.0833e+07,1e+06,-1.11992e-10,1.21115e-07,-3.54427e-08,0.00669239,0.0355467,0.000172813,0.0338991,2,4206
12,5.14349e-22,1,6385,125.44,-1.61665e-06,1.37001e-05,-1.55442e-08,1.37951e-05,42,67.45,-41.35,1.0833e+07,1e+06,-2.43345e-09,1.12453e-07,-3.09206e-08,0.00602793,0.033216,-3.50757e-05,0.0317421,2,4207
12,5.14349e-22,1,6386,125.44,-1.62046e-06,1.37364e-05,-1.3605e-08,1.38316e-05,42,67.45,-41.35,1.0833e+07,1e+06,-5.02084e-09,1.04637e-07,-2.72083e-08,0.0052914,0.0306382,-3.73129e-05,0.0291194,2,4208
12,5.14349e-22,1,6387,125.44,-1.62669e-06,1.37626e-05,-1.18763e-08,1.38584e-05,42,67.45,-41.35,1.0833e+07,1e+06,-7.94698e-09,9.8181e-08,-2.37328e-08,0.00457933,0.0284278,-4.27011e-05,0.0268825,2,4209
12,5.14349e-22,1,6388,125.44,-1.63635e-06,1.37796e-05,-1.03494e-08,1.38764e-05,42,67.45,-41.35,1.0833e+07,1e+06,-1.22918e-08,9.5063e-08,-2.06901e-08,0.00372963,0.0271048,-6.10528e-05,0.0257026,2,4210
12,5.14349e-22,1,6389,125.44,-1.65127e-06,1.37891e-05,-9.08412e-09,1.38876e-05,42,67.45,-41.35,1.0833e+07,1e+06,-1.86201e-08,9.67631e-08,-1.8132e-08,0.00271043,0.0270848,-4.80073e-05,0.0259925,2,4211
12,5.14349e-22,1,6390,125.44,-1.67359e-06,1.37934e-05,-7.97691e-09,1.38945e-05,42,67.45,-41.35,1.0833e+07,1e+06,-2.64251e-08,1.024e-07,-1.60928e-08,0.00158164,0.0281354,-3.38473e-05,0.0274882,2,4212
12,5.14349e-22,1,6391,125.44,-1.70412e-06,1.37939e-05,-7.06337e-09,1.38987e-05,42,67.45,-41.35,1.0833e+07,1e+06,-3.41431e-08,1.08195e-07,-1.37364e-08,0.000546935,0.0292636,8.75716e-05,0.0290063,2,4213
12,5.14349e-22,1,6392,125.44,-1.74188e-06,1.37878e-05,-5.91784e-09,1.38974e-05,42,67.45,-41.35,1.0833e+07,1e+06,-4.15573e-08,1.14277e-07,-1.21183e-08,-0.000445261,0.030452,3.29944e-05,0.0306464,2,4214
12,5.08067e-22,1,6393,125.44,-1.78724e-06,1.37766e-05,-5.40569e-09,1.3892e-05,42.125,67.45,-41.35,1.01872e+07,968750,-5.22468e-08,1.25748e-07,-1.05674e-08,-0.0015421,0.0321125,0.000254037,0.0329049,2,4215
12,4.82939e-22,1,6394,125.44,-1.84637e-06,1.37625e-05,-3.51685e-09,1.38858e-05,42.625,67.45,-41.35,7.60394e+06,843750,-7.35824e-08,1.48581e-07,-6.82418e-09,-0.00230232,0.0327738,0.00144882,0.03393,2,4216
12,4.71082e-22,2,6395,44.42,-1.9344e-06,1.37308e-05,-5.84644e-09,1.38664e-05,44.0625,-34.07,-165.31,4.37488e+06,687500,-9.62023e-08,1.80559e-07,-1.34653e-08,-0.00218675,0.0325195,0.000820532,0.0343529,3,2177
12,5.49288e-22,2,6396,44.42,-2.03878e-06,1.3692e-05,-1.98822e-08,1.3843e-05,47.3125,-34.07,-165.31,4.37488e+06,687500,-9.36784e-08,2.05333e-07,-3.87785e-08,-0.00141885,0.0351309,-0.00144585,0.0380832,3,2178
12,6.98007e-22,1,6397,130.6,-2.12176e-06,1.36829e-05,-3.16036e-08,1.38465e-05,51.5625,117.2,-48.36,7.60394e+06,843750,-7.21362e-08,2.18411e-07,-6.2249e-08,0.000776916,0.0404,-0.00130664,0.0419703,2,4217
12,8.01341e-22,1,6398,130.6,-2.18305e-06,1.37136e-05,-3.36243e-08,1.38863e-05,54.3125,117.2,-48.36,1.01872e+07,968750,-5.86852e-08,2.17889e-07,-6.79679e-08,0.00294778,0.0418479,2.12714e-05,0.0408277,2,4218
12,8.27175e-22,1,6399,130.6,-2.23913e-06,1.37653e-05,-3.35847e-08,1.39463e-05,55,117.2,-48.36,1.0833e+07,1e+06,-5.48583e-08,2.10648e-07,-6.70271e-08,0.00351131,0.0404084,7.96324e-05,0.0387875,2,4219
12,8.27175e-22,1,6400,130.6,-2.29276e-06,1.38153e-05,-3.39044e-08,1.40043e-05,55,117.2,-48.36,1.0833e+07,1e+06,-5.25953e-08,2.07389e-07,-6.79211e-08,0.00363838,0.0399731,-0.000548785,0.0386377,2,4220
12,8.14046e-22,1,6401,130.6,-2.34432e-06,1.38566e-05,-3.20302e-08,1.40535e-05,61.5,117.2,-48.36,1.0833e+07,1e+06,-5.37721e-08,2.0053e-07,-6.4324e-08,0.00357663,0.0368085,0.000476935,0.0353257,2,4221
12,7.87787e-22,1,6402,91.26,-2.40031e-06,1.38675e-05,-3.44422e-08,1.40738e-05,74.5,-49.63,-179.82,1.0833e+07,1e+06,-5.82393e-08,1.93152e-07,-6.84673e-08,0.00306239,0.0295725,0.000301805,0.0285811,2,4222
12,7.74657e-22,1,6403,91.26,-2.4608e-06,1.38594e-05,-3.71759e-08,1.40762e-05,81,-49.63,-179.82,1.0833e+07,1e+06,-5.98283e-08,1.88472e-07,-7.41275e-08,0.00260571,0.0251712,-0.000753409,0.0247604,2,4223
12,7.74657e-22,1,6404,91.26,-2.51997e-06,1.38598e-05,-3.54013e-08,1.4087e-05,81,-49.63,-179.82,1.0833e+07,1e+06,-5.93873e-08,1.85907e-07,-7.11728e-08,0.00254036,0.0250349,-0.000139898,0.0242511,2,4224
12,7.74657e-22,1,6405,91.26,-2.57957e-06,1.38611e-05,-3.54255e-08,1.40991e-05,81,-49.63,-179.82,1.0833e+07,1e+06,-6.00059e-08,1.86272e-07,-7.0811e-08,0.00241086,0.0250868,-8.70394e-06,0.0241527,2,4225
12,7.74657e-22,1,6406,91.26,-2.63998e-06,1.38623e-05,-3.55724e-08,1.41115e-05,81,-49.63,-179.82,1.0833e+07,1e+06,-6.08073e-08,1.87449e-07,-7.1143e-08,0.00230872,0.0252066,-4.68665e-06,0.0242177,2,4226
12,7.74657e-22,1,6407,91.26,-2.70119e-06,1.38628e-05,-3.58501e-08,1.41235e-05,81,-49.63,-179.82,1.0833e+07,1e+06,-6.16931e-08,1.8915e-07,-7.17015e-08,0.00223847,0.0254043,-5.03314e-06,0.0243892,2,4227
12,7.74657e-22,1,6408,91.26,-2.76336e-06,1.3862e-05,-3.61816e-08,1.41348e-05,81,-49.63,-179.82,1.0833e+07,1e+06,-6.27278e-08,1.91163e-07,-7.23637e-08,0.0021599,0.0256395,-4.75734e-06,0.0246368,2,4228
12,7.74657e-22,1,6409,91.26,-2.82664e-06,1.38599e-05,-3.65259e-08,1.41453e-05,81,-49.63,-179.82,1.0833e+07,1e+06,-6.38624e-08,1.93268e-07,-7.30502e-08,0.00206257,0.0258786,-6.02122e-06,0.024922,2,4229
12,7.74657e-22,1,6410,91.26,-2.89109e-06,1.38565e-05,-3.68598e-08,1.4155e-05,81,-49.63,-179.82,1.0833e+07,1e+06,-6.50583e-08,1.95364e-07,-7.37175e-08,0.00194725,0.0261097,-6.47495e-06,0.0252176,2,4230
12,7.74657e-22,1,6411,91.26,-2.95676e-06,1.3852e-05,-3.7174e-08,1.41641e-05,81,-49.63,-179.82,1.0833e+07,1e+06,-6.63011e-08,1.9741e-07,-7.43465e-08,0.00181385,0.0263278,-4.86533e-06,0.0255062,2,4231
12,7.74657e-22,1,6412,91.26,-3.02369e-06,1.38466e-05,-3.74598e-08,1.4173e-05,81,-49.63,-179.82,1.0833e+07,1e+06,-6.75429e-08,1.99337e-07,-7.49186e-08,0.00166853,0.0265261,-1.4564e-06,0.0257712,2,4232
12,7.74657e-22,1,6413,91.26,-3.09184e-06,1.38408e-05,-3.77005e-08,1.4182e-05,81,-49.63,-179.82,1.0833e+07,1e+06,-6.86774e-08,2.01015e-07,-7.54001e-08,0.00152704,0.0266933,3.30125e-06,0.0259927,2,4233
12,7.74657e-22,1,6414,91.26,-3.16104e-06,1.38349e-05,-3.78689e-08,1.41915e-05,81,-49.63,-179.82,1.0833e+07,1e+06,-6.954e-08,2.02237e-07,-7.57363e-08,0.00141399,0.0268116,9.40793e-06,0.0261457,2,4234
12,7.74657e-22,1,6415,91.26,-3.23092e-06,1.38292e-05,-3.79266e-08,1.42017e-05,81,-49.63,-179.82,1.0833e+07,1e+06,-6.99068e-08,2.02726e-07,-7.58507e-08,0.00136326,0.0268581,1.76575e-05,0.0261983,2,4235
12,7.74657e-22,1,6416,91.26,-3.30086e-06,1.38236e-05,-3.78258e-08,1.42123e-05,81,-49.63,-179.82,1.0833e+07,1e+06,-6.94908e-08,2.02132e-07,-7.56492e-08,0.0014187,0.0268037,2.86113e-05,0.0261096,2,4236
12,7.74657e-22,1,6417,91.26,-3.36991e-06,1.38177e-05,-3.75149e-08,1.42228e-05,81,-49.63,-179.82,1.0833e+07,1e+06,-6.79378e-08,2.00057e-07,-7.50285e-08,0.00163788,0.0266183,4.3301e-05,0.0258295,2,4237
12,7.74657e-22,1,6418,91.26,-3.43673e-06,1.38105e-05,-3.69479e-08,1.42317e-05,81,-49.63,-179.82,1.0833e+07,1e+06,-6.48699e-08,1.9608e-07,-7.38977e-08,0.00208252,0.0262694,5.78536e-05,0.0253014,2,4238
12,7.74657e-22,1,6419,91.26,-3.49965e-06,1.38003e-05,-3.60584e-08,1.42372e-05,81,-49.63,-179.82,1.0833e+07,1e+06,-5.9913e-08,1.89888e-07,-7.21254e-08,0.00283051,0.0257531,9.22392e-05,0.0244766,2,4239
12,7.74657e-22,1,6420,91.26,-3.55656e-06,1.37854e-05,-3.49355e-08,1.42368e-05,81,-49.63,-179.82,1.0833e+07,1e+06,-5.32976e-08,1.81285e-07,-6.99337e-08,0.00379602,0.0249603,2.05855e-05,0.0233599,2,4240
12,6.41583e-22,1,6421,91.26,-3.60624e-06,1.37649e-05,-3.12059e-08,1.42295e-05,84.25,-49.63,-179.82,1.0833e+07,1e+06,-4.16133e-08,1.70637e-07,-6.24041e-08,0.00484807,0.0287483,-0.000573277,0.0273128,2,4241
12,3.75435e-22,1,6422,118.57,-3.63979e-06,1.37161e-05,-2.40076e-08,1.41909e-05,90.75,73.1,-29.9,1.0833e+07,1e+06,-2.68587e-08,1.61168e-07,-4.79793e-08,0.00605099,0.0368312,-8.85251e-05,0.0345745,2,4242
12,2.42361e-22,1,6423,118.57,-3.65996e-06,1.36418e-05,-2.09522e-08,1.41242e-05,94,73.1,-29.9,1.0833e+07,1e+06,-2.03394e-08,1.59469e-07,-4.19119e-08,0.00663503,0.0411141,0.000441527,0.0380686,2,4243
12,2.42361e-22,1,6424,118.57,-3.68047e-06,1.35665e-05,-2.24102e-08,1.40569e-05,94,73.1,-29.9,1.0833e+07,1e+06,-2.30812e-08,1.67074e-07,-4.47362e-08,0.00636826,0.0429009,-6.78378e-05,0.0402976,2,4244
12,2.42361e-22,1,6425,118.57,-3.70612e-06,1.34839e-05,-2.30944e-08,1.39839e-05,94,73.1,-29.9,1.0833e+07,1e+06,-2.987e-08,1.80686e-07,-4.61031e-08,0.00600177,0.0459945,-9.05272e-05,0.0435191,2,4245
12,2.42361e-22,1,6426,118.57,-3.74021e-06,1.33822e-05,-2.34676e-08,1.3895e-05,94,73.1,-29.9,1.0833e+07,1e+06,-3.73595e-08,1.93316e-07,-4.64303e-08,0.00581403,0.0484911,-1.3188e-05,0.0459715,2,4246
12,2.49465e-22,1,6427,118.57,-3.78084e-06,1.32483e-05,-2.32822e-08,1.37772e-05,93.5625,73.1,-29.9,1.01872e+07,968750,-4.40947e-08,1.99698e-07,-4.60649e-08,0.00561439,0.0475496,0.000467975,0.0448499,2,4247
12,2.63675e-22,1,6428,118.57,-3.82839e-06,1.30961e-05,-2.37677e-08,1.36442e-05,92.6875,73.1,-29.9,8.89556e+06,906250,-5.18878e-08,2.06706e-07,-4.86532e-08,0.00491578,0.0441729,0.00109486,0.04161,2,4248
12,2.8499e-22,1,6429,118.57,-3.88462e-06,1.29679e-05,-2.93366e-08,1.35372e-05,91.375,73.1,-29.9,6.95812e+06,812500,-6.56886e-08,2.28492e-07,-6.0595e-08,0.00327152,0.0425532,0.000934579,0.0410433,2,4249
12,3.20515e-22,2,6430,26.35,-3.95977e-06,1.28885e-05,-4.38563e-08,1.34832e-05,89.1875,19.24,-38.99,3.72906e+06,656250,-8.49969e-08,2.67806e-07,-8.71039e-08,0.00126589,0.0404419,0.0004198,0.0403983,3,2179
12,3.48935e-22,2,6431,26.35,-4.05461e-06,1.28574e-05,-5.69761e-08,1.34817e-05,87.4375,19.24,-38.99,1.14581e+06,531250,-9.53515e-08,2.92396e-07,-1.12052e-07,-9.08535e-05,0.0361995,-0.000221214,0.0372688,3,2180
12,3.5604e-22,2,6432,26.35,-4.15047e-06,1.28494e-05,-5.86156e-08,1.35032e-05,87,19.24,-38.99,500000,500000,-9.41813e-08,2.8898e-07,-1.17292e-07,-0.000412431,0.0334321,-0.000621772,0.0347077,3,2181
12,3.5604e-22,2,6433,26.35,-4.24297e-06,1.28413e-05,-5.60071e-08,1.35243e-05,87,19.24,-38.99,500000,500000,-9.29903e-08,2.82627e-07,-1.12592e-07,-0.000113617,0.0326582,-0.000339672,0.0334942,3,2182
12,3.5604e-22,2,6434,26.35,-4.33646e-06,1.28336e-05,-5.45203e-08,1.35465e-05,87,19.24,-38.99,500000,500000,-9.40133e-08,2.8014e-07,-1.09051e-07,-8.78973e-05,0.0324452,-0.000139785,0.0331412,3,2183
12,3.5604e-22,2,6435,26.35,-4.431e-06,1.28302e-05,-5.33111e-08,1.35739e-05,87,19.24,-38.99,500000,500000,-9.67053e-08,2.78147e-07,-1.07486e-07,-0.000631032,0.031966,-0.000421403,0.0330915,3,2184
12,3.5604e-22,2,6436,26.35,-4.52987e-06,1.28339e-05,-5.43865e-08,1.361e-05,87,19.24,-38.99,500000,500000,-1.02565e-07,2.85322e-07,-1.08799e-07,-0.00127708,0.0328692,-0.000677495,0.0346158,3,2185
12,3.5604e-22,2,6437,26.35,-4.63613e-06,1.28534e-05,-5.3447e-08,1.36641e-05,87,19.24,-38.99,500000,500000,-1.07213e-07,2.91247e-07,-1.0547e-07,-0.00127971,0.0341166,3.40819e-06,0.0356943,3,2186
12,4.52185e-22,2,6438,26.35,-4.74429e-06,1.28817e-05,-4.68393e-08,1.37277e-05,93.5,19.24,-38.99,3.08325e+06,625000,-9.44741e-08,2.7318e-07,-9.31886e-08,-0.000918439,0.0396374,-0.000675829,0.0417954,3,2187
12,6.44476e-22,1,6439,137.15,-4.82508e-06,1.29695e-05,-3.69831e-08,1.3838e-05,106.5,109.19,-42.07,8.24975e+06,875000,-6.4776e-08,2.35893e-07,-7.45332e-08,-6.24884e-05,0.0472438,-0.000514047,0.0488393,2,4250
12,7.40621e-22,1,6440,137.15,-4.87384e-06,1.30843e-05,-3.01431e-08,1.39626e-05,113,109.19,-42.07,1.0833e+07,1e+06,-4.46978e-08,2.04308e-07,-6.07418e-08,0.00103722,0.0475562,0.000415531,0.0479438,2,4251
12,7.40621e-22,1,6441,137.15,-4.91447e-06,1.3149e-05,-2.76944e-08,1.40375e-05,113,109.19,-42.07,1.0833e+07,1e+06,-3.87237e-08,1.86146e-07,-5.53675e-08,0.00150923,0.0441425,-2.03346e-05,0.0448159,2,4252
12,7.40621e-22,1,6442,137.15,-4.95129e-06,1.31934e-05,-2.54657e-08,1.40919e-05,113,109.19,-42.07,1.0833e+07,1e+06,-3.52893e-08,1.72046e-07,-5.09083e-08,0.00156216,0.0409282,6.46245e-05,0.0414648,2,4253
12,7.40621e-22,1,6443,137.15,-4.98505e-06,1.32305e-05,-2.44592e-08,1.41385e-05,113,109.19,-42.07,1.0833e+07,1e+06,-3.28136e-08,1.61734e-07,-4.89161e-08,0.00150075,0.0381715,-1.45856e-05,0.0385053,2,4254
12,7.40621e-22,1,6444,137.15,-5.01692e-06,1.32693e-05,-2.4245e-08,1.4186e-05,113,109.19,-42.07,1.0833e+07,1e+06,-3.16119e-08,1.56575e-07,-4.85173e-08,0.00142087,0.0364951,-2.19875e-05,0.0365547,2,4255
12,7.40621e-22,1,6445,137.15,-5.04828e-06,1.33129e-05,-2.44186e-08,1.42379e-05,113,109.19,-42.07,1.0833e+07,1e+06,-3.14252e-08,1.54818e-07,-4.88445e-08,0.00130108,0.035649,3.40746e-06,0.0355099,2,4256
12,7.40621e-22,1,6446,137.15,-5.07977e-06,1.33608e-05,-2.46745e-08,1.42939e-05,113,109.19,-42.07,1.0833e+07,1e+06,-3.16329e-08,1.54131e-07,-4.93419e-08,0.00115135,0.0351028,9.01231e-06,0.034867,2,4257
12,7.40621e-22,1,6447,137.15,-5.11154e-06,1.34124e-05,-2.50373e-08,1.43534e-05,113,109.19,-42.07,1.0833e+07,1e+06,-3.20434e-08,1.54111e-07,-5.00691e-08,0.000984767,0.0347105,-5.67634e-06,0.0344379,2,4258
12,7.40621e-22,1,6448,137.15,-5.14386e-06,1.34687e-05,-2.55904e-08,1.44175e-05,113,109.19,-42.07,1.0833e+07,1e+06,-3.28369e-08,1.55303e-07,-5.11789e-08,0.000785571,0.0345724,-2.11754e-05,0.0343083,2,4259
12,7.40621e-22,1,6449,137.15,-5.17721e-06,1.35303e-05,-2.63085e-08,1.4487e-05,113,109.19,-42.07,1.0833e+07,1e+06,-3.41322e-08,1.57912e-07,-5.26156e-08,0.000540845,0.0347647,-2.98491e-05,0.0345619,2,4260
12,7.40621e-22,1,6450,137.15,-5.21212e-06,1.35968e-05,-2.70795e-08,1.45616e-05,113,109.19,-42.07,1.0833e+07,1e+06,-3.57769e-08,1.61669e-07,-5.41431e-08,0.000288398,0.0353061,-2.87772e-05,0.0351972,2,4261
12,7.40621e-22,1,6451,137.15,-5.24877e-06,1.36651e-05,-2.77405e-08,1.46385e-05,113,109.19,-42.07,1.0833e+07,1e+06,-3.73481e-08,1.66072e-07,-5.55663e-08,9.98965e-05,0.036242,-7.768e-05,0.0362593,2,4262
12,6.71924e-22,1,6452,137.15,-5.28682e-06,1.37271e-05,-2.98421e-08,1.471e-05,112.812,109.19,-42.07,8.89556e+06,906250,-3.75408e-08,1.72883e-07,-6.0149e-08,0.000119171,0.0358346,0.00010592,0.0358291,2,4263
12,5.11629e-22,2,6453,97.33,-5.32385e-06,1.37939e-05,-3.9643e-08,1.47857e-05,112.375,-57.95,-141.14,4.37488e+06,687500,-3.48413e-08,1.88567e-07,-7.91213e-08,4.66231e-05,0.0332161,-4.34888e-05,0.0333735,3,2188
12,3.97133e-22,2,6454,97.33,-5.3565e-06,1.38936e-05,-5.07784e-08,1.48905e-05,112.062,-57.95,-141.14,1.14581e+06,531250,-3.05576e-08,2.04266e-07,-1.012e-07,-8.47766e-05,0.0311776,-0.000500811,0.0315546,3,2189
12,3.74234e-22,2,6455,97.33,-5.38497e-06,1.40122e-05,-5.39391e-08,1.50114e-05,112,-57.95,-141.14,500000,500000,-2.75373e-08,2.09628e-07,-1.07587e-07,0.000287212,0.0312393,-0.000383603,0.031346,3,2190
12,3.94942e-22,2,6456,97.33,-5.41157e-06,1.41108e-05,-5.00764e-08,1.5113e-05,112.562,-57.95,-141.14,1.14581e+06,531250,-2.54857e-08,2.04924e-07,-9.96661e-08,0.00088259,0.0324226,0.000374919,0.0320048,3,2191
12,4.98484e-22,2,6457,97.33,-5.43594e-06,1.4156e-05,-4.52093e-08,1.51639e-05,115.375,-57.95,-141.14,4.37488e+06,687500,-1.71662e-08,1.84351e-07,-9.10234e-08,0.000402004,0.0334242,0.000161377,0.0335401,3,2192
12,6.43443e-22,1,6458,9.52003,-5.44591e-06,1.41314e-05,-4.57317e-08,1.51445e-05,119.312,63.66,-15.5,8.89556e+06,906250,-2.35514e-09,1.64988e-07,-9.18806e-08,-0.000327645,0.0348643,-0.000354791,0.0354995,2,4264
12,7.05568e-22,1,6459,9.52003,-5.44065e-06,1.40911e-05,-4.72042e-08,1.5105e-05,121,63.66,-15.5,1.0833e+07,1e+06,6.54855e-09,1.59487e-07,-9.41613e-08,-6.46279e-05,0.0357993,-0.000106999,0.0360214,2,4265
12,7.05568e-22,1,6460,9.52003,-5.43281e-06,1.40702e-05,-4.69332e-08,1.50827e-05,121,63.66,-15.5,1.0833e+07,1e+06,7.74239e-09,1.5808e-07,-9.38423e-08,0.000211657,0.0355437,-7.4856e-05,0.0356169,2,4266
12,7.05568e-22,1,6461,9.52003,-5.42516e-06,1.40509e-05,-4.6692e-08,1.50619e-05,121,63.66,-15.5,1.0833e+07,1e+06,7.41704e-09,1.58068e-07,-9.33957e-08,0.000202092,0.035549,-1.64189e-05,0.0355689,2,4267
12,7.05568e-22,1,6462,9.52003,-5.41797e-06,1.40293e-05,-4.6743e-08,1.50393e-05,121,63.66,-15.5,1.0833e+07,1e+06,6.92791e-09,1.58835e-07,-9.34842e-08,0.000143224,0.0356929,-7.94616e-06,0.0357033,2,4268
12,7.05568e-22,1,6463,9.52003,-5.41131e-06,1.40023e-05,-4.69187e-08,1.50116e-05,121,63.66,-15.5,1.0833e+07,1e+06,6.35936e-09,1.60081e-07,-9.38338e-08,7.84402e-05,0.0359214,-9.22316e-06,0.0359285,2,4269
12,7.05568e-22,1,6464,9.52003,-5.40526e-06,1.39658e-05,-4.69937e-08,1.49754e-05,121,63.66,-15.5,1.0833e+07,1e+06,5.88271e-09,1.61185e-07,-9.39969e-08,5.16176e-05,0.0361402,2.93876e-05,0.0361153,2,4270
12,3.37356e-22,2,6465,62.06,-8.08593e-08,1.30162e-05,-5.45412e-08,1.30166e-05,5.1875,141.86,-77.97,500000,500000,-1.58635e-07,3.96729e-07,-1.10331e-07,0.00561132,0.048591,-0.000797299,0.0479139,3,2193
12,2.35913e-22,2,6466,161.73,-2.3641e-07,1.29934e-05,-7.91902e-08,1.29958e-05,12.625,119.12,126.69,500000,500000,-1.43433e-07,4.1488e-07,-1.56792e-07,0.00602857,0.0413377,0.000559597,0.039612,3,2194
12,1.63454e-22,2,6467,161.73,-3.67725e-07,1.30661e-05,-1.02403e-07,1.30716e-05,17.9375,119.12,126.69,500000,500000,-1.17483e-07,4.09473e-07,-2.03917e-07,0.00526274,0.0328708,-0.00131857,0.0316975,3,2195
12,1.48963e-22,2,6468,161.73,-4.71375e-07,1.31626e-05,-9.75818e-08,1.31714e-05,19,119.12,126.69,500000,500000,-9.89673e-08,3.75139e-07,-1.96321e-07,0.00537202,0.0288521,-0.000846265,0.0271493,3,2196
12,1.48963e-22,2,6469,161.73,-5.6566e-07,1.3246e-05,-9.02984e-08,1.32583e-05,19,119.12,126.69,500000,500000,-9.5497e-08,3.55342e-07,-1.80547e-07,0.00533136,0.027813,2.50487e-06,0.0256329,3,2197
12,1.48963e-22,2,6470,161.73,-6.62369e-07,1.33284e-05,-8.48824e-08,1.33451e-05,19,119.12,126.69,500000,500000,-9.88376e-08,3.4391e-07,-1.69828e-07,0.00459661,0.0267672,8.88558e-05,0.0247869,3,2198
12,1.48963e-22,2,6471,161.73,-7.63335e-07,1.34117e-05,-8.09727e-08,1.34337e-05,19,119.12,126.69,500000,500000,-1.0273e-07,3.36367e-07,-1.62005e-07,0.0038897,0.0259722,8.02839e-05,0.0242592,3,2199
12,1.48963e-22,2,6472,161.73,-8.67829e-07,1.34946e-05,-7.7898e-08,1.35227e-05,19,119.12,126.69,500000,500000,-1.05516e-07,3.29913e-07,-1.55802e-07,0.00331958,0.0253041,4.93687e-05,0.0238417,3,2200
12,1.48963e-22,2,6473,161.73,-9.74367e-07,1.35752e-05,-7.52264e-08,1.36103e-05,19,119.12,126.69,500000,500000,-1.06936e-07,3.23473e-07,-1.50479e-07,0.0028901,0.0246952,2.70527e-05,0.0234336,3,2201
12,1.48963e-22,2,6474,161.73,-1.0817e-06,1.36538e-05,-7.28844e-08,1.36968e-05,19,119.12,126.69,500000,500000,-1.07597e-07,3.17246e-07,-1.45864e-07,0.0025407,0.0241277,-5.8837e-06,0.0230447,3,2202
12,1.48963e-22,2,6475,161.73,-1.18956e-06,1.37313e-05,-7.07868e-08,1.37829e-05,19,119.12,126.69,500000,500000,-1.08508e-07,3.11917e-07,-1.41742e-07,0.00220244,0.0236217,-4.71311e-05,0.0227177,3,2203
12,1.48963e-22,2,6476,161.73,-1.29872e-06,1.38078e-05,-6.87827e-08,1.38689e-05,19,119.12,126.69,500000,500000,-1.08526e-07,3.07144e-07,-1.37909e-07,0.00203053,0.0233167,2.95319e-05,0.0225098,3,2204
12,1.75545e-22,2,6477,161.73,-1.40661e-06,1.38779e-05,-6.54277e-08,1.39492e-05,19.625,119.12,126.69,1.14581e+06,531250,-9.43993e-08,2.85944e-07,-1.29929e-07,0.00198157,0.0240535,-7.05252e-05,0.023926,3,2205
12,3.08455e-22,2,6478,161.73,-1.48752e-06,1.38907e-05,-5.49936e-08,1.39703e-05,22.75,119.12,126.69,4.37488e+06,687500,-5.43797e-08,2.28708e-07,-1.09005e-07,0.00159996,0.0288676,-0.000918902,0.0299429,3,2206
12,4.9453e-22,1,6479,153.51,-1.51537e-06,1.38239e-05,-4.07283e-08,1.39067e-05,27.125,-89.16,129.77,8.89556e+06,906250,-1.61861e-08,1.76023e-07,-8.2637e-08,0.00185207,0.0361766,-0.00037624,0.0366752,2,4271
12,5.74276e-22,1,6480,153.51,-1.51989e-06,1.37467e-05,-3.60563e-08,1.38305e-05,29,-89.16,129.77,1.0833e+07,1e+06,-8.45385e-09,1.6663e-07,-7.29197e-08,0.00153176,0.0400923,0.000637455,0.0397428,2,4272
12,5.74276e-22,1,6481,153.51,-1.53228e-06,1.37078e-05,-3.74418e-08,1.37932e-05,29,-89.16,129.77,1.0833e+07,1e+06,-1.46921e-08,1.67671e-07,-7.44949e-08,-0.000242518,0.0391503,-3.68455e-06,0.0395638,2,4273
12,5.7053e-22,1,6482,153.51,-1.54927e-06,1.37001e-05,-3.47799e-08,1.37875e-05,29.8125,-89.16,129.77,1.0833e+07,1e+06,-1.81283e-08,1.59266e-07,-6.93404e-08,-0.0010036,0.036972,-0.000378844,0.0378733,2,4274
12,5.63039e-22,1,6483,153.51,-1.56854e-06,1.37072e-05,-3.13211e-08,1.37967e-05,31.4375,-89.16,129.77,1.0833e+07,1e+06,-1.71962e-08,1.51527e-07,-6.21411e-08,-0.000102105,0.03599,-0.000103867,0.0365372,2,4275
12,5.51803e-22,1,6484,153.51,-1.58366e-06,1.37353e-05,-2.69579e-08,1.38263e-05,33.875,-89.16,129.77,1.0833e+07,1e+06,-1.14056e-08,1.40219e-07,-5.37876e-08,0.00196224,0.0350717,0.000156154,0.0350156,2,4276
12,5.33076e-22,1,6485,125.44,-1.59135e-06,1.37779e-05,-2.03116e-08,1.38695e-05,37.9375,67.45,-41.35,1.0833e+07,1e+06,-6.79648e-09,1.26881e-07,-4.12256e-08,0.00414269,0.0347258,0.000221788,0.0340968,2,4277
12,5.18094e-22,1,6486,125.44,-1.59726e-06,1.38147e-05,-1.58021e-08,1.39067e-05,41.1875,67.45,-41.35,1.0833e+07,1e+06,-7.46112e-09,1.17729e-07,-3.16939e-08,0.00483575,0.034029,8.39965e-05,0.0331117,2,4278
12,5.14349e-22,1,6487,125.44,-1.60627e-06,1.38436e-05,-1.34094e-08,1.39364e-05,42,67.45,-41.35,1.0833e+07,1e+06,-1.06886e-08,1.10004e-07,-2.66711e-08,0.00420834,0.0318466,-4.55587e-05,0.0309225,2,4279
12,5.14349e-22,1,6488,125.44,-1.61863e-06,1.38631e-05,-1.14554e-08,1.39573e-05,42,67.45,-41.35,1.0833e+07,1e+06,-1.36944e-08,1.02843e-07,-2.29092e-08,0.0034311,0.0294348,-3.10188e-05,0.0284943,2,4280
12,5.14349e-22,1,6489,125.44,-1.63366e-06,1.38763e-05,-9.95665e-09,1.39721e-05,42,67.45,-41.35,1.0833e+07,1e+06,-1.69673e-08,9.79792e-08,-1.98924e-08,0.00262711,0.0277008,-3.1179e-05,0.0269054,2,4281
12,5.14349e-22,1,6490,125.44,-1.65257e-06,1.38867e-05,-8.83181e-09,1.39847e-05,42,67.45,-41.35,1.0833e+07,1e+06,-2.19156e-08,9.79964e-08,-1.76669e-08,0.00168579,0.0273068,-3.70584e-05,0.0268507,2,4282
12,5.14349e-22,1,6491,125.44,-1.67749e-06,1.38959e-05,-7.93229e-09,1.39968e-05,42,67.45,-41.35,1.0833e+07,1e+06,-2.87926e-08,1.02801e-07,-1.58369e-08,0.000641873,0.0281988,-5.47259e-06,0.0281704,2,4283
12,5.14349e-22,1,6492,125.44,-1.71015e-06,1.39025e-05,-6.99222e-09,1.40072e-05,42,67.45,-41.35,1.0833e+07,1e+06,-3.72054e-08,1.09588e-07,-1.41345e-08,-0.000580496,0.029523,-6.93805e-05,0.0300639,2,4284
12,5.14349e-22,1,6493,125.44,-1.7519e-06,1.39033e-05,-5.99876e-09,1.40132e-05,42,67.45,-41.35,1.0833e+07,1e+06,-4.63957e-08,1.16932e-07,-1.16188e-08,-0.00179573,0.0309785,2.22764e-05,0.0320368,2,4285
12,5.14349e-22,1,6494,125.44,-1.80295e-06,1.38988e-05,-4.25262e-09,1.40152e-05,42,67.45,-41.35,1.0833e+07,1e+06,-5.49857e-08,1.2257e-07,-7.75388e-09,-0.00283595,0.032065,0.000428485,0.0334248,2,4286
12,5.27618e-22,1,6495,125.44,-1.86187e-06,1.38939e-05,-2.41581e-09,1.40181e-05,42.9375,67.45,-41.35,1.01872e+07,968750,-6.34125e-08,1.29566e-07,-6.2219e-09,-0.00377413,0.0321245,0.00105462,0.0340141,2,4287
12,5.93261e-22,1,6496,125.44,-1.92977e-06,1.38893e-05,-1.00605e-08,1.40227e-05,46.4375,67.45,-41.35,8.89556e+06,906250,-6.95741e-08,1.53055e-07,-2.06955e-08,-0.00361272,0.0330322,0.00043779,0.0357254,2,4288
12,7.10571e-22,1,6497,130.6,-2.00102e-06,1.38849e-05,-2.37964e-08,1.40284e-05,51.3125,117.2,-48.36,8.89556e+06,906250,-6.90197e-08,1.86772e-07,-4.6256e-08,-0.00184132,0.0364406,-0.000417911,0.0386393,2,4289
12,8.01341e-22,1,6498,130.6,-2.06781e-06,1.38951e-05,-2.97414e-08,1.40481e-05,54.3125,117.2,-48.36,1.01872e+07,968750,-6.5585e-08,2.07607e-07,-5.98207e-08,0.000235882,0.0398566,0.000357348,0.0399978,2,4290
12,8.27175e-22,1,6499,130.6,-2.13219e-06,1.39301e-05,-3.18907e-08,1.40924e-05,55,117.2,-48.36,1.0833e+07,1e+06,-6.34317e-08,2.13644e-07,-6.39896e-08,0.0014169,0.0407925,0.000531103,0.0398617,2,4291
12,8.27175e-22,1,6500,130.6,-2.19467e-06,1.39795e-05,-3.39085e-08,1.41508e-05,55,117.2,-48.36,1.0833e+07,1e+06,-6.00995e-08,2.15385e-07,-6.74879e-08,0.00242498,0.0411024,-6.5138e-06,0.0399818,2,4292
12,8.0058e-22,1,6501,130.6,-2.25239e-06,1.40265e-05,-3.43698e-08,1.42062e-05,54.9375,117.2,-48.36,1.01872e+07,968750,-5.50161e-08,2.13205e-07,-6.8544e-08,0.00329317,0.0408992,-0.000208293,0.0396144,2,4293
12,7.60855e-22,1,6502,130.6,-2.30471e-06,1.40554e-05,-3.13492e-08,1.42431e-05,61.375,117.2,-48.36,9.54138e+06,937500,-5.60906e-08,1.99585e-07,-6.32076e-08,0.00242799,0.0357338,0.000728271,0.0348808,2,4294
12,7.61191e-22,1,6503,91.26,-2.36457e-06,1.40581e-05,-3.31621e-08,1.42556e-05,74.4375,-49.63,-179.82,1.01872e+07,968750,-6.43145e-08,1.92006e-07,-6.65852e-08,0.00109953,0.0282754,0.000459841,0.028268,2,4295
12,7.74657e-22,1,6504,91.26,-2.43333e-06,1.40505e-05,-3.71517e-08,1.42597e-05,81,-49.63,-179.82,1.0833e+07,1e+06,-6.77605e-08,1.93692e-07,-7.38071e-08,0.000983622,0.0253464,-0.000492281,0.0255112,2,4296
12,7.74657e-22,1,6505,91.26,-2.50009e-06,1.40488e-05,-3.61761e-08,1.42695e-05,81,-49.63,-179.82,1.0833e+07,1e+06,-6.61563e-08,1.92468e-07,-7.24271e-08,0.00134119,0.0254645,-9.5248e-05,0.0251333,2,4297
12,7.74657e-22,1,6506,91.26,-2.56565e-06,1.40504e-05,-3.62574e-08,1.42828e-05,81,-49.63,-179.82,1.0833e+07,1e+06,-6.53266e-08,1.92568e-07,-7.25137e-08,0.00157704,0.0255879,-3.63649e-05,0.0250173,2,4298
12,7.74657e-22,1,6507,91.26,-2.63074e-06,1.40527e-05,-3.63989e-08,1.42968e-05,81,-49.63,-179.82,1.0833e+07,1e+06,-6.50322e-08,1.93208e-07,-7.27998e-08,0.00172702,0.025737,-1.44037e-05,0.0250007,2,4299
12,7.74657e-22,1,6508,91.26,-2.69571e-06,1.40545e-05,-3.6607e-08,1.43107e-05,81,-49.63,-179.82,1.0833e+07,1e+06,-6.50138e-08,1.94161e-07,-7.32184e-08,0.00183116,0.0259032,-1.06883e-05,0.0250666,2,4300
12,7.74657e-22,1,6509,91.26,-2.76077e-06,1.40553e-05,-3.68201e-08,1.43239e-05,81,-49.63,-179.82,1.0833e+07,1e+06,-6.51663e-08,1.95186e-07,-7.36392e-08,0.00189533,0.0260625,-1.02438e-05,0.0251777,2,4301
12,7.74657e-22,1,6510,91.26,-2.82604e-06,1.40548e-05,-3.70096e-08,1.43361e-05,81,-49.63,-179.82,1.0833e+07,1e+06,-6.54295e-08,1.96159e-07,-7.40165e-08,0.00192318,0.0262006,-1.14625e-05,0.0253058,2,4302
12,7.74657e-22,1,6511,91.26,-2.89163e-06,1.40529e-05,-3.7172e-08,1.43473e-05,81,-49.63,-179.82,1.0833e+07,1e+06,-6.58101e-08,1.9709e-07,-7.43415e-08,0.00191451,0.0263201,-1.04416e-05,0.0254387,2,4303
12,7.74657e-22,1,6512,91.26,-2.95766e-06,1.40498e-05,-3.73115e-08,1.43578e-05,81,-49.63,-179.82,1.0833e+07,1e+06,-6.6308e-08,1.97999e-07,-7.46212e-08,0.00187137,0.0264244,-6.49513e-06,0.0255691,2,4304
12,7.74657e-22,1,6513,91.26,-3.02425e-06,1.40457e-05,-3.74274e-08,1.43677e-05,81,-49.63,-179.82,1.0833e+07,1e+06,-6.68542e-08,1.98841e-07,-7.48536e-08,0.00180812,0.0265131,-2.11418e-07,0.0256849,2,4305
12,7.74657e-22,1,6514,91.26,-3.09137e-06,1.4041e-05,-3.75096e-08,1.43774e-05,81,-49.63,-179.82,1.0833e+07,1e+06,-6.73054e-08,1.99494e-07,-7.50183e-08,0.00175165,0.0265797,7.73597e-06,0.0257678,2,4306
12,7.74657e-22,1,6515,91.26,-3.15886e-06,1.40359e-05,-3.75391e-08,1.4387e-05,81,-49.63,-179.82,1.0833e+07,1e+06,-6.74571e-08,1.99765e-07,-7.5077e-08,0.00173905,0.0266131,1.72172e-05,0.0257927,2,4307
12,7.74657e-22,1,6516,91.26,-3.22629e-06,1.40301e-05,-3.74903e-08,1.43963e-05,81,-49.63,-179.82,1.0833e+07,1e+06,-6.70634e-08,1.99417e-07,-7.49802e-08,0.00181385,0.0265984,2.77017e-05,0.0257302,2,4308
12,7.74657e-22,1,6517,91.26,-3.29298e-06,1.40235e-05,-3.73381e-08,1.4405e-05,81,-49.63,-179.82,1.0833e+07,1e+06,-6.58512e-08,1.98197e-07,-7.46766e-08,0.00202588,0.0265212,3.92624e-05,0.0255492,2,4309
12,7.74657e-22,1,6518,91.26,-3.35799e-06,1.40153e-05,-3.70613e-08,1.4412e-05,81,-49.63,-179.82,1.0833e+07,1e+06,-6.35763e-08,1.95865e-07,-7.41284e-08,0.0024174,0.0263648,4.75287e-05,0.0252225,2,4310
12,7.74657e-22,1,6519,91.26,-3.42014e-06,1.40042e-05,-3.66538e-08,1.44158e-05,81,-49.63,-179.82,1.0833e+07,1e+06,-6.00712e-08,1.92296e-07,-7.33142e-08,0.00302297,0.0261262,5.28533e-05,0.0247386,2,4311
12,7.74657e-22,1,6520,91.26,-3.47813e-06,1.39885e-05,-3.60757e-08,1.44145e-05,81,-49.63,-179.82,1.0833e+07,1e+06,-5.54319e-08,1.87396e-07,-7.21615e-08,0.00380554,0.0257805,5.78831e-05,0.0240991,2,4312
12,7.74657e-22,1,6521,91.26,-3.531e-06,1.39661e-05,-3.53113e-08,1.44056e-05,81,-49.63,-179.82,1.0833e+07,1e+06,-4.95945e-08,1.80972e-07,-7.08359e-08,0.00477365,0.0252676,-3.08859e-05,0.0233238,2,4313
12,6.41583e-22,1,6522,91.26,-3.57732e-06,1.39349e-05,-3.15287e-08,1.43867e-05,84.25,-49.63,-179.82,1.0833e+07,1e+06,-3.76074e-08,1.67538e-07,-6.29083e-08,0.00562037,0.0283057,-0.000703308,0.026657,2,4314
12,3.75435e-22,1,6523,118.57,-3.60622e-06,1.38757e-05,-2.4183e-08,1.43367e-05,90.75,73.1,-29.9,1.0833e+07,1e+06,-2.22053e-08,1.55581e-07,-4.8159e-08,0.00669588,0.0357406,-0.000194618,0.0332958,2,4315
12,2.42361e-22,1,6524,118.57,-3.62173e-06,1.37995e-05,-2.1223e-08,1.42669e-05,94,73.1,-29.9,1.0833e+07,1e+06,-1.61373e-08,1.56144e-07,-4.2582e-08,0.00729202,0.0405268,0.000474279,0.0372347,2,4316
12,2.42361e-22,1,6525,118.57,-3.63849e-06,1.37317e-05,-2.27805e-08,1.42056e-05,94,73.1,-29.9,1.0833e+07,1e+06,-1.84357e-08,1.64242e-07,-4.56361e-08,0.0070628,0.0425708,2.03102e-05,0.0396912,2,4317
12,2.42361e-22,1,6526,118.57,-3.6586e-06,1.36643e-05,-2.421e-08,1.41456e-05,94,73.1,-29.9,1.0833e+07,1e+06,-2.39318e-08,1.79217e-07,-4.8089e-08,0.00705857,0.0461032,-2.47844e-05,0.0432243,2,4318
12,2.49465e-22,1,6527,118.57,-3.68635e-06,1.35778e-05,-2.635e-08,1.40693e-05,93.5625,73.1,-29.9,1.01872e+07,968750,-3.5426e-08,2.03504e-07,-5.25749e-08,0.00688727,0.0495728,0.00010816,0.0466468,2,4319
12,2.77885e-22,1,6528,118.57,-3.72946e-06,1.34577e-05,-3.18995e-08,1.39649e-05,91.8125,73.1,-29.9,7.60394e+06,843750,-5.62739e-08,2.36991e-07,-6.47772e-08,0.00564034,0.0480696,0.000704384,0.0454522,2,4320
12,3.1341e-22,2,6529,26.35,-3.7989e-06,1.33289e-05,-4.22262e-08,1.38598e-05,89.625,19.24,-38.99,4.37488e+06,687500,-7.97665e-08,2.70736e-07,-8.48889e-08,0.00333024,0.0425118,0.000895665,0.0409817,3,2207
12,3.34725e-22,2,6530,26.35,-3.88899e-06,1.32328e-05,-5.23911e-08,1.37926e-05,88.3125,19.24,-38.99,2.43744e+06,593750,-9.46283e-08,2.95377e-07,-1.0404e-07,0.00123346,0.039746,0.000210486,0.0397009,3,2208
12,3.48935e-22,2,6531,26.35,-3.98816e-06,1.31859e-05,-6.00578e-08,1.37759e-05,87.4375,19.24,-38.99,1.14581e+06,531250,-1.00427e-07,3.08735e-07,-1.19e-07,6.40434e-05,0.0380352,-0.000397141,0.0389818,3,2209
12,3.5604e-22,2,6532,26.35,-4.08984e-06,1.3163e-05,-6.1648e-08,1.37839e-05,87,19.24,-38.99,500000,500000,-1.00151e-07,3.06611e-07,-1.23448e-07,-0.000319691,0.0355379,-0.000518688,0.0367379,3,2210
12,3.5604e-22,2,6533,26.35,-4.18846e-06,1.31429e-05,-5.81755e-08,1.37942e-05,87,19.24,-38.99,500000,500000,-9.83947e-08,2.95654e-07,-1.17012e-07,-0.000351317,0.0341685,-0.000273792,0.0352141,3,2211
12,3.5604e-22,2,6534,26.35,-4.28663e-06,1.31268e-05,-5.51774e-08,1.38091e-05,87,19.24,-38.99,500000,500000,-9.89118e-08,2.86941e-07,-1.10296e-07,-0.00051782,0.0330808,-7.02368e-05,0.0340693,3,2212
12,3.5604e-22,2,6535,26.35,-4.38628e-06,1.31145e-05,-5.26861e-08,1.38287e-05,87,19.24,-38.99,500000,500000,-1.0102e-07,2.81659e-07,-1.05535e-07,-0.000911566,0.0323395,-3.43933e-05,0.0335169,3,2213
12,3.5604e-22,2,6536,26.35,-4.48867e-06,1.31098e-05,-5.09815e-08,1.38571e-05,87,19.24,-38.99,500000,500000,-1.04317e-07,2.79124e-07,-1.01582e-07,-0.00145846,0.0319856,8.08818e-05,0.0334944,3,2214
12,3.5604e-22,2,6537,26.35,-4.59492e-06,1.31193e-05,-4.95982e-08,1.39007e-05,87,19.24,-38.99,500000,500000,-1.08801e-07,2.81618e-07,-9.96568e-08,-0.00211835,0.032487,0.000212371,0.0345208,3,2215
12,3.80076e-22,2,6538,26.35,-4.70627e-06,1.31468e-05,-4.97172e-08,1.39639e-05,88.625,19.24,-38.99,1.14581e+06,531250,-1.07546e-07,2.84652e-07,-1.0016e-07,-0.00217137,0.0351959,-0.000520278,0.0379804,3,2216
12,5.00258e-22,2,6539,26.35,-4.81001e-06,1.31688e-05,-4.85298e-08,1.40198e-05,96.75,19.24,-38.99,4.37488e+06,687500,-8.6076e-08,2.79979e-07,-9.58779e-08,0.000325039,0.0454979,-0.00138357,0.0479176,3,2217
12,6.68512e-22,1,6540,137.15,-4.87842e-06,1.3216e-05,-3.98053e-08,1.40877e-05,108.125,109.19,-42.07,8.89556e+06,906250,-5.32275e-08,2.45961e-07,-7.93177e-08,0.00308157,0.052225,-0.000470808,0.0525498,2,4321
12,7.40621e-22,1,6541,137.15,-4.91647e-06,1.32877e-05,-3.18189e-08,1.41681e-05,113,109.19,-42.07,1.0833e+07,1e+06,-3.46479e-08,2.05182e-07,-6.42621e-08,0.00385775,0.0485704,0.000250559,0.0478069,2,4322
12,7.40621e-22,1,6542,137.15,-4.94772e-06,1.33331e-05,-2.84576e-08,1.42215e-05,113,109.19,-42.07,1.0833e+07,1e+06,-2.98047e-08,1.84202e-07,-5.6944e-08,0.00390962,0.0443076,9.00807e-05,0.0438492,2,4323
12,7.40621e-22,1,6543,137.15,-4.97607e-06,1.33622e-05,-2.54171e-08,1.42587e-05,113,109.19,-42.07,1.0833e+07,1e+06,-2.70677e-08,1.65948e-07,-5.07341e-08,0.00348925,0.0400624,0.000142026,0.0397295,2,4324
12,7.40621e-22,1,6544,137.15,-5.00186e-06,1.33887e-05,-2.43175e-08,1.42925e-05,113,109.19,-42.07,1.0833e+07,1e+06,-2.54927e-08,1.54514e-07,-4.85081e-08,0.00305885,0.0368583,-6.80382e-06,0.0364742,2,4325
12,7.40621e-22,1,6545,137.15,-5.02706e-06,1.3423e-05,-2.43262e-08,1.43335e-05,113,109.19,-42.07,1.0833e+07,1e+06,-2.57339e-08,1.51651e-07,-4.87608e-08,0.00270989,0.035574,-3.76417e-05,0.0350025,2,4326
12,7.40621e-22,1,6546,137.15,-5.05332e-06,1.34657e-05,-2.45534e-08,1.43827e-05,113,109.19,-42.07,1.0833e+07,1e+06,-2.67347e-08,1.51545e-07,-4.91558e-08,0.00238596,0.0350886,2.70114e-05,0.0343958,2,4327
12,7.40621e-22,1,6547,137.15,-5.08053e-06,1.35132e-05,-2.47274e-08,1.44367e-05,113,109.19,-42.07,1.0833e+07,1e+06,-2.74029e-08,1.50859e-07,-4.94397e-08,0.00211587,0.0345425,3.10699e-05,0.0338233,2,4328
12,7.40621e-22,1,6548,137.15,-5.10813e-06,1.35648e-05,-2.50594e-08,1.44947e-05,113,109.19,-42.07,1.0833e+07,1e+06,-2.78693e-08,1.50577e-07,-5.01189e-08,0.00191278,0.034068,1.48425e-06,0.0333366,2,4329
12,7.40621e-22,1,6549,137.15,-5.13627e-06,1.36223e-05,-2.56824e-08,1.45585e-05,113,109.19,-42.07,1.0833e+07,1e+06,-2.86916e-08,1.51916e-07,-5.13656e-08,0.00170931,0.0339263,-1.55026e-05,0.0332015,2,4330
12,7.40621e-22,1,6550,137.15,-5.16551e-06,1.36869e-05,-2.65456e-08,1.46292e-05,113,109.19,-42.07,1.0833e+07,1e+06,-3.00683e-08,1.55184e-07,-5.30878e-08,0.00148181,0.0342423,-2.00904e-05,0.0335682,2,4331
12,7.40621e-22,1,6551,137.15,-5.1964e-06,1.37576e-05,-2.75168e-08,1.47063e-05,113,109.19,-42.07,1.0833e+07,1e+06,-3.18994e-08,1.60071e-07,-5.50408e-08,0.00124663,0.0350309,-2.70002e-05,0.0344475,2,4332
12,7.40621e-22,1,6552,137.15,-5.22931e-06,1.38312e-05,-2.87361e-08,1.47868e-05,113,109.19,-42.07,1.0833e+07,1e+06,-3.39415e-08,1.66866e-07,-5.7557e-08,0.00104203,0.0364437,-0.00012655,0.0360092,2,4333
12,6.49024e-22,1,6553,137.15,-5.26429e-06,1.39039e-05,-3.22817e-08,1.48671e-05,112.75,109.19,-42.07,8.24975e+06,875000,-3.47017e-08,1.79009e-07,-6.48028e-08,0.00103574,0.0364519,0.000309081,0.035874,2,4334
12,4.65831e-22,2,6554,97.33,-5.29871e-06,1.39903e-05,-4.38814e-08,1.49602e-05,112.25,-57.95,-141.14,3.08325e+06,625000,-3.19626e-08,1.97584e-07,-8.74101e-08,0.000614613,0.0334668,0.000189863,0.033206,3,2218
12,3.74234e-22,2,6555,97.33,-5.32821e-06,1.41007e-05,-5.29031e-08,1.50739e-05,112,-57.95,-141.14,500000,500000,-2.7208e-08,2.06741e-07,-1.05613e-07,0.000310983,0.031017,-0.000429201,0.0311629,3,2219
12,3.94942e-22,2,6556,97.33,-5.35313e-06,1.42219e-05,-5.12445e-08,1.51961e-05,112.562,-57.95,-141.14,1.14581e+06,531250,-2.3816e-08,2.05152e-07,-1.02362e-07,0.000882967,0.0322208,0.000246654,0.0318442,3,2220
12,4.77776e-22,2,6557,97.33,-5.37585e-06,1.43118e-05,-4.48618e-08,1.52882e-05,114.812,-57.95,-141.14,3.72906e+06,656250,-1.87083e-08,1.86125e-07,-8.96201e-08,0.000553744,0.0328531,0.000573493,0.0326881,3,2221
12,6.02026e-22,1,6558,9.52003,-5.39055e-06,1.43268e-05,-4.00737e-08,1.53075e-05,118.188,63.66,-15.5,7.60394e+06,843750,-1.00964e-08,1.5734e-07,-8.07496e-08,-0.000829076,0.0318285,-6.41753e-05,0.0326207,2,4335
12,6.84859e-22,1,6559,9.52003,-5.39604e-06,1.42887e-05,-4.19547e-08,1.52737e-05,120.438,63.66,-15.5,1.01872e+07,968750,-3.49504e-09,1.53536e-07,-8.40367e-08,-0.00151304,0.0339043,-5.27283e-05,0.0348466,2,4336
12,7.05568e-22,1,6560,9.52003,-5.39754e-06,1.42509e-05,-4.48441e-08,1.52389e-05,121,63.66,-15.5,1.0833e+07,1e+06,1.86047e-10,1.59083e-07,-8.95123e-08,-0.00130149,0.0358251,5.47001e-05,0.0365603,2,4337
12,7.05568e-22,1,6561,9.52003,-5.39567e-06,1.42285e-05,-4.57613e-08,1.52173e-05,121,63.66,-15.5,1.0833e+07,1e+06,2.9775e-09,1.58476e-07,-9.14546e-08,-0.000817452,0.0356225,-0.000106964,0.0362041,2,4338
12,7.05568e-22,1,6562,9.52003,-5.39158e-06,1.42094e-05,-4.61975e-08,1.5198e-05,121,63.66,-15.5,1.0833e+07,1e+06,4.57733e-09,1.58999e-07,-9.23754e-08,-0.00042149,0.0357536,-3.78387e-05,0.0360857,2,4339
12,7.05568e-22,1,6563,9.52003,-5.38651e-06,1.41889e-05,-4.66979e-08,1.5177e-05,121,63.66,-15.5,1.0833e+07,1e+06,5.32666e-09,1.6019e-07,-9.33896e-08,-0.000217559,0.0359936,-2.28599e-05,0.0361875,2,4340
12,7.05568e-22,1,6564,9.52003,-5.38093e-06,1.41634e-05,-4.73107e-08,1.51512e-05,121,63.66,-15.5,1.0833e+07,1e+06,5.62117e-09,1.62063e-07,-9.46178e-08,-0.000106992,0.0363563,-3.07251e-05,0.0364657,2,4341
12,7.05568e-22,1,6565,9.52003,-5.37527e-06,1.41286e-05,-4.78636e-08,1.51166e-05,121,63.66,-15.5,1.0833e+07,1e+06,5.61825e-09,1.6452e-07,-9.57199e-08,-2.9376e-05,0.0368894,2.91438e-05,0.0369051,2,4342
12,3.22864e-22,2,6566,62.06,-6.00482e-08,1.34176e-05,-5.97675e-08,1.34179e-05,6.25,141.86,-77.97,500000,500000,-1.26486e-07,3.87254e-07,-1.20783e-07,0.00991744,0.0487171,-0.000120536,0.0457349,3,2222
12,2.0693e-22,2,6567,161.73,-1.92923e-07,1.34259e-05,-8.81301e-08,1.34276e-05,14.75,119.12,126.69,500000,500000,-1.31767e-07,4.28335e-07,-1.74948e-07,0.00833775,0.0411858,0.00131391,0.0376845,3,2223
12,1.48963e-22,2,6568,161.73,-3.23581e-07,1.34868e-05,-1.07214e-07,1.34911e-05,19,119.12,126.69,500000,500000,-1.19888e-07,4.17731e-07,-2.13191e-07,0.00507848,0.0316212,-0.00131496,0.0303854,3,2224
12,1.48963e-22,2,6569,161.73,-4.32699e-07,1.35415e-05,-9.69881e-08,1.35487e-05,19,119.12,126.69,500000,500000,-1.0623e-07,3.80999e-07,-1.94999e-07,0.00498503,0.0290153,-0.000656287,0.0273623,3,2225
12,1.48963e-22,2,6570,161.73,-5.3604e-07,1.36042e-05,-9.00005e-08,1.3615e-05,19,119.12,126.69,500000,500000,-1.04546e-07,3.62969e-07,-1.80123e-07,0.00483551,0.0279185,-2.44216e-05,0.0259293,3,2226
12,1.48963e-22,2,6571,161.73,-6.41791e-07,1.36753e-05,-8.53094e-08,1.36906e-05,19,119.12,126.69,500000,500000,-1.06792e-07,3.52585e-07,-1.70773e-07,0.00424777,0.0270346,7.59016e-05,0.0251705,3,2227
12,1.48963e-22,2,6572,161.73,-7.49624e-07,1.37507e-05,-8.1792e-08,1.37714e-05,19,119.12,126.69,500000,500000,-1.0794e-07,3.43294e-07,-1.63653e-07,0.00370323,0.0262256,4.23107e-05,0.0245758,3,2228
12,1.48963e-22,2,6573,161.73,-8.57671e-07,1.38265e-05,-7.8673e-08,1.38533e-05,19,119.12,126.69,500000,500000,-1.08484e-07,3.33818e-07,-1.57329e-07,0.00315828,0.0253416,-7.3715e-05,0.0239842,3,2229
12,1.48963e-22,2,6574,161.73,-9.66591e-07,1.39005e-05,-7.58466e-08,1.39342e-05,19,119.12,126.69,500000,500000,-1.09669e-07,3.26977e-07,-1.51748e-07,0.00274848,0.024727,-7.11123e-05,0.0235475,3,2230
12,1.48963e-22,2,6575,161.73,-1.07701e-06,1.39726e-05,-7.30941e-08,1.40142e-05,19,119.12,126.69,500000,500000,-1.10543e-07,3.20467e-07,-1.46341e-07,0.0024067,0.0241978,-2.71422e-05,0.02315,3,2231
12,1.48963e-22,2,6576,161.73,-1.18768e-06,1.40438e-05,-6.97435e-08,1.40941e-05,19,119.12,126.69,500000,500000,-1.09838e-07,3.10317e-07,-1.3976e-07,0.00202737,0.023373,-1.95232e-05,0.0225378,3,2232
12,1.75545e-22,2,6577,161.73,-1.29668e-06,1.41133e-05,-6.52046e-08,1.41729e-05,19.625,119.12,126.69,1.14581e+06,531250,-9.7183e-08,2.86722e-07,-1.29619e-07,0.00175316,0.023596,-0.000108869,0.0232972,3,2233
12,2.81873e-22,2,6578,161.73,-1.38204e-06,1.41469e-05,-5.51471e-08,1.42143e-05,22.125,119.12,126.69,3.72906e+06,656250,-6.17096e-08,2.31411e-07,-1.09491e-07,0.00134535,0.0257986,-0.000744835,0.0266557,3,2234
12,4.41365e-22,1,6579,153.51,-1.4201e-06,1.40947e-05,-4.15652e-08,1.41661e-05,25.875,-89.16,129.77,7.60394e+06,843750,-2.47442e-08,1.74959e-07,-8.41799e-08,0.00114969,0.0305868,-0.000749538,0.0317004,2,4343
12,5.47694e-22,1,6580,153.51,-1.43153e-06,1.399e-05,-3.49694e-08,1.40631e-05,28.375,-89.16,129.77,1.01872e+07,968750,-1.20207e-08,1.58488e-07,-7.03039e-08,0.000821905,0.0362367,0.00023585,0.0366258,2,4344
12,5.74276e-22,1,6581,153.51,-1.44414e-06,1.39105e-05,-3.52844e-08,1.39853e-05,29,-89.16,129.77,1.0833e+07,1e+06,-1.47143e-08,1.62626e-07,-7.01117e-08,-0.000249798,0.0384135,0.000401764,0.0387821,2,4345
12,5.74276e-22,1,6582,153.51,-1.46096e-06,1.38726e-05,-3.5802e-08,1.39494e-05,29,-89.16,129.77,1.0833e+07,1e+06,-1.80092e-08,1.62939e-07,-7.19621e-08,-0.00128163,0.0374979,-4.65504e-05,0.0383018,2,4346
12,5.74276e-22,1,6583,153.51,-1.48016e-06,1.38596e-05,-3.53097e-08,1.39385e-05,29,-89.16,129.77,1.0833e+07,1e+06,-1.99533e-08,1.58932e-07,-7.07838e-08,-0.00193158,0.0359797,-0.000244159,0.0371313,2,4347
12,5.74276e-22,1,6584,153.51,-1.50087e-06,1.38632e-05,-3.48388e-08,1.39443e-05,29,-89.16,129.77,1.0833e+07,1e+06,-2.15911e-08,1.55631e-07,-6.92501e-08,-0.00240937,0.0348354,-0.000309724,0.0362881,2,4348
12,5.7053e-22,1,6585,153.51,-1.52334e-06,1.38815e-05,-3.20644e-08,1.39649e-05,29.8125,-89.16,129.77,1.0833e+07,1e+06,-2.21529e-08,1.47577e-07,-6.35632e-08,-0.0023858,0.0333763,-0.000326336,0.0350714,2,4349
12,5.55548e-22,1,6586,153.51,-1.54517e-06,1.39086e-05,-2.50041e-08,1.39942e-05,33.0625,-89.16,129.77,1.0833e+07,1e+06,-1.98092e-08,1.34823e-07,-5.01163e-08,-0.000685588,0.0328447,1.03184e-05,0.0340667,2,4350
12,5.33076e-22,1,6587,125.44,-1.56296e-06,1.39355e-05,-1.76003e-08,1.40229e-05,37.9375,67.45,-41.35,1.0833e+07,1e+06,-1.70992e-08,1.24796e-07,-3.58092e-08,0.0017422,0.0336177,0.000274491,0.0339002,2,4351
12,5.18094e-22,1,6588,125.44,-1.57937e-06,1.39564e-05,-1.33634e-08,1.40455e-05,41.1875,67.45,-41.35,1.0833e+07,1e+06,-1.77144e-08,1.16326e-07,-2.67976e-08,0.00264205,0.0328681,8.79194e-05,0.0326829,2,4352
12,5.14349e-22,1,6589,125.44,-1.59839e-06,1.39683e-05,-1.09756e-08,1.40595e-05,42,67.45,-41.35,1.0833e+07,1e+06,-2.01371e-08,1.07687e-07,-2.18146e-08,0.00216382,0.030437,-1.58855e-05,0.030205,2,4353
12,5.14349e-22,1,6590,125.44,-1.61965e-06,1.39755e-05,-9.30945e-09,1.40691e-05,42,67.45,-41.35,1.0833e+07,1e+06,-2.23252e-08,1.00075e-07,-1.85381e-08,0.00136067,0.0279944,-4.10255e-06,0.0279674,2,4354
12,5.14349e-22,1,6591,125.44,-1.64304e-06,1.39851e-05,-8.29637e-09,1.40813e-05,42,67.45,-41.35,1.0833e+07,1e+06,-2.59042e-08,9.83691e-08,-1.66344e-08,0.000484618,0.0272169,-2.65882e-05,0.0276155,2,4355
12,5.14349e-22,1,6592,125.44,-1.67145e-06,1.3999e-05,-7.5494e-09,1.40984e-05,42,67.45,-41.35,1.0833e+07,1e+06,-3.25648e-08,1.03269e-07,-1.51951e-08,-0.000590539,0.0281568,-5.07972e-05,0.0290947,2,4356
12,5.14349e-22,1,6593,125.44,-1.70817e-06,1.4013e-05,-6.7492e-09,1.41168e-05,42,67.45,-41.35,1.0833e+07,1e+06,-4.15605e-08,1.11945e-07,-1.30547e-08,-0.00170977,0.0300449,8.29655e-05,0.0313932,2,4357
12,5.14349e-22,1,6594,125.44,-1.75458e-06,1.40217e-05,-4.8733e-09,1.4131e-05,42,67.45,-41.35,1.0833e+07,1e+06,-5.07976e-08,1.19642e-07,-9.22861e-09,-0.00268423,0.0316822,0.000553388,0.0331636,2,4358
12,5.339e-22,1,6595,125.44,-1.80977e-06,1.40217e-05,-3.88863e-09,1.4138e-05,42.8125,67.45,-41.35,1.0833e+07,1e+06,-5.7332e-08,1.25792e-07,-9.08516e-09,-0.00351746,0.0323675,0.000581885,0.0342733,2,4359
12,6.12107e-22,1,6596,125.44,-1.86924e-06,1.40216e-05,-1.01102e-08,1.41456e-05,46.0625,67.45,-41.35,1.0833e+07,1e+06,-5.81219e-08,1.38887e-07,-2.05909e-08,-0.00317815,0.0330308,-2.4505e-05,0.0352456,2,4360
12,7.29417e-22,1,6597,130.6,-1.92601e-06,1.4037e-05,-1.9954e-08,1.41685e-05,50.9375,117.2,-48.36,1.0833e+07,1e+06,-5.61452e-08,1.60963e-07,-3.86279e-08,-0.00141464,0.0343909,-0.000166313,0.0357514,2,4361
12,8.07623e-22,1,6598,130.6,-1.98153e-06,1.40656e-05,-2.56771e-08,1.42045e-05,54.1875,117.2,-48.36,1.0833e+07,1e+06,-5.77235e-08,1.83797e-07,-5.17e-08,7.8714e-05,0.0365373,0.000250948,0.0366855,2,4362
12,8.27175e-22,1,6599,130.6,-2.04146e-06,1.40981e-05,-2.88267e-08,1.42452e-05,55,117.2,-48.36,1.0833e+07,1e+06,-6.05011e-08,1.99313e-07,-5.79625e-08,0.000854895,0.0387109,0.000510946,0.0382195,2,4363
12,8.27175e-22,1,6600,130.6,-2.10253e-06,1.41409e-05,-3.13823e-08,1.42964e-05,55,117.2,-48.36,1.0833e+07,1e+06,-5.96378e-08,2.06601e-07,-6.2476e-08,0.00177297,0.0398502,0.000257001,0.0390081,2,4364
12,8.0058e-22,1,6601,130.6,-2.16073e-06,1.41961e-05,-3.40693e-08,1.43596e-05,54.9375,117.2,-48.36,1.01872e+07,968750,-5.69586e-08,2.16429e-07,-6.79317e-08,0.00311934,0.0415781,0.000167613,0.0402129,2,4365
12,6.94199e-22,1,6602,130.6,-2.21645e-06,1.42417e-05,-3.5917e-08,1.44132e-05,54.6875,117.2,-48.36,7.60394e+06,843750,-5.45298e-08,2.17423e-07,-7.1916e-08,0.00268893,0.040336,-3.14091e-05,0.0395979,2,4366
12,6.04566e-22,2,6603,99.23,-2.26979e-06,1.42558e-05,-3.45595e-08,1.44354e-05,59.375,131.95,-38.71,5.6665e+06,750000,-5.82054e-08,2.04304e-07,-6.95746e-08,0.000398152,0.0342061,0.000249262,0.0348415,3,2235
12,6.61375e-22,1,6604,91.26,-2.33286e-06,1.42515e-05,-3.45093e-08,1.44413e-05,70.9375,-49.63,-179.82,7.60394e+06,843750,-6.89223e-08,1.9608e-07,-6.89136e-08,-0.00110752,0.0280993,0.000134926,0.0294335,2,4367
12,7.51344e-22,1,6605,91.26,-2.40764e-06,1.42468e-05,-3.64036e-08,1.44488e-05,79.3125,-49.63,-179.82,1.01872e+07,968750,-7.453e-08,1.96431e-07,-7.26195e-08,-0.000903028,0.0255012,-0.000428534,0.0265429,2,4368
12,7.74657e-22,1,6606,91.26,-2.48192e-06,1.42447e-05,-3.68462e-08,1.44594e-05,81,-49.63,-179.82,1.0833e+07,1e+06,-7.29875e-08,1.98448e-07,-7.37312e-08,5.31534e-05,0.0257476,-0.000158813,0.0259683,2,4369
12,7.74657e-22,1,6607,91.26,-2.55361e-06,1.42463e-05,-3.70049e-08,1.44734e-05,81,-49.63,-179.82,1.0833e+07,1e+06,-7.07076e-08,1.98425e-07,-7.39795e-08,0.000686391,0.0260126,-6.13946e-05,0.0258148,2,4370
12,7.74657e-22,1,6608,91.26,-2.62333e-06,1.42487e-05,-3.71702e-08,1.44883e-05,81,-49.63,-179.82,1.0833e+07,1e+06,-6.91718e-08,1.98708e-07,-7.43651e-08,0.00114324,0.0262327,-2.77396e-05,0.0257432,2,4371
12,7.74657e-22,1,6609,91.26,-2.69196e-06,1.42511e-05,-3.73215e-08,1.45032e-05,81,-49.63,-179.82,1.0833e+07,1e+06,-6.81573e-08,1.98881e-07,-7.46399e-08,0.00144392,0.0263727,-1.61061e-05,0.0257039,2,4372
12,7.74657e-22,1,6610,91.26,-2.75965e-06,1.42524e-05,-3.73939e-08,1.45172e-05,81,-49.63,-179.82,1.0833e+07,1e+06,-6.72742e-08,1.98725e-07,-7.47829e-08,0.00167266,0.0264375,-1.97745e-05,0.0256565,2,4373
12,7.74657e-22,1,6611,91.26,-2.8265e-06,1.42523e-05,-3.74145e-08,1.45299e-05,81,-49.63,-179.82,1.0833e+07,1e+06,-6.65724e-08,1.98469e-07,-7.48252e-08,0.00184181,0.0264682,-1.96851e-05,0.0256157,2,4374
12,7.74657e-22,1,6612,91.26,-2.89279e-06,1.42507e-05,-3.74133e-08,1.45414e-05,81,-49.63,-179.82,1.0833e+07,1e+06,-6.6164e-08,1.98301e-07,-7.48244e-08,0.00193959,0.0264852,-1.48604e-05,0.0255952,2,4375
12,7.74657e-22,1,6613,91.26,-2.95883e-06,1.4248e-05,-3.74064e-08,1.4552e-05,81,-49.63,-179.82,1.0833e+07,1e+06,-6.60194e-08,1.98261e-07,-7.48117e-08,0.0019777,0.0264973,-7.20157e-06,0.0255927,2,4376
12,7.74657e-22,1,6614,91.26,-3.02483e-06,1.42443e-05,-3.73954e-08,1.4562e-05,81,-49.63,-179.82,1.0833e+07,1e+06,-6.59992e-08,1.98274e-07,-7.47899e-08,0.00198697,0.026506,2.19101e-06,0.0255941,2,4377
12,7.74657e-22,1,6615,91.26,-3.09083e-06,1.42398e-05,-3.7372e-08,1.45714e-05,81,-49.63,-179.82,1.0833e+07,1e+06,-6.59008e-08,1.98199e-07,-7.4743e-08,0.00200886,0.0265082,1.29449e-05,0.0255785,2,4378
12,7.74657e-22,1,6616,91.26,-3.15663e-06,1.42345e-05,-3.73234e-08,1.45803e-05,81,-49.63,-179.82,1.0833e+07,1e+06,-6.54888e-08,1.97856e-07,-7.46468e-08,0.00209,0.0264974,2.43596e-05,0.0255218,2,4379
12,7.74657e-22,1,6617,91.26,-3.22181e-06,1.42281e-05,-3.72383e-08,1.45883e-05,81,-49.63,-179.82,1.0833e+07,1e+06,-6.45086e-08,1.97062e-07,-7.44768e-08,0.0022822,0.0264693,3.67095e-05,0.0254004,2,4380
12,7.74657e-22,1,6618,91.26,-3.28565e-06,1.422e-05,-3.71072e-08,1.45947e-05,81,-49.63,-179.82,1.0833e+07,1e+06,-6.27295e-08,1.9564e-07,-7.42202e-08,0.00263035,0.0264162,4.59151e-05,0.025196,2,4381
12,7.74657e-22,1,6619,91.26,-3.34727e-06,1.42094e-05,-3.69336e-08,1.45984e-05,81,-49.63,-179.82,1.0833e+07,1e+06,-5.99377e-08,1.93505e-07,-7.38672e-08,0.00318671,0.0263488,5.77466e-05,0.0249034,2,4382
12,7.74657e-22,1,6620,91.26,-3.40553e-06,1.41951e-05,-3.67086e-08,1.45979e-05,81,-49.63,-179.82,1.0833e+07,1e+06,-5.60622e-08,1.90555e-07,-7.34799e-08,0.00395237,0.0262443,4.71569e-05,0.0245393,2,4383
12,7.74657e-22,1,6621,91.26,-3.45939e-06,1.41751e-05,-3.64121e-08,1.45912e-05,81,-49.63,-179.82,1.0833e+07,1e+06,-5.07785e-08,1.86847e-07,-7.2949e-08,0.00504136,0.0261739,7.28503e-05,0.024125,2,4384
12,7.47894e-22,1,6622,91.26,-3.50708e-06,1.41473e-05,-3.58961e-08,1.45756e-05,80.5625,-49.63,-179.82,1.01872e+07,968750,-4.23233e-08,1.78881e-07,-7.16116e-08,0.00612359,0.0258392,-8.86997e-05,0.0237349,2,4385
12,5.88058e-22,1,6623,91.26,-3.54404e-06,1.41e-05,-3.0244e-08,1.45386e-05,83.375,-49.63,-179.82,9.54138e+06,937500,-3.03e-08,1.58469e-07,-6.03816e-08,0.00606778,0.0275077,-0.000609597,0.0259389,2,4386
12,3.48672e-22,1,6624,118.57,-3.56768e-06,1.40273e-05,-2.21273e-08,1.44739e-05,90.3125,73.1,-29.9,1.01872e+07,968750,-2.10972e-08,1.47297e-07,-4.43823e-08,0.00613876,0.0341653,-6.3663e-05,0.0319328,2,4387
12,2.42361e-22,1,6625,118.57,-3.58623e-06,1.39541e-05,-2.02945e-08,1.44076e-05,94,73.1,-29.9,1.0833e+07,1e+06,-1.9489e-08,1.54392e-07,-4.05758e-08,0.00653617,0.039798,0.000423288,0.0368336,2,4388
12,2.42361e-22,1,6626,118.57,-3.60666e-06,1.38949e-05,-2.18955e-08,1.43554e-05,94,73.1,-29.9,1.0833e+07,1e+06,-2.1285e-08,1.63824e-07,-4.38385e-08,0.00657273,0.0422486,0.000104052,0.0394976,2,4389
12,2.42361e-22,1,6627,118.57,-3.6288e-06,1.38423e-05,-2.34136e-08,1.43101e-05,94,73.1,-29.9,1.0833e+07,1e+06,-2.53431e-08,1.78161e-07,-4.74314e-08,0.00662594,0.0457134,-9.96017e-05,0.0430999,2,4390
12,2.5657e-22,1,6628,118.57,-3.65735e-06,1.37892e-05,-2.9312e-08,1.4266e-05,93.125,73.1,-29.9,9.54137e+06,937500,-4.0026e-08,2.11521e-07,-5.92711e-08,0.00568693,0.0494933,-0.00081198,0.0478152,2,4391
12,2.992e-22,2,6629,26.35,-3.70885e-06,1.37223e-05,-4.3589e-08,1.42147e-05,90.5,19.24,-38.99,5.6665e+06,750000,-6.94022e-08,2.6604e-07,-8.64542e-08,0.00352892,0.0476877,-0.00113083,0.0473001,3,2236
12,3.4183e-22,2,6630,26.35,-3.79615e-06,1.36375e-05,-5.8924e-08,1.41561e-05,87.875,19.24,-38.99,1.79162e+06,562500,-9.74338e-08,3.1068e-07,-1.16665e-07,0.00131871,0.0408315,-0.000989034,0.0413033,3,2237
12,3.5604e-22,2,6631,26.35,-3.90372e-06,1.35586e-05,-6.53597e-08,1.41096e-05,87,19.24,-38.99,500000,500000,-1.07268e-07,3.26684e-07,-1.29993e-07,0.000279589,0.0378472,-0.000747793,0.038682,3,2238
12,3.5604e-22,2,6632,26.35,-4.01069e-06,1.3506e-05,-6.37877e-08,1.40891e-05,87,19.24,-38.99,500000,500000,-1.05236e-07,3.20554e-07,-1.28096e-07,-0.000211303,0.0371606,-0.000490256,0.038288,3,2239
12,3.5604e-22,2,6633,26.35,-4.11419e-06,1.34706e-05,-6.03857e-08,1.4085e-05,87,19.24,-38.99,500000,500000,-1.03518e-07,3.08516e-07,-1.21557e-07,-0.000562936,0.0357016,-0.000259908,0.0369629,3,2240
12,3.5604e-22,2,6634,26.35,-4.21772e-06,1.34407e-05,-5.71237e-08,1.4087e-05,87,19.24,-38.99,500000,500000,-1.042e-07,2.98991e-07,-1.14221e-07,-0.000831025,0.0345424,-3.25041e-05,0.0358278,3,2241
12,3.5604e-22,2,6635,26.35,-4.32259e-06,1.34152e-05,-5.37693e-08,1.40945e-05,87,19.24,-38.99,500000,500000,-1.05678e-07,2.89343e-07,-1.07533e-07,-0.00135738,0.0332071,-2.68915e-05,0.0347662,3,2242
12,3.5604e-22,2,6636,26.35,-4.42908e-06,1.33969e-05,-5.0779e-08,1.41101e-05,87,19.24,-38.99,500000,500000,-1.0835e-07,2.81142e-07,-1.0151e-07,-0.00214331,0.0320309,-9.19225e-05,0.0341395,3,2243
12,3.5604e-22,2,6637,26.35,-4.53929e-06,1.33884e-05,-4.77787e-08,1.41371e-05,87,19.24,-38.99,500000,500000,-1.12038e-07,2.75747e-07,-9.58103e-08,-0.00307572,0.0313852,7.20823e-05,0.034251,3,2244
12,3.80076e-22,2,6638,26.35,-4.65316e-06,1.33971e-05,-4.61848e-08,1.41823e-05,88.625,19.24,-38.99,1.14581e+06,531250,-1.0932e-07,2.67539e-07,-9.2687e-08,-0.00380526,0.0321908,-0.000728522,0.0362679,3,2245
12,4.76221e-22,2,6639,26.35,-4.75793e-06,1.34227e-05,-4.59281e-08,1.42411e-05,95.125,19.24,-38.99,3.72906e+06,656250,-9.04523e-08,2.59727e-07,-9.12544e-08,-0.00236274,0.0392045,-0.00194197,0.0434426,3,2246
12,6.2044e-22,1,6640,137.15,-4.83406e-06,1.34417e-05,-4.2924e-08,1.42845e-05,104.875,109.19,-42.07,7.60394e+06,843750,-6.30143e-08,2.57585e-07,-8.5711e-08,0.00158491,0.0512299,-0.00102915,0.0528481,2,4392
12,7.16585e-22,1,6641,137.15,-4.88396e-06,1.34614e-05,-3.75476e-08,1.432e-05,111.375,109.19,-42.07,1.01872e+07,968750,-4.49311e-08,2.39439e-07,-7.54315e-08,0.00358089,0.0546152,0.000205267,0.0540673,2,4393
12,7.40621e-22,1,6642,137.15,-4.92393e-06,1.34946e-05,-3.29743e-08,1.43649e-05,113,109.19,-42.07,1.0833e+07,1e+06,-3.75e-08,2.10825e-07,-6.5543e-08,0.00340535,0.0497527,0.000269153,0.0491239,2,4394
12,7.40621e-22,1,6643,137.15,-4.95896e-06,1.35175e-05,-2.82658e-08,1.43984e-05,113,109.19,-42.07,1.0833e+07,1e+06,-3.16956e-08,1.86968e-07,-5.62378e-08,0.00368566,0.0449129,0.00049251,0.0442968,2,4395
12,7.40621e-22,1,6644,137.15,-4.98732e-06,1.35253e-05,-2.3749e-08,1.44155e-05,113,109.19,-42.07,1.0833e+07,1e+06,-2.5415e-08,1.6183e-07,-4.81758e-08,0.00382152,0.039298,0.00062037,0.0385708,2,4396
12,7.40621e-22,1,6645,137.15,-5.00979e-06,1.35395e-05,-2.26925e-08,1.44367e-05,113,109.19,-42.07,1.0833e+07,1e+06,-2.22369e-08,1.48249e-07,-4.60205e-08,0.00362279,0.0355704,0.000458329,0.0346199,2,4397
12,7.40621e-22,1,6646,137.15,-5.03179e-06,1.35726e-05,-2.4075e-08,1.44753e-05,113,109.19,-42.07,1.0833e+07,1e+06,-2.29723e-08,1.48568e-07,-4.76508e-08,0.00330637,0.0349718,0.000358896,0.0338076,2,4398
12,7.40621e-22,1,6647,137.15,-5.05574e-06,1.3616e-05,-2.46389e-08,1.45243e-05,113,109.19,-42.07,1.0833e+07,1e+06,-2.42225e-08,1.49455e-07,-4.9033e-08,0.0029434,0.0346813,0.000147329,0.0336153,2,4399
12,7.40621e-22,1,6648,137.15,-5.08024e-06,1.36625e-05,-2.46221e-08,1.45764e-05,113,109.19,-42.07,1.0833e+07,1e+06,-2.44666e-08,1.47836e-07,-4.93144e-08,0.00272658,0.0339512,3.11617e-05,0.0329365,2,4400
12,7.40621e-22,1,6649,137.15,-5.10467e-06,1.37136e-05,-2.49354e-08,1.46328e-05,113,109.19,-42.07,1.0833e+07,1e+06,-2.46461e-08,1.46966e-07,-4.98529e-08,0.00256943,0.0333417,1.06329e-05,0.032291,2,4401
12,7.40621e-22,1,6650,137.15,-5.12953e-06,1.37725e-05,-2.56398e-08,1.46967e-05,113,109.19,-42.07,1.0833e+07,1e+06,-2.54623e-08,1.48538e-07,-5.12895e-08,0.00237691,0.0332184,-1.09635e-05,0.0321707,2,4402
12,7.40621e-22,1,6651,137.15,-5.1556e-06,1.38407e-05,-2.66529e-08,1.47697e-05,113,109.19,-42.07,1.0833e+07,1e+06,-2.69976e-08,1.52688e-07,-5.33171e-08,0.00216236,0.0337222,-9.44877e-06,0.0327199,2,4403
12,7.40621e-22,1,6652,137.15,-5.18352e-06,1.39169e-05,-2.78555e-08,1.48509e-05,113,109.19,-42.07,1.0833e+07,1e+06,-2.91677e-08,1.58839e-07,-5.573e-08,0.00190913,0.0347727,-2.91785e-05,0.0338798,2,4404
12,7.40621e-22,1,6653,137.15,-5.21393e-06,1.39988e-05,-2.96062e-08,1.49383e-05,113,109.19,-42.07,1.0833e+07,1e+06,-3.22545e-08,1.67712e-07,-5.92939e-08,0.00149375,0.0364919,-0.000231439,0.0358973,2,4405
12,6.49024e-22,1,6654,137.15,-5.24803e-06,1.40851e-05,-3.38904e-08,1.5031e-05,112.75,109.19,-42.07,8.24975e+06,875000,-3.45471e-08,1.83026e-07,-6.78296e-08,0.00119122,0.0369526,0.000183909,0.0363523,2,4406
12,4.65831e-22,2,6655,97.33,-5.28303e-06,1.41891e-05,-4.46675e-08,1.51407e-05,112.25,-57.95,-141.14,3.08325e+06,625000,-3.34283e-08,2.00381e-07,-8.93223e-08,0.000337491,0.0337008,2.08893e-05,0.033648,3,2247
12,3.74234e-22,2,6656,97.33,-5.31489e-06,1.43071e-05,-5.17764e-08,1.52625e-05,112,-57.95,-141.14,500000,500000,-3.08191e-08,2.06867e-07,-1.03058e-07,-0.000209705,0.0311415,-0.000421932,0.0315682,3,2248
12,4.36359e-22,2,6657,97.33,-5.34466e-06,1.44225e-05,-4.70457e-08,1.5381e-05,113.688,-57.95,-141.14,2.43744e+06,593750,-2.36854e-08,1.92345e-07,-9.40491e-08,0.000236369,0.0319062,0.000207584,0.0319368,3,2249
12,5.81317e-22,1,6658,9.52003,-5.36226e-06,1.4483e-05,-4.09078e-08,1.54439e-05,117.625,63.66,-15.5,6.95812e+06,812500,-1.02502e-08,1.59172e-07,-8.23843e-08,-0.000331053,0.0312479,-1.88741e-05,0.031718,2,4407
12,6.84859e-22,1,6659,9.52003,-5.36516e-06,1.44706e-05,-3.97911e-08,1.54333e-05,120.438,63.66,-15.5,1.01872e+07,968750,-1.74186e-09,1.41575e-07,-7.94551e-08,-0.00117571,0.0310458,-0.000290972,0.0318796,2,4408
12,7.05568e-22,1,6660,9.52003,-5.36574e-06,1.44385e-05,-4.18058e-08,1.54033e-05,121,63.66,-15.5,1.0833e+07,1e+06,-6.92614e-10,1.49738e-07,-8.34873e-08,-0.00128955,0.0336774,0.000109109,0.0343011,2,4409
12,7.05568e-22,1,6661,9.52003,-5.36655e-06,1.44092e-05,-4.38687e-08,1.53762e-05,121,63.66,-15.5,1.0833e+07,1e+06,-1.24407e-10,1.57055e-07,-8.78433e-08,-0.00124944,0.0353754,0.000120418,0.0360107,2,4410
12,7.05568e-22,1,6662,9.52003,-5.36599e-06,1.43871e-05,-4.51372e-08,1.53553e-05,121,63.66,-15.5,1.0833e+07,1e+06,1.52723e-09,1.58587e-07,-9.02626e-08,-0.00101966,0.0356613,-1.63992e-05,0.0362615,2,4411
12,7.05568e-22,1,6663,9.52003,-5.3635e-06,1.43689e-05,-4.59578e-08,1.53373e-05,121,63.66,-15.5,1.0833e+07,1e+06,3.21363e-09,1.59693e-07,-9.19047e-08,-0.000671471,0.0358924,-2.54245e-05,0.0363169,2,4412
12,7.05568e-22,1,6664,9.52003,-5.35956e-06,1.43497e-05,-4.67708e-08,1.5318e-05,121,63.66,-15.5,1.0833e+07,1e+06,4.43173e-09,1.61408e-07,-9.35408e-08,-0.000389835,0.0362495,-2.13716e-05,0.0365121,2,4413
12,7.05568e-22,1,6665,9.52003,-5.35463e-06,1.43264e-05,-4.77337e-08,1.52945e-05,121,63.66,-15.5,1.0833e+07,1e+06,5.17482e-09,1.63957e-07,-9.54687e-08,-0.000204977,0.0367616,-4.20368e-05,0.0369173,2,4414
12,7.05568e-22,1,6666,9.52003,-5.34921e-06,1.42948e-05,-4.8706e-08,1.52629e-05,121,63.66,-15.5,1.0833e+07,1e+06,5.45547e-09,1.67696e-07,-9.73991e-08,-7.49488e-05,0.0375946,3.05278e-05,0.0376296,2,4415
12,3.85717e-22,2,6667,62.06,-3.98986e-08,1.37908e-05,-6.00642e-08,1.37909e-05,11.9375,141.86,-77.97,3.08325e+06,625000,-8.42232e-08,3.25975e-07,-1.2092e-07,0.00637535,0.0469425,-0.00234452,0.0473752,3,2250
12,2.72184e-22,2,6668,161.73,-1.28548e-07,1.385e-05,-8.21577e-08,1.38509e-05,17.6875,119.12,126.69,2.43744e+06,593750,-9.8531e-08,3.76641e-07,-1.63357e-07,0.00629901,0.0422239,-4.01674e-05,0.0407686,3,2251
12,1.75545e-22,2,6669,161.73,-2.36961e-07,1.39015e-05,-9.76267e-08,1.39039e-05,19.625,119.12,126.69,1.14581e+06,531250,-1.14184e-07,3.91674e-07,-1.94574e-07,0.00399642,0.0321205,-0.0012169,0.0315422,3,2252
12,1.48963e-22,2,6670,161.73,-3.56916e-07,1.39246e-05,-9.24017e-08,1.39295e-05,19,119.12,126.69,500000,500000,-1.20306e-07,3.82276e-07,-1.85104e-07,0.0039303,0.0286371,-0.00043699,0.027218,3,2253
12,1.48963e-22,2,6671,161.73,-4.77573e-07,1.39719e-05,-8.793e-08,1.39803e-05,19,119.12,126.69,500000,500000,-1.20935e-07,3.71147e-07,-1.76295e-07,0.0035098,0.0276786,-0.000290932,0.0263528,3,2254
12,1.48963e-22,2,6672,161.73,-5.98786e-07,1.40336e-05,-8.52095e-08,1.40466e-05,19,119.12,126.69,500000,500000,-1.20547e-07,3.63591e-07,-1.70556e-07,0.00326823,0.0271946,-0.000162453,0.0258535,3,2255
12,1.48963e-22,2,6673,161.73,-7.18667e-07,1.40983e-05,-8.20932e-08,1.41169e-05,19,119.12,126.69,500000,500000,-1.17343e-07,3.51541e-07,-1.64336e-07,0.00302447,0.026355,-0.000177047,0.0251018,3,2256
12,1.48963e-22,2,6674,161.73,-8.33472e-07,1.41622e-05,-7.83863e-08,1.41869e-05,19,119.12,126.69,500000,500000,-1.12929e-07,3.36328e-07,-1.56823e-07,0.0027982,0.0252289,-0.000198437,0.0240795,3,2257
12,1.48963e-22,2,6675,161.73,-9.44526e-07,1.42292e-05,-7.49966e-08,1.42607e-05,19,119.12,126.69,500000,500000,-1.12535e-07,3.26152e-07,-1.49992e-07,0.00239467,0.0244023,-0.000201578,0.0234323,3,2258
12,1.48963e-22,2,6676,161.73,-1.05854e-06,1.42948e-05,-7.09836e-08,1.43341e-05,19,119.12,126.69,500000,500000,-1.13965e-07,3.16973e-07,-1.41906e-07,0.0019435,0.0236555,-5.79908e-05,0.0229226,3,2259
12,1.75545e-22,2,6677,161.73,-1.17246e-06,1.43519e-05,-6.43044e-08,1.43999e-05,19.625,119.12,126.69,1.14581e+06,531250,-1.01916e-07,2.8728e-07,-1.27833e-07,0.00129635,0.0230827,-0.0001685,0.023031,3,2260
12,2.81873e-22,2,6678,161.73,-1.26238e-06,1.43812e-05,-5.2973e-08,1.44366e-05,22.125,119.12,126.69,3.72906e+06,656250,-6.64642e-08,2.28124e-07,-1.05127e-07,0.000678001,0.0246826,-0.000612459,0.0255629,3,2261
12,4.41365e-22,1,6679,153.51,-1.30538e-06,1.43407e-05,-3.82759e-08,1.44001e-05,25.875,-89.16,129.77,7.60394e+06,843750,-2.78158e-08,1.65124e-07,-7.7563e-08,0.000533618,0.0278912,-0.000449848,0.0287982,2,4416
12,5.47694e-22,1,6680,153.51,-1.31801e-06,1.42407e-05,-3.00331e-08,1.43016e-05,28.375,-89.16,129.77,1.01872e+07,968750,-1.30706e-08,1.40563e-07,-6.12709e-08,0.000196452,0.031879,0.00038864,0.032257,2,4417
12,5.74276e-22,1,6681,153.51,-1.33153e-06,1.41408e-05,-3.11979e-08,1.42034e-05,29,-89.16,129.77,1.0833e+07,1e+06,-1.70357e-08,1.5041e-07,-6.19968e-08,-0.00097893,0.0357053,0.00065495,0.036307,2,4418
12,5.74276e-22,1,6682,153.51,-1.35208e-06,1.4072e-05,-3.36703e-08,1.41368e-05,29,-89.16,129.77,1.0833e+07,1e+06,-2.20522e-08,1.5942e-07,-6.69353e-08,-0.00226388,0.0369609,0.000215959,0.0382288,2,4419
12,5.74276e-22,1,6683,153.51,-1.37563e-06,1.40337e-05,-3.4148e-08,1.4101e-05,29,-89.16,129.77,1.0833e+07,1e+06,-2.42747e-08,1.59788e-07,-6.83049e-08,-0.00296865,0.036332,-4.84932e-05,0.0379813,2,4420
12,5.74276e-22,1,6684,153.51,-1.40063e-06,1.4018e-05,-3.37891e-08,1.40878e-05,29,-89.16,129.77,1.0833e+07,1e+06,-2.56826e-08,1.57652e-07,-6.75108e-08,-0.00338871,0.0354173,-7.65158e-05,0.0372836,2,4421
12,5.74276e-22,1,6685,153.51,-1.42699e-06,1.40184e-05,-3.29552e-08,1.40909e-05,29,-89.16,129.77,1.0833e+07,1e+06,-2.68274e-08,1.54549e-07,-6.61817e-08,-0.00375175,0.0344102,-0.000153543,0.0365344,2,4422
12,5.74276e-22,1,6686,153.51,-1.45428e-06,1.40304e-05,-3.1839e-08,1.41056e-05,29,-89.16,129.77,1.0833e+07,1e+06,-2.78513e-08,1.4903e-07,-6.37922e-08,-0.00415111,0.032926,-0.000328481,0.0353848,2,4423
12,5.7053e-22,1,6687,153.51,-1.4827e-06,1.40475e-05,-2.89589e-08,1.41256e-05,29.8125,-89.16,129.77,1.0833e+07,1e+06,-2.86877e-08,1.41046e-07,-5.72334e-08,-0.00412218,0.0316997,-0.000252259,0.0343147,2,4424
12,5.55548e-22,1,6688,153.51,-1.51166e-06,1.40643e-05,-2.23902e-08,1.41453e-05,33.0625,-89.16,129.77,1.0833e+07,1e+06,-2.8126e-08,1.32307e-07,-4.46843e-08,-0.0026539,0.0320117,0.000134615,0.0341314,2,4425
12,5.33076e-22,1,6689,125.44,-1.53895e-06,1.40762e-05,-1.51698e-08,1.41601e-05,37.9375,67.45,-41.35,1.0833e+07,1e+06,-2.70487e-08,1.23852e-07,-3.09811e-08,-0.000436534,0.0327784,0.000286006,0.0339435,2,4426
12,5.18094e-22,1,6690,125.44,-1.56576e-06,1.40785e-05,-1.06427e-08,1.41653e-05,41.1875,67.45,-41.35,1.0833e+07,1e+06,-2.74512e-08,1.13698e-07,-2.15171e-08,0.000528642,0.0313912,0.000166548,0.0319713,2,4427
12,5.14349e-22,1,6691,125.44,-1.59385e-06,1.40764e-05,-8.19697e-09,1.41664e-05,42,67.45,-41.35,1.0833e+07,1e+06,-2.87346e-08,1.01189e-07,-1.6266e-08,-0.000122355,0.0279181,5.68026e-05,0.0288214,2,4428
12,5.14349e-22,1,6692,125.44,-1.62322e-06,1.40834e-05,-7.32979e-09,1.41767e-05,42,67.45,-41.35,1.0833e+07,1e+06,-3.15455e-08,9.74187e-08,-1.40294e-08,-0.00105052,0.0266458,0.00010352,0.028183,2,4429
12,5.14349e-22,1,6693,125.44,-1.65694e-06,1.41024e-05,-6.43592e-09,1.41994e-05,42,67.45,-41.35,1.0833e+07,1e+06,-3.80335e-08,1.04527e-07,-1.25308e-08,-0.00189596,0.0283275,0.00031756,0.0302413,2,4430
12,5.14349e-22,1,6694,125.44,-1.69929e-06,1.41263e-05,-4.70591e-09,1.42282e-05,42,67.45,-41.35,1.0833e+07,1e+06,-4.76494e-08,1.15733e-07,-9.58751e-09,-0.00278262,0.0309835,0.000795472,0.0328954,2,4431
12,5.339e-22,1,6695,125.44,-1.75224e-06,1.41426e-05,-4.4277e-09,1.42507e-05,42.8125,67.45,-41.35,1.0833e+07,1e+06,-5.58769e-08,1.26257e-07,-9.97143e-09,-0.00358255,0.0327577,0.000769375,0.034887,2,4432
12,6.12107e-22,1,6696,125.44,-1.81105e-06,1.41503e-05,-1.08285e-08,1.42658e-05,46.0625,67.45,-41.35,1.0833e+07,1e+06,-5.80273e-08,1.4136e-07,-2.22991e-08,-0.00329394,0.0336726,-0.000124549,0.0360758,2,4433
12,7.29417e-22,1,6697,130.6,-1.8683e-06,1.41717e-05,-2.12692e-08,1.42944e-05,50.9375,117.2,-48.36,1.0833e+07,1e+06,-5.66797e-08,1.64349e-07,-4.13178e-08,-0.00150086,0.0349687,-0.000577436,0.036548,2,4434
12,8.07623e-22,1,6698,130.6,-1.9244e-06,1.42112e-05,-2.65082e-08,1.43409e-05,54.1875,117.2,-48.36,1.0833e+07,1e+06,-5.69456e-08,1.80627e-07,-5.25315e-08,-0.000124563,0.0356969,-0.000303489,0.0362239,2,4435
12,8.27175e-22,1,6699,130.6,-1.98219e-06,1.42525e-05,-2.76561e-08,1.43897e-05,55,117.2,-48.36,1.0833e+07,1e+06,-5.83491e-08,1.88295e-07,-5.55832e-08,0.000314239,0.0365764,-2.90518e-05,0.0367316,2,4436
12,8.27175e-22,1,6700,130.6,-2.0411e-06,1.42937e-05,-2.86825e-08,1.44387e-05,55,117.2,-48.36,1.0833e+07,1e+06,-5.90294e-08,1.94834e-07,-5.75099e-08,0.000762299,0.0379309,0.000117415,0.0378039,2,4437
12,8.27175e-22,1,6701,130.6,-2.10025e-06,1.43433e-05,-2.98447e-08,1.44963e-05,55,117.2,-48.36,1.0833e+07,1e+06,-5.9218e-08,2.00566e-07,-6.01289e-08,0.00129294,0.0388212,0.000145828,0.0383458,2,4438
12,7.47389e-22,1,6702,130.6,-2.15954e-06,1.44124e-05,-3.37105e-08,1.45733e-05,54.8125,117.2,-48.36,8.89556e+06,906250,-5.83917e-08,2.11887e-07,-6.72091e-08,0.00167289,0.0396665,9.38202e-05,0.0391705,2,4439
12,5.61222e-22,2,6703,99.23,-2.21703e-06,1.44613e-05,-3.91093e-08,1.46303e-05,54.375,131.95,-38.71,4.37488e+06,687500,-5.6048e-08,2.19194e-07,-7.79182e-08,0.000618752,0.0377168,-0.000164809,0.0382121,3,2262
12,4.51559e-22,2,6704,99.23,-2.27163e-06,1.4464e-05,-4.09233e-08,1.46414e-05,55.75,131.95,-38.71,1.79162e+06,562500,-5.47709e-08,2.11032e-07,-8.14238e-08,-0.000878632,0.0332416,-0.000404098,0.0347508,3,2263
12,5.41528e-22,2,6705,99.23,-2.32657e-06,1.44502e-05,-3.68735e-08,1.46364e-05,64.125,131.95,-38.71,4.37488e+06,687500,-6.10109e-08,1.9923e-07,-7.42004e-08,-0.00109588,0.0293394,8.12831e-06,0.030606,3,2264
12,7.04718e-22,1,6706,91.26,-2.39366e-06,1.44434e-05,-3.53767e-08,1.46404e-05,75.9375,-49.63,-179.82,8.89556e+06,906250,-7.18963e-08,1.97293e-07,-7.1207e-08,-0.000872886,0.0265476,0.000104949,0.0272835,2,4440
12,7.74657e-22,1,6707,91.26,-2.47036e-06,1.44457e-05,-3.74428e-08,1.46554e-05,81,-49.63,-179.82,1.0833e+07,1e+06,-7.57872e-08,2.015e-07,-7.44037e-08,-0.000390828,0.0259835,-0.00015897,0.0263435,2,4441
12,7.74657e-22,1,6708,91.26,-2.54523e-06,1.44473e-05,-3.75736e-08,1.46698e-05,81,-49.63,-179.82,1.0833e+07,1e+06,-7.42364e-08,2.03148e-07,-7.53023e-08,0.000197813,0.0264464,-7.02358e-05,0.0264286,2,4442
12,7.74657e-22,1,6709,91.26,-2.61884e-06,1.44501e-05,-3.78996e-08,1.46855e-05,81,-49.63,-179.82,1.0833e+07,1e+06,-7.26834e-08,2.03731e-07,-7.57822e-08,0.000689774,0.0267237,-1.87786e-05,0.0264165,2,4443
12,7.74657e-22,1,6710,91.26,-2.6906e-06,1.44522e-05,-3.79338e-08,1.47006e-05,81,-49.63,-179.82,1.0833e+07,1e+06,-7.06473e-08,2.02762e-07,-7.58551e-08,0.00115092,0.0267659,-2.9218e-05,0.0262336,2,4444
12,7.74657e-22,1,6711,91.26,-2.76013e-06,1.44527e-05,-3.78303e-08,1.4714e-05,81,-49.63,-179.82,1.0833e+07,1e+06,-6.86036e-08,2.01248e-07,-7.56547e-08,0.00156129,0.0267207,-3.2672e-05,0.0260022,2,4445
12,7.74657e-22,1,6712,91.26,-2.82781e-06,1.44517e-05,-3.76862e-08,1.47258e-05,81,-49.63,-179.82,1.0833e+07,1e+06,-6.705e-08,1.9987e-07,-7.53694e-08,0.00185222,0.0266523,-2.65546e-05,0.0258063,2,4446
12,7.74657e-22,1,6713,91.26,-2.89423e-06,1.44495e-05,-3.7555e-08,1.47365e-05,81,-49.63,-179.82,1.0833e+07,1e+06,-6.60639e-08,1.98861e-07,-7.51094e-08,0.00202433,0.0265886,-1.73654e-05,0.0256675,2,4447
12,7.74657e-22,1,6714,91.26,-2.95993e-06,1.44463e-05,-3.74529e-08,1.47465e-05,81,-49.63,-179.82,1.0833e+07,1e+06,-6.55016e-08,1.98204e-07,-7.49051e-08,0.00211535,0.026541,-6.56105e-06,0.0255776,2,4448
12,7.74657e-22,1,6715,91.26,-3.02523e-06,1.44423e-05,-3.73756e-08,1.47558e-05,81,-49.63,-179.82,1.0833e+07,1e+06,-6.51389e-08,1.97764e-07,-7.47503e-08,0.00217347,0.0265097,5.13881e-06,0.025516,2,4449
12,7.74657e-22,1,6716,91.26,-3.09021e-06,1.44374e-05,-3.73144e-08,1.47645e-05,81,-49.63,-179.82,1.0833e+07,1e+06,-6.47277e-08,1.97375e-07,-7.46287e-08,0.00225032,0.0264922,1.74002e-05,0.0254593,2,4450
12,7.74657e-22,1,6717,91.26,-3.15469e-06,1.44316e-05,-3.72632e-08,1.47724e-05,81,-49.63,-179.82,1.0833e+07,1e+06,-6.40084e-08,1.96878e-07,-7.4526e-08,0.00240144,0.0264884,3.09089e-05,0.0253862,2,4451
12,7.74657e-22,1,6718,91.26,-3.21823e-06,1.44242e-05,-3.72166e-08,1.47789e-05,81,-49.63,-179.82,1.0833e+07,1e+06,-6.27397e-08,1.96111e-07,-7.4438e-08,0.00267635,0.0264946,4.19655e-05,0.0252797,2,4452
12,7.74657e-22,1,6719,91.26,-3.28017e-06,1.44148e-05,-3.718e-08,1.47833e-05,81,-49.63,-179.82,1.0833e+07,1e+06,-6.06687e-08,1.94982e-07,-7.43601e-08,0.00313748,0.0265244,5.67111e-05,0.0251332,2,4453
12,7.74657e-22,1,6720,91.26,-3.33956e-06,1.44023e-05,-3.71371e-08,1.47845e-05,81,-49.63,-179.82,1.0833e+07,1e+06,-5.76619e-08,1.9334e-07,-7.43471e-08,0.00379811,0.0265533,5.0435e-05,0.0249584,2,4454
12,7.74657e-22,1,6721,91.26,-3.39549e-06,1.43853e-05,-3.71224e-08,1.47806e-05,81,-49.63,-179.82,1.0833e+07,1e+06,-5.3404e-08,1.91258e-07,-7.43932e-08,0.00476576,0.0266399,5.14971e-05,0.0247772,2,4455
12,7.47894e-22,1,6722,91.26,-3.44637e-06,1.43622e-05,-3.66339e-08,1.477e-05,80.5625,-49.63,-179.82,1.01872e+07,968750,-4.57842e-08,1.85454e-07,-7.30613e-08,0.00588699,0.0267172,8.98976e-05,0.0246728,2,4456
12,6.40844e-22,1,6723,91.26,-3.48706e-06,1.43238e-05,-3.48947e-08,1.47422e-05,78.8125,-49.63,-179.82,7.60394e+06,843750,-3.32269e-08,1.6815e-07,-6.94553e-08,0.00584943,0.0255048,-0.000347038,0.0240376,2,4457
12,4.54244e-22,2,6724,76.12,-3.51283e-06,1.42518e-05,-2.73463e-08,1.46784e-05,81.1875,38.14,139.31,6.31231e+06,781250,-2.39278e-08,1.45159e-07,-5.49973e-08,0.00470521,0.0262895,-0.000349716,0.025138,3,2265
12,2.95146e-22,1,6725,118.57,-3.53492e-06,1.41703e-05,-1.92824e-08,1.46046e-05,89.4375,73.1,-29.9,8.89556e+06,906250,-2.49579e-08,1.41928e-07,-3.87189e-08,0.00441578,0.0329826,0.000325085,0.0310865,2,4458
12,2.42361e-22,1,6726,118.57,-3.56274e-06,1.41083e-05,-1.83787e-08,1.45512e-05,94,73.1,-29.9,1.0833e+07,1e+06,-2.89378e-08,1.54301e-07,-3.66213e-08,0.00468668,0.039026,0.000276252,0.0368494,2,4459
12,2.42361e-22,1,6727,118.57,-3.59279e-06,1.40593e-05,-1.99307e-08,1.45111e-05,94,73.1,-29.9,1.0833e+07,1e+06,-3.1591e-08,1.65328e-07,-3.98377e-08,0.00470536,0.0418271,1.32545e-05,0.0398382,2,4460
12,2.42361e-22,1,6728,118.57,-3.62592e-06,1.40206e-05,-2.10647e-08,1.44819e-05,94,73.1,-29.9,1.0833e+07,1e+06,-3.5747e-08,1.79185e-07,-4.24433e-08,0.00461524,0.0453746,7.29086e-05,0.0435158,2,4461
12,2.49465e-22,1,6729,118.57,-3.66429e-06,1.40008e-05,-2.54149e-08,1.44724e-05,93.5625,73.1,-29.9,1.01872e+07,968750,-4.39285e-08,2.02341e-07,-5.10048e-08,0.00402705,0.0490925,-0.000452457,0.0480659,2,4462
12,2.8499e-22,1,6730,118.57,-3.71378e-06,1.39897e-05,-3.79368e-08,1.44743e-05,91.375,73.1,-29.9,6.95812e+06,812500,-6.54042e-08,2.45184e-07,-7.52145e-08,0.00236691,0.0479879,-0.00132974,0.0485579,2,4463
12,3.34725e-22,2,6731,26.35,-3.79509e-06,1.39503e-05,-5.35888e-08,1.44574e-05,88.3125,19.24,-38.99,2.43744e+06,593750,-9.50715e-08,2.98053e-07,-1.06916e-07,0.000729194,0.0417443,-0.000690606,0.0427977,3,2266
12,3.5604e-22,2,6732,26.35,-3.90392e-06,1.38862e-05,-6.10683e-08,1.44247e-05,87,19.24,-38.99,500000,500000,-1.10343e-07,3.239e-07,-1.22515e-07,-0.000111999,0.0380155,0.000151994,0.0388805,3,2267
12,3.5604e-22,2,6733,26.35,-4.01578e-06,1.3827e-05,-6.08454e-08,1.43985e-05,87,19.24,-38.99,500000,500000,-1.10763e-07,3.19434e-07,-1.21765e-07,-0.000765857,0.037099,-6.61066e-06,0.038405,3,2268
12,3.5604e-22,2,6734,26.35,-4.12545e-06,1.378e-05,-5.88762e-08,1.43844e-05,87,19.24,-38.99,500000,500000,-1.09286e-07,3.09532e-07,-1.17666e-07,-0.00120313,0.0357937,-7.20372e-05,0.0374349,3,2269
12,3.5604e-22,2,6735,26.35,-4.23435e-06,1.37408e-05,-5.59672e-08,1.43786e-05,87,19.24,-38.99,500000,500000,-1.09562e-07,3.0046e-07,-1.11988e-07,-0.00160657,0.0346153,-2.42815e-05,0.0364803,3,2270
12,3.5604e-22,2,6736,26.35,-4.34458e-06,1.37055e-05,-5.26145e-08,1.43777e-05,87,19.24,-38.99,500000,500000,-1.10222e-07,2.90489e-07,-1.05349e-07,-0.00206724,0.033337,4.63586e-05,0.0354564,3,2271
12,3.5604e-22,2,6737,26.35,-4.4548e-06,1.36768e-05,-4.95254e-08,1.43841e-05,87,19.24,-38.99,500000,500000,-1.0932e-07,2.77643e-07,-9.87817e-08,-0.00270254,0.0317369,3.37719e-05,0.0343551,3,2272
12,3.5604e-22,2,6738,26.35,-4.56322e-06,1.36613e-05,-4.6012e-08,1.44034e-05,87,19.24,-38.99,500000,500000,-1.065e-07,2.66584e-07,-9.19888e-08,-0.00293008,0.0308645,0.00052946,0.0337058,3,2273
12,4.28149e-22,2,6739,26.35,-4.6678e-06,1.36543e-05,-4.29669e-08,1.44302e-05,91.875,19.24,-38.99,2.43744e+06,593750,-9.26728e-08,2.51873e-07,-8.57993e-08,-0.0024622,0.0347644,-0.000283325,0.0381666,3,2274
12,5.96403e-22,1,6740,137.15,-4.74856e-06,1.36662e-05,-3.85554e-08,1.44678e-05,103.25,109.19,-42.07,6.95812e+06,812500,-6.73256e-08,2.39885e-07,-7.71318e-08,-0.000329035,0.0456779,-0.000173721,0.0476079,2,4464
12,7.16585e-22,1,6741,137.15,-4.80245e-06,1.36839e-05,-3.47702e-08,1.45022e-05,111.375,109.19,-42.07,1.01872e+07,968750,-5.16508e-08,2.39019e-07,-7.05176e-08,0.00180651,0.054361,0.00128128,0.0538435,2,4465
12,7.40621e-22,1,6742,137.15,-4.85186e-06,1.36948e-05,-3.48742e-08,1.45289e-05,113,109.19,-42.07,1.0833e+07,1e+06,-4.90622e-08,2.32912e-07,-6.95789e-08,0.00164925,0.0542282,0.000766381,0.0539058,2,4466
12,7.40621e-22,1,6743,137.15,-4.90057e-06,1.37094e-05,-3.31566e-08,1.4559e-05,113,109.19,-42.07,1.0833e+07,1e+06,-4.59778e-08,2.16858e-07,-6.56069e-08,0.00140121,0.0505865,0.00019593,0.0508779,2,4467
12,7.16669e-22,1,6744,137.15,-4.94382e-06,1.3707e-05,-2.97883e-08,1.45713e-05,111.875,109.19,-42.07,1.01872e+07,968750,-3.97759e-08,1.96899e-07,-5.9373e-08,0.00205566,0.0456525,0.000182299,0.0461882,2,4468
12,6.68765e-22,1,6745,137.15,-4.98012e-06,1.36858e-05,-2.88333e-08,1.45638e-05,109.625,109.19,-42.07,8.89556e+06,906250,-3.27901e-08,1.75766e-07,-5.77497e-08,0.00245651,0.0383171,-0.00016646,0.0390982,2,4469
12,6.68765e-22,1,6746,137.15,-5.0094e-06,1.36852e-05,-2.74356e-08,1.45732e-05,109.625,109.19,-42.07,8.89556e+06,906250,-2.66475e-08,1.5858e-07,-5.54615e-08,0.00280391,0.0338943,-0.000260012,0.0339685,2,4470
12,7.16669e-22,1,6747,137.15,-5.03342e-06,1.37202e-05,-2.47234e-08,1.46143e-05,111.875,109.19,-42.07,1.01872e+07,968750,-2.32653e-08,1.50425e-07,-4.97952e-08,0.00331545,0.0342531,0.000387502,0.0330439,2,4471
12,7.40621e-22,1,6748,137.15,-5.05593e-06,1.37646e-05,-2.41484e-08,1.46638e-05,113,109.19,-42.07,1.0833e+07,1e+06,-2.25949e-08,1.47772e-07,-4.7963e-08,0.00333126,0.0344378,0.000505838,0.0329481,2,4472
12,7.40621e-22,1,6749,137.15,-5.07861e-06,1.38088e-05,-2.44238e-08,1.47132e-05,113,109.19,-42.07,1.0833e+07,1e+06,-2.25132e-08,1.44952e-07,-4.85634e-08,0.00309417,0.0333872,0.000138639,0.0321346,2,4473
12,7.40621e-22,1,6750,137.15,-5.10096e-06,1.38587e-05,-2.46391e-08,1.47677e-05,113,109.19,-42.07,1.0833e+07,1e+06,-2.26334e-08,1.43228e-07,-4.93098e-08,0.00286982,0.0324695,-3.66547e-06,0.031275,2,4474
12,7.40621e-22,1,6751,137.15,-5.12388e-06,1.39194e-05,-2.54892e-08,1.48325e-05,113,109.19,-42.07,1.0833e+07,1e+06,-2.37933e-08,1.45647e-07,-5.09877e-08,0.00263643,0.0324957,-4.26776e-06,0.0313136,2,4475
12,7.40621e-22,1,6752,137.15,-5.14854e-06,1.39922e-05,-2.66367e-08,1.49094e-05,113,109.19,-42.07,1.0833e+07,1e+06,-2.57665e-08,1.51003e-07,-5.32803e-08,0.00238365,0.0332717,1.31121e-05,0.0321517,2,4476
12,7.40621e-22,1,6753,137.15,-5.17541e-06,1.40753e-05,-2.79651e-08,1.49966e-05,113,109.19,-42.07,1.0833e+07,1e+06,-2.79405e-08,1.58315e-07,-5.59931e-08,0.00221598,0.0346342,2.03602e-05,0.0335753,2,4477
12,7.40621e-22,1,6754,137.15,-5.20442e-06,1.41667e-05,-2.99896e-08,1.50924e-05,113,109.19,-42.07,1.0833e+07,1e+06,-3.02582e-08,1.678e-07,-6.00853e-08,0.00206352,0.0364682,-0.00013681,0.0355776,2,4478
12,6.71924e-22,1,6755,137.15,-5.23593e-06,1.42699e-05,-3.4103e-08,1.52002e-05,112.812,109.19,-42.07,8.89556e+06,906250,-3.23369e-08,1.82268e-07,-6.84717e-08,0.00182931,0.0372327,1.89413e-05,0.03644,2,4479
12,5.11629e-22,2,6756,97.33,-5.2691e-06,1.43911e-05,-4.27576e-08,1.53254e-05,112.375,-57.95,-141.14,4.37488e+06,687500,-3.3183e-08,1.96831e-07,-8.48856e-08,0.000780937,0.0344903,-4.08541e-05,0.0342841,3,2275
12,4.17842e-22,2,6757,97.33,-5.30229e-06,1.45144e-05,-4.67559e-08,1.54527e-05,112.625,-57.95,-141.14,1.79162e+06,562500,-3.1272e-08,1.98042e-07,-9.30945e-08,-0.000223758,0.0317395,-7.44228e-05,0.032115,3,2276
12,4.98484e-22,2,6758,97.33,-5.33164e-06,1.46066e-05,-4.1717e-08,1.55493e-05,115.375,-57.95,-141.14,4.37487e+06,687500,-2.11827e-08,1.70856e-07,-8.40877e-08,-0.000820289,0.0302446,-0.000187432,0.0310739,3,2277
12,6.43443e-22,1,6759,9.52003,-5.34466e-06,1.46301e-05,-3.89261e-08,1.55759e-05,119.312,63.66,-15.5,8.89556e+06,906250,-6.51636e-09,1.42323e-07,-7.78785e-08,-0.00131996,0.0297683,-0.000441579,0.0308402,2,4480
12,7.05568e-22,1,6760,9.52003,-5.34467e-06,1.461e-05,-4.00339e-08,1.5557e-05,121,63.66,-15.5,1.0833e+07,1e+06,-1.78762e-10,1.41152e-07,-7.99024e-08,-0.00125648,0.0316275,-9.8581e-05,0.0323409,2,4481
12,7.05568e-22,1,6761,9.52003,-5.34501e-06,1.45882e-05,-4.17517e-08,1.55366e-05,121,63.66,-15.5,1.0833e+07,1e+06,-4.74915e-10,1.49457e-07,-8.35593e-08,-0.00124325,0.033604,6.91935e-05,0.0342338,2,4482
12,7.05568e-22,1,6762,9.52003,-5.34562e-06,1.4565e-05,-4.35521e-08,1.55151e-05,121,63.66,-15.5,1.0833e+07,1e+06,-5.27307e-11,1.55372e-07,-8.71332e-08,-0.00120788,0.034938,6.97052e-05,0.0355542,2,4483
12,7.05568e-22,1,6763,9.52003,-5.34512e-06,1.45457e-05,-4.48892e-08,1.54967e-05,121,63.66,-15.5,1.0833e+07,1e+06,1.26918e-09,1.58316e-07,-8.97842e-08,-0.000998255,0.0355795,1.90151e-05,0.0361209,2,4484
12,7.05568e-22,1,6764,9.52003,-5.34309e-06,1.45288e-05,-4.59062e-08,1.54802e-05,121,63.66,-15.5,1.0833e+07,1e+06,2.76923e-09,1.60131e-07,-9.18118e-08,-0.00071162,0.035962,-1.18964e-05,0.0363724,2,4485
12,7.05568e-22,1,6765,9.52003,-5.33958e-06,1.45117e-05,-4.69315e-08,1.54629e-05,121,63.66,-15.5,1.0833e+07,1e+06,4.08918e-09,1.6238e-07,-9.3864e-08,-0.000429558,0.036439,-1.93323e-05,0.0367009,2,4486
12,7.05568e-22,1,6766,9.52003,-5.33491e-06,1.44913e-05,-4.81509e-08,1.54422e-05,121,63.66,-15.5,1.0833e+07,1e+06,5.00018e-09,1.65608e-07,-9.63051e-08,-0.000229676,0.0371079,-4.63564e-05,0.0372676,2,4487
12,7.05568e-22,1,6767,9.52003,-5.32958e-06,1.4464e-05,-4.94391e-08,1.54147e-05,121,63.66,-15.5,1.0833e+07,1e+06,5.40066e-09,1.70395e-07,-9.88669e-08,-8.79036e-05,0.0381883,3.26643e-05,0.038225,2,4488
12,5.11423e-22,1,6768,153.51,-2.35529e-08,1.40696e-05,-4.92895e-08,1.40697e-05,23.3125,-89.16,129.77,8.24975e+06,875000,-4.57244e-08,2.40415e-07,-9.81428e-08,-0.000772733,0.046171,-0.000921184,0.0487052,2,4489
12,4.29275e-22,1,6769,153.51,-6.78958e-08,1.41792e-05,-5.87829e-08,1.41794e-05,24.1875,-89.16,129.77,6.95813e+06,812500,-5.77692e-08,2.72174e-07,-1.18745e-07,-2.14022e-05,0.0433085,0.000139062,0.0446781,2,4490
12,2.81873e-22,2,6770,161.73,-1.39091e-07,1.42702e-05,-7.19727e-08,1.4271e-05,22.125,119.12,126.69,3.72906e+06,656250,-9.64055e-08,3.16543e-07,-1.44403e-07,-0.000205786,0.0341428,-0.000921609,0.0358739,3,2278
12,1.75545e-22,2,6771,161.73,-2.60707e-07,1.4306e-05,-7.85191e-08,1.43086e-05,19.625,119.12,126.69,1.14581e+06,531250,-1.31428e-07,3.56734e-07,-1.5615e-07,0.0009948,0.0284795,-0.000375539,0.0287539,3,2279
12,1.48963e-22,2,6772,161.73,-4.01947e-07,1.43465e-05,-8.09319e-08,1.43523e-05,19,119.12,126.69,500000,500000,-1.38714e-07,3.66086e-07,-1.61792e-07,0.00147291,0.0265179,-0.00057833,0.0262708,3,2280
12,1.48963e-22,2,6773,161.73,-5.38134e-07,1.44025e-05,-8.10699e-08,1.44128e-05,19,119.12,126.69,500000,500000,-1.32823e-07,3.61186e-07,-1.61781e-07,0.00192294,0.0263777,-0.000469231,0.0257887,3,2281
12,1.48963e-22,2,6774,161.73,-6.67593e-07,1.44538e-05,-7.81479e-08,1.44694e-05,19,119.12,126.69,500000,500000,-1.27406e-07,3.48313e-07,-1.56079e-07,0.00191198,0.0255632,-0.000376854,0.0249357,3,2282
12,1.48963e-22,2,6775,161.73,-7.92946e-07,1.44992e-05,-7.24461e-08,1.4521e-05,19,119.12,126.69,500000,500000,-1.23613e-07,3.30451e-07,-1.45112e-07,0.00166566,0.0242512,-0.000114872,0.0237144,3,2283
12,1.75545e-22,2,6776,161.73,-9.14818e-07,1.45528e-05,-6.66825e-08,1.45817e-05,19.625,119.12,126.69,1.14581e+06,531250,-1.14164e-07,3.04022e-07,-1.33415e-07,0.000388813,0.0238707,-0.000555133,0.0245096,3,2284
12,2.28709e-22,2,6777,161.73,-1.02127e-06,1.46065e-05,-5.96064e-08,1.46423e-05,20.875,119.12,126.69,2.43744e+06,593750,-9.6855e-08,2.69738e-07,-1.1838e-07,-0.000615041,0.0238627,-0.000662049,0.025244,3,2285
12,3.08455e-22,2,6778,161.73,-1.10853e-06,1.46183e-05,-4.82844e-08,1.46604e-05,22.75,119.12,126.69,4.37488e+06,687500,-7.05378e-08,2.19285e-07,-9.60511e-08,-0.00114019,0.0241629,-0.000513272,0.0258295,3,2286
12,4.41365e-22,1,6779,153.51,-1.16235e-06,1.45696e-05,-3.50557e-08,1.46159e-05,25.875,-89.16,129.77,7.60394e+06,843750,-3.73086e-08,1.60459e-07,-7.12866e-08,-0.00159921,0.0262872,-0.000449147,0.028069,2,4491
12,5.47694e-22,1,6780,153.51,-1.18315e-06,1.44771e-05,-2.7164e-08,1.45254e-05,28.375,-89.16,129.77,1.01872e+07,968750,-1.97732e-08,1.31987e-07,-5.53753e-08,-0.00163957,0.029159,0.000316815,0.0302582,2,4492
12,5.74276e-22,1,6781,153.51,-1.2019e-06,1.43758e-05,-2.76154e-08,1.4426e-05,29,-89.16,129.77,1.0833e+07,1e+06,-2.14053e-08,1.37269e-07,-5.46887e-08,-0.00242929,0.0322298,0.000523821,0.0335211,2,4493
12,5.74276e-22,1,6782,153.51,-1.22596e-06,1.42908e-05,-3.02586e-08,1.43433e-05,29,-89.16,129.77,1.0833e+07,1e+06,-2.56168e-08,1.49405e-07,-6.01519e-08,-0.00336066,0.0346797,0.000225491,0.0365673,2,4494
12,5.74276e-22,1,6783,153.51,-1.25313e-06,1.42293e-05,-3.17979e-08,1.42844e-05,29,-89.16,129.77,1.0833e+07,1e+06,-2.82391e-08,1.55873e-07,-6.36959e-08,-0.00398785,0.0356431,3.87386e-05,0.0378737,2,4495
12,5.74276e-22,1,6784,153.51,-1.28243e-06,1.41922e-05,-3.2388e-08,1.42501e-05,29,-89.16,129.77,1.0833e+07,1e+06,-2.99143e-08,1.57215e-07,-6.47622e-08,-0.00443501,0.0354582,-2.29427e-05,0.0379105,2,4496
12,5.74276e-22,1,6785,153.51,-1.31296e-06,1.41749e-05,-3.22439e-08,1.42356e-05,29,-89.16,129.77,1.0833e+07,1e+06,-3.09223e-08,1.55961e-07,-6.44898e-08,-0.0047386,0.0347968,-4.44594e-05,0.037436,2,4497
12,5.74276e-22,1,6786,153.51,-1.34428e-06,1.41723e-05,-3.16679e-08,1.4236e-05,29,-89.16,129.77,1.0833e+07,1e+06,-3.16796e-08,1.53324e-07,-6.33057e-08,-0.00498445,0.0339403,-3.72154e-05,0.0367526,2,4498
12,5.74276e-22,1,6787,153.51,-1.37632e-06,1.41796e-05,-3.06604e-08,1.42463e-05,29,-89.16,129.77,1.0833e+07,1e+06,-3.2379e-08,1.49214e-07,-6.15431e-08,-0.00527062,0.0328251,-0.000146383,0.0358828,2,4499
12,5.74276e-22,1,6788,153.51,-1.40904e-06,1.41907e-05,-2.94975e-08,1.42605e-05,29,-89.16,129.77,1.0833e+07,1e+06,-3.35225e-08,1.44186e-07,-5.90754e-08,-0.00569095,0.0316029,-0.000339884,0.035005,2,4500
12,5.7053e-22,1,6789,153.51,-1.44336e-06,1.42001e-05,-2.67754e-08,1.42733e-05,29.8125,-89.16,129.77,1.0833e+07,1e+06,-3.5437e-08,1.38128e-07,-5.29197e-08,-0.00588101,0.0308447,-0.000292176,0.034508,2,4501
12,5.55548e-22,1,6790,153.51,-1.47991e-06,1.42041e-05,-2.03515e-08,1.4281e-05,33.0625,-89.16,129.77,1.0833e+07,1e+06,-3.73345e-08,1.31213e-07,-4.05015e-08,-0.00489754,0.0313159,4.04376e-05,0.0346837,2,4502
12,5.33076e-22,1,6791,125.44,-1.51803e-06,1.41957e-05,-1.23323e-08,1.42766e-05,37.9375,67.45,-41.35,1.0833e+07,1e+06,-3.77707e-08,1.21675e-07,-2.49962e-08,-0.00285604,0.0315175,0.000539159,0.0338087,2,4503
12,5.18094e-22,1,6792,125.44,-1.55545e-06,1.41779e-05,-5.90027e-09,1.4263e-05,41.1875,67.45,-41.35,1.0833e+07,1e+06,-3.70769e-08,1.03083e-07,-1.17718e-08,-0.00200059,0.0278391,0.00104514,0.0297984,2,4504
12,5.14349e-22,1,6793,125.44,-1.59218e-06,1.41799e-05,-2.99611e-09,1.4269e-05,42,67.45,-41.35,1.0833e+07,1e+06,-4.06173e-08,9.57305e-08,-6.07159e-09,-0.00289127,0.0258845,0.00131647,0.0285862,2,4505
12,5.339e-22,1,6794,125.44,-1.63669e-06,1.4208e-05,-4.81378e-09,1.4302e-05,42.8125,67.45,-41.35,1.0833e+07,1e+06,-5.05624e-08,1.11978e-07,-9.91679e-09,-0.00434711,0.0291071,0.000767933,0.0327581,2,4506
12,5.73003e-22,1,6795,125.44,-1.69331e-06,1.42445e-05,-7.74106e-09,1.43448e-05,44.4375,67.45,-41.35,1.0833e+07,1e+06,-5.83666e-08,1.31888e-07,-1.61795e-08,-0.00455052,0.0325349,0.000439776,0.0359767,2,4507
12,6.31658e-22,1,6796,125.44,-1.75342e-06,1.42742e-05,-1.32421e-08,1.43815e-05,46.875,67.45,-41.35,1.0833e+07,1e+06,-5.87571e-08,1.48884e-07,-2.67334e-08,-0.00317036,0.0346891,-9.47074e-05,0.0372344,2,4508
12,7.29417e-22,1,6797,130.6,-1.81082e-06,1.43044e-05,-2.22819e-08,1.44186e-05,50.9375,117.2,-48.36,1.0833e+07,1e+06,-5.74811e-08,1.69199e-07,-4.33992e-08,-0.00137596,0.035908,-0.000666543,0.0374802,2,4509
12,8.07623e-22,1,6798,130.6,-1.86838e-06,1.43503e-05,-2.70583e-08,1.44714e-05,54.1875,117.2,-48.36,1.0833e+07,1e+06,-5.8673e-08,1.8493e-07,-5.37276e-08,-0.000188927,0.0363689,-0.000227631,0.0368155,2,4510
12,8.27175e-22,1,6799,130.6,-1.92817e-06,1.43982e-05,-2.75732e-08,1.45268e-05,55,117.2,-48.36,1.0833e+07,1e+06,-6.03289e-08,1.88998e-07,-5.56015e-08,-0.00016076,0.0364073,-2.70837e-05,0.0367242,2,4511
12,8.27175e-22,1,6800,130.6,-1.98904e-06,1.44422e-05,-2.79064e-08,1.45785e-05,55,117.2,-48.36,1.0833e+07,1e+06,-6.14785e-08,1.91092e-07,-5.58521e-08,-0.000303583,0.0368811,-1.42664e-05,0.0373569,2,4512
12,8.27175e-22,1,6801,130.6,-2.05113e-06,1.44878e-05,-2.84026e-08,1.46323e-05,55,117.2,-48.36,1.0833e+07,1e+06,-6.34482e-08,1.9444e-07,-5.67646e-08,-0.00056603,0.0374044,-4.43045e-05,0.038024,2,4513
12,8.27175e-22,1,6802,130.6,-2.11594e-06,1.4542e-05,-2.86048e-08,1.46952e-05,55,117.2,-48.36,1.0833e+07,1e+06,-6.67867e-08,1.98212e-07,-5.7398e-08,-0.00109174,0.0376834,0.00010342,0.0384165,2,4514
12,7.47389e-22,1,6803,130.6,-2.1847e-06,1.46199e-05,-3.05669e-08,1.47822e-05,54.8125,117.2,-48.36,8.89556e+06,906250,-6.6543e-08,1.99409e-07,-6.1586e-08,-0.00170106,0.0360944,-0.000249404,0.0374026,2,4515
12,5.61222e-22,2,6804,99.23,-2.24902e-06,1.46801e-05,-3.81293e-08,1.48514e-05,54.375,131.95,-38.71,4.37487e+06,687500,-5.70665e-08,2.09773e-07,-7.58384e-08,-0.000773046,0.0351147,-0.000443308,0.0363388,3,2287
12,4.28246e-22,2,6805,99.23,-2.29883e-06,1.46778e-05,-4.41297e-08,1.48568e-05,54.0625,131.95,-38.71,1.14581e+06,531250,-4.47651e-08,2.11789e-07,-8.74198e-08,0.000494215,0.0335506,-0.00047732,0.0342579,3,2288
12,4.71589e-22,2,6806,99.23,-2.33855e-06,1.465e-05,-4.04772e-08,1.48355e-05,59.0625,131.95,-38.71,2.43744e+06,593750,-4.6365e-08,2.01119e-07,-8.13335e-08,0.00075963,0.0307582,5.336e-06,0.0310567,3,2289
12,6.3478e-22,1,6807,91.26,-2.39156e-06,1.46414e-05,-3.63589e-08,1.48354e-05,70.875,-49.63,-179.82,6.95812e+06,812500,-6.2953e-08,1.98264e-07,-7.30592e-08,0.000119254,0.0281652,0.000284045,0.0284531,2,4516
12,7.51344e-22,1,6808,91.26,-2.46446e-06,1.46477e-05,-3.71896e-08,1.48536e-05,79.3125,-49.63,-179.82,1.01872e+07,968750,-7.53163e-08,2.02016e-07,-7.43426e-08,-0.000556473,0.0264252,-0.000209908,0.0269715,2,4517
12,7.74657e-22,1,6809,91.26,-2.5422e-06,1.46525e-05,-3.82888e-08,1.48715e-05,81,-49.63,-179.82,1.0833e+07,1e+06,-7.72093e-08,2.07893e-07,-7.6672e-08,-0.000126262,0.0269545,-5.47004e-05,0.0270698,2,4518
12,7.74657e-22,1,6810,91.26,-2.61888e-06,1.46562e-05,-3.85307e-08,1.48884e-05,81,-49.63,-179.82,1.0833e+07,1e+06,-7.49565e-08,2.07497e-07,-7.69555e-08,0.000449286,0.0271262,-2.22291e-05,0.0269362,2,4519
12,7.74657e-22,1,6811,91.26,-2.69211e-06,1.46566e-05,-3.8339e-08,1.49019e-05,81,-49.63,-179.82,1.0833e+07,1e+06,-7.15842e-08,2.0494e-07,-7.66772e-08,0.00111295,0.0270305,-4.81308e-05,0.0265405,2,4520
12,7.74657e-22,1,6812,91.26,-2.76205e-06,1.46549e-05,-3.80509e-08,1.4913e-05,81,-49.63,-179.82,1.0833e+07,1e+06,-6.87498e-08,2.02281e-07,-7.60927e-08,0.00162774,0.0268802,-3.57797e-05,0.0261521,2,4521
12,7.74657e-22,1,6813,91.26,-2.82961e-06,1.4652e-05,-3.77804e-08,1.49228e-05,81,-49.63,-179.82,1.0833e+07,1e+06,-6.6799e-08,2.00173e-07,-7.55625e-08,0.0019537,0.0267302,-2.6707e-05,0.0258539,2,4522
12,7.74657e-22,1,6814,91.26,-2.89564e-06,1.46484e-05,-3.75819e-08,1.49319e-05,81,-49.63,-179.82,1.0833e+07,1e+06,-6.5595e-08,1.98754e-07,-7.51631e-08,0.00214392,0.02662,-1.56568e-05,0.0256542,2,4523
12,7.74657e-22,1,6815,91.26,-2.9608e-06,1.46444e-05,-3.74521e-08,1.49407e-05,81,-49.63,-179.82,1.0833e+07,1e+06,-6.49084e-08,1.97907e-07,-7.49026e-08,0.00224975,0.026553,-4.68885e-06,0.0255348,2,4524
12,7.74657e-22,1,6816,91.26,-3.02546e-06,1.46398e-05,-3.73811e-08,1.49492e-05,81,-49.63,-179.82,1.0833e+07,1e+06,-6.44832e-08,1.97466e-07,-7.47614e-08,0.00232511,0.026528,7.24941e-06,0.0254717,2,4525
12,7.74657e-22,1,6817,91.26,-3.08976e-06,1.46346e-05,-3.73622e-08,1.49572e-05,81,-49.63,-179.82,1.0833e+07,1e+06,-6.40579e-08,1.9727e-07,-7.47231e-08,0.00242607,0.0265452,2.13854e-05,0.0254431,2,4526
12,7.74657e-22,1,6818,91.26,-3.15358e-06,1.46282e-05,-3.73894e-08,1.49643e-05,81,-49.63,-179.82,1.0833e+07,1e+06,-6.33774e-08,1.97147e-07,-7.47825e-08,0.00260494,0.0266006,3.40888e-05,0.0254305,2,4527
12,7.74657e-22,1,6819,91.26,-3.21652e-06,1.46203e-05,-3.74653e-08,1.497e-05,81,-49.63,-179.82,1.0833e+07,1e+06,-6.21486e-08,1.96977e-07,-7.49318e-08,0.00293224,0.0267069,5.13202e-05,0.0254228,2,4528
12,7.74657e-22,1,6820,91.26,-3.27787e-06,1.461e-05,-3.75685e-08,1.49732e-05,81,-49.63,-179.82,1.0833e+07,1e+06,-6.01836e-08,1.96537e-07,-7.52118e-08,0.00342865,0.0268324,4.65489e-05,0.0254216,2,4529
12,7.74657e-22,1,6821,91.26,-3.33689e-06,1.45961e-05,-3.77009e-08,1.49727e-05,81,-49.63,-179.82,1.0833e+07,1e+06,-5.71007e-08,1.95798e-07,-7.55811e-08,0.00421098,0.0270264,4.90204e-05,0.0254277,2,4530
12,7.47894e-22,1,6822,91.26,-3.39207e-06,1.45776e-05,-3.73574e-08,1.49671e-05,80.5625,-49.63,-179.82,1.01872e+07,968750,-5.10532e-08,1.91268e-07,-7.45033e-08,0.0050482,0.0271766,4.62763e-05,0.0255166,2,4531
12,6.40844e-22,1,6823,91.26,-3.43899e-06,1.4546e-05,-3.49512e-08,1.49471e-05,78.8125,-49.63,-179.82,7.60394e+06,843750,-4.00496e-08,1.74955e-07,-6.94599e-08,0.0048529,0.0262274,-9.43568e-05,0.0250267,2,4532
12,4.80267e-22,2,6824,76.12,-3.47217e-06,1.44836e-05,-3.19148e-08,1.4894e-05,76.1875,38.14,139.31,3.72906e+06,656250,-2.80514e-08,1.5216e-07,-6.38156e-08,0.00335015,0.0239594,-0.000474785,0.0234213,3,2290
12,3.47193e-22,2,6825,76.12,-3.4951e-06,1.43903e-05,-2.50688e-08,1.48087e-05,79.4375,38.14,139.31,3.72906e+06,656250,-2.49169e-08,1.38985e-07,-5.05575e-08,0.00251567,0.0255519,2.79784e-05,0.0246577,3,2291
12,2.68384e-22,1,6826,118.57,-3.52201e-06,1.43111e-05,-1.72188e-08,1.47382e-05,89,73.1,-29.9,8.24975e+06,875000,-3.11947e-08,1.41566e-07,-3.47726e-08,0.00287515,0.0324594,0.000651924,0.0308514,2,4533
12,2.42361e-22,1,6827,118.57,-3.55749e-06,1.42627e-05,-1.61723e-08,1.46997e-05,94,73.1,-29.9,1.0833e+07,1e+06,-3.78353e-08,1.54163e-07,-3.21812e-08,0.00302025,0.0383538,0.000337005,0.0368306,2,4534
12,2.42361e-22,1,6828,118.57,-3.59768e-06,1.42256e-05,-1.76924e-08,1.46735e-05,94,73.1,-29.9,1.0833e+07,1e+06,-4.24347e-08,1.66993e-07,-3.51975e-08,0.00273156,0.0415253,3.91163e-05,0.0403609,2,4535
12,2.42361e-22,1,6829,118.57,-3.64235e-06,1.42007e-05,-1.86496e-08,1.46604e-05,94,73.1,-29.9,1.0833e+07,1e+06,-4.61215e-08,1.78855e-07,-3.67806e-08,0.00264521,0.0446725,0.000245998,0.043575,2,4536
12,2.42361e-22,1,6830,118.57,-3.68992e-06,1.41938e-05,-1.91476e-08,1.46656e-05,94,73.1,-29.9,1.0833e+07,1e+06,-4.72176e-08,1.89617e-07,-3.86244e-08,0.00286923,0.0479238,0.000648164,0.0469149,2,4537
12,2.63675e-22,1,6831,118.57,-3.73679e-06,1.42126e-05,-2.62111e-08,1.46957e-05,92.6875,73.1,-29.9,8.89556e+06,906250,-5.49931e-08,2.11133e-07,-5.38257e-08,0.00199131,0.0477159,-0.000247144,0.048271,2,4538
12,3.1341e-22,2,6832,26.35,-3.79991e-06,1.42336e-05,-4.37492e-08,1.47322e-05,89.625,19.24,-38.99,4.37487e+06,687500,-7.99783e-08,2.59396e-07,-8.67002e-08,0.00016841,0.0423557,-0.000930483,0.0444439,3,2292
12,3.48935e-22,2,6833,26.35,-3.89675e-06,1.42064e-05,-5.59377e-08,1.47313e-05,87.4375,19.24,-38.99,1.14581e+06,531250,-1.05136e-07,3.03808e-07,-1.1087e-07,-0.000789234,0.0379493,-0.000160092,0.0397633,3,2293
12,3.5604e-22,2,6834,26.35,-4.01018e-06,1.41449e-05,-5.77008e-08,1.47025e-05,87,19.24,-38.99,500000,500000,-1.13155e-07,3.14651e-07,-1.15843e-07,-0.00118776,0.0367751,0.000215917,0.0383579,3,2294
12,3.5604e-22,2,6835,26.35,-4.12306e-06,1.40897e-05,-5.72038e-08,1.46807e-05,87,19.24,-38.99,500000,500000,-1.12151e-07,3.08017e-07,-1.14475e-07,-0.001695,0.0356862,3.04127e-05,0.037694,3,2295
12,3.5604e-22,2,6836,26.35,-4.23448e-06,1.40416e-05,-5.53756e-08,1.46663e-05,87,19.24,-38.99,500000,500000,-1.11583e-07,2.99826e-07,-1.10697e-07,-0.00213967,0.0345885,-3.44927e-05,0.0369459,3,2296
12,3.5604e-22,2,6837,26.35,-4.34622e-06,1.39962e-05,-5.23212e-08,1.46556e-05,87,19.24,-38.99,500000,500000,-1.115e-07,2.90165e-07,-1.04728e-07,-0.00254005,0.0333809,6.46797e-05,0.0359874,3,2297
12,3.5604e-22,2,6838,26.35,-4.45748e-06,1.39522e-05,-4.8473e-08,1.4647e-05,87,19.24,-38.99,500000,500000,-1.07461e-07,2.74272e-07,-9.75234e-08,-0.00285595,0.0315912,0.000227013,0.0344581,3,2298
12,3.80076e-22,2,6839,26.35,-4.56114e-06,1.39216e-05,-4.59382e-08,1.46498e-05,88.625,19.24,-38.99,1.14581e+06,531250,-9.45778e-08,2.50755e-07,-9.14666e-08,-0.00282093,0.0305798,-0.000504541,0.0340381,3,2299
12,5.00258e-22,2,6840,26.35,-4.64664e-06,1.39009e-05,-4.32151e-08,1.4657e-05,96.75,19.24,-38.99,4.37487e+06,687500,-7.34766e-08,2.41694e-07,-8.56353e-08,-0.000761663,0.0392014,-0.00102127,0.0419446,3,2300
12,6.68512e-22,1,6841,137.15,-4.7081e-06,1.39025e-05,-3.74982e-08,1.46781e-05,108.125,109.19,-42.07,8.89556e+06,906250,-5.57666e-08,2.41256e-07,-7.58693e-08,0.00146287,0.0511754,0.0004246,0.0513848,2,4539
12,7.40621e-22,1,6842,137.15,-4.75817e-06,1.39197e-05,-3.56135e-08,1.47105e-05,113,109.19,-42.07,1.0833e+07,1e+06,-5.04388e-08,2.37404e-07,-7.13302e-08,0.00158122,0.05482,0.000918736,0.0542482,2,4540
12,7.40621e-22,1,6843,137.15,-4.80897e-06,1.39272e-05,-3.60612e-08,1.47341e-05,113,109.19,-42.07,1.0833e+07,1e+06,-5.00481e-08,2.32884e-07,-7.16372e-08,0.00122627,0.0537736,0.000120897,0.053974,2,4541
12,7.40621e-22,1,6844,137.15,-4.85827e-06,1.39284e-05,-3.34182e-08,1.47514e-05,113,109.19,-42.07,1.0833e+07,1e+06,-4.78082e-08,2.20553e-07,-6.72534e-08,0.00108609,0.0512409,-3.53658e-05,0.0517889,2,4542
12,6.68765e-22,1,6845,137.15,-4.90459e-06,1.39113e-05,-3.32595e-08,1.47506e-05,109.625,109.19,-42.07,8.89556e+06,906250,-4.68833e-08,2.11769e-07,-6.68764e-08,0.00120345,0.0461028,-0.000128046,0.0473258,2,4543
12,5.25052e-22,2,6846,104.3,-4.95203e-06,1.38768e-05,-3.93645e-08,1.4734e-05,102.875,72.82,111.89,5.02069e+06,718750,-4.6201e-08,2.07677e-07,-7.8097e-08,0.000850648,0.0370291,-0.000464028,0.0391618,3,2301
12,5.011e-22,2,6847,104.3,-4.99699e-06,1.38567e-05,-4.04582e-08,1.47302e-05,101.75,72.82,111.89,4.37488e+06,687500,-3.88757e-08,1.91791e-07,-8.03547e-08,0.00112013,0.0318059,-0.000951976,0.0336279,3,2302
12,6.20861e-22,1,6848,137.15,-5.02979e-06,1.38734e-05,-3.1761e-08,1.47571e-05,107.375,109.19,-42.07,7.60394e+06,843750,-2.82271e-08,1.65904e-07,-6.40772e-08,0.00256757,0.0327289,-0.000694867,0.0328545,2,4544
12,7.16669e-22,1,6849,137.15,-5.05345e-06,1.39115e-05,-2.53697e-08,1.4801e-05,111.875,109.19,-42.07,1.01872e+07,968750,-2.23693e-08,1.48871e-07,-5.08928e-08,0.00339444,0.0335716,0.000115281,0.0323543,2,4545
12,7.40621e-22,1,6850,137.15,-5.07452e-06,1.39524e-05,-2.39303e-08,1.48466e-05,113,109.19,-42.07,1.0833e+07,1e+06,-2.11265e-08,1.41389e-07,-4.77266e-08,0.00324425,0.0325146,0.000196635,0.0311292,2,4546
12,7.40621e-22,1,6851,137.15,-5.0957e-06,1.4e-05,-2.43142e-08,1.48986e-05,113,109.19,-42.07,1.0833e+07,1e+06,-2.20639e-08,1.39769e-07,-4.86797e-08,0.00277092,0.0314761,-3.14653e-05,0.030314,2,4547
12,7.40621e-22,1,6852,137.15,-5.11865e-06,1.40638e-05,-2.53246e-08,1.49663e-05,113,109.19,-42.07,1.0833e+07,1e+06,-2.44404e-08,1.43917e-07,-5.06377e-08,0.0023141,0.0318118,-2.51684e-06,0.030756,2,4548
12,7.40621e-22,1,6853,137.15,-5.14458e-06,1.41427e-05,-2.65471e-08,1.50494e-05,113,109.19,-42.07,1.0833e+07,1e+06,-2.74498e-08,1.5076e-07,-5.3098e-08,0.00187206,0.0329186,1.34998e-05,0.0320289,2,4549
12,7.40621e-22,1,6854,137.15,-5.17355e-06,1.42336e-05,-2.78867e-08,1.51446e-05,113,109.19,-42.07,1.0833e+07,1e+06,-3.0243e-08,1.59138e-07,-5.57976e-08,0.00161357,0.0345804,4.02856e-05,0.0337902,2,4550
12,7.40621e-22,1,6855,137.15,-5.20507e-06,1.43344e-05,-2.95669e-08,1.52502e-05,113,109.19,-42.07,1.0833e+07,1e+06,-3.19506e-08,1.68326e-07,-5.90973e-08,0.00169838,0.0365182,8.99077e-05,0.0356774,2,4551
12,7.17722e-22,1,6856,137.15,-5.23745e-06,1.44496e-05,-3.20417e-08,1.53696e-05,112.938,109.19,-42.07,1.01872e+07,968750,-3.21003e-08,1.76399e-07,-6.37871e-08,0.00191537,0.0373735,0.000135531,0.036458,2,4552
12,6.23934e-22,1,6857,137.15,-5.26927e-06,1.45827e-05,-3.49799e-08,1.55056e-05,113.188,109.19,-42.07,7.60394e+06,843750,-3.02968e-08,1.81843e-07,-6.99232e-08,0.00153293,0.0359991,0.000762685,0.0351493,2,4553
12,5.46473e-22,2,6858,97.33,-5.29805e-06,1.47031e-05,-3.73105e-08,1.56286e-05,115,-57.95,-141.14,5.6665e+06,750000,-2.35355e-08,1.71488e-07,-7.49427e-08,-5.57075e-05,0.0323365,0.000732469,0.0324383,3,2303
12,6.02026e-22,1,6859,9.52003,-5.31634e-06,1.47642e-05,-3.67448e-08,1.56923e-05,118.188,63.66,-15.5,7.60394e+06,843750,-1.32878e-08,1.4499e-07,-7.38004e-08,-0.00178113,0.0289473,-0.000276548,0.030307,2,4554
12,6.84859e-22,1,6860,9.52003,-5.32462e-06,1.47677e-05,-3.68522e-08,1.56983e-05,120.438,63.66,-15.5,1.01872e+07,968750,-6.54176e-09,1.36103e-07,-7.37198e-08,-0.00224689,0.0298889,-0.000276678,0.031302,2,4555
12,7.05568e-22,1,6861,9.52003,-5.32942e-06,1.47529e-05,-3.95254e-08,1.56861e-05,121,63.66,-15.5,1.0833e+07,1e+06,-3.69852e-09,1.43693e-07,-7.88138e-08,-0.00194708,0.0322779,-3.71193e-06,0.0333151,2,4556
12,7.05568e-22,1,6862,9.52003,-5.33202e-06,1.47374e-05,-4.16105e-08,1.56723e-05,121,63.66,-15.5,1.0833e+07,1e+06,-1.84728e-09,1.49415e-07,-8.31675e-08,-0.00157686,0.0335298,-3.01498e-05,0.0343782,2,4557
12,7.05568e-22,1,6863,9.52003,-5.33312e-06,1.472e-05,-4.33658e-08,1.56564e-05,121,63.66,-15.5,1.0833e+07,1e+06,-4.16617e-10,1.5474e-07,-8.67346e-08,-0.0012708,0.0347456,2.8823e-05,0.0354021,2,4558
12,7.05568e-22,1,6864,9.52003,-5.33285e-06,1.47038e-05,-4.47567e-08,1.5641e-05,121,63.66,-15.5,1.0833e+07,1e+06,1.05843e-09,1.58017e-07,-8.95128e-08,-0.000997202,0.0354689,1.01577e-05,0.0359943,2,4559
12,7.05568e-22,1,6865,9.52003,-5.331e-06,1.46891e-05,-4.59094e-08,1.56266e-05,121,63.66,-15.5,1.0833e+07,1e+06,2.60278e-09,1.60378e-07,-9.1815e-08,-0.000696598,0.0359809,-7.73879e-06,0.036361,2,4560
12,7.05568e-22,1,6866,9.52003,-5.32765e-06,1.46745e-05,-4.70911e-08,1.56117e-05,121,63.66,-15.5,1.0833e+07,1e+06,3.97281e-09,1.63084e-07,-9.41813e-08,-0.000418135,0.0365631,-2.0688e-05,0.036804,2,4561
12,7.05568e-22,1,6867,9.52003,-5.32305e-06,1.46576e-05,-4.85026e-08,1.55943e-05,121,63.66,-15.5,1.0833e+07,1e+06,4.94959e-09,1.66919e-07,-9.70069e-08,-0.000221326,0.0373776,-4.74111e-05,0.0375249,2,4562
12,7.05568e-22,1,6868,9.52003,-5.31775e-06,1.46356e-05,-5.00161e-08,1.55718e-05,121,63.66,-15.5,1.0833e+07,1e+06,5.39629e-09,1.72488e-07,-1.00024e-07,-8.49854e-05,0.0386452,3.46423e-05,0.0386762,2,4563
12,5.74276e-22,1,6869,153.51,-2.26155e-08,1.42716e-05,-3.74548e-08,1.42717e-05,29,-89.16,129.77,1.0833e+07,1e+06,-4.45113e-08,1.99865e-07,-7.41976e-08,-0.00645256,0.0452503,0.0014312,0.0484333,2,4564
12,5.47694e-22,1,6870,153.51,-6.64072e-08,1.43944e-05,-3.78378e-08,1.43946e-05,28.375,-89.16,129.77,1.01872e+07,968750,-4.73004e-08,2.0204e-07,-7.64498e-08,-0.00619882,0.0429301,0.00160165,0.0461873,2,4565
12,4.41365e-22,1,6871,153.51,-1.17216e-07,1.45346e-05,-4.28003e-08,1.45351e-05,25.875,-89.16,129.77,7.60394e+06,843750,-7.28566e-08,2.24554e-07,-8.71598e-08,-0.00622477,0.0360527,0.000199492,0.04052,2,4566
12,3.08455e-22,2,6872,161.73,-2.1212e-07,1.46381e-05,-5.15121e-08,1.46397e-05,22.75,119.12,126.69,4.37488e+06,687500,-1.14064e-07,2.73715e-07,-1.02778e-07,-0.00566378,0.030034,-0.000223293,0.034428,3,2304
12,2.55291e-22,2,6873,161.73,-3.45343e-07,1.47041e-05,-5.83081e-08,1.47082e-05,21.5,119.12,126.69,3.08325e+06,625000,-1.32121e-07,2.9882e-07,-1.15559e-07,-0.00564141,0.0270866,-0.00116535,0.0316022,3,2305
12,2.55291e-22,2,6874,161.73,-4.76363e-07,1.47559e-05,-5.93748e-08,1.47637e-05,21.5,119.12,126.69,3.08325e+06,625000,-1.27563e-07,2.95981e-07,-1.18425e-07,-0.00549837,0.0267946,-0.00151774,0.0313356,3,2306
12,2.55291e-22,2,6875,161.73,-6.00469e-07,1.4795e-05,-5.75884e-08,1.48073e-05,21.5,119.12,126.69,3.08325e+06,625000,-1.23847e-07,2.86794e-07,-1.14838e-07,-0.00542859,0.0258968,-0.00145978,0.0303942,3,2307
12,2.55291e-22,2,6876,161.73,-7.24058e-07,1.48231e-05,-5.2567e-08,1.48409e-05,21.5,119.12,126.69,3.08325e+06,625000,-1.22272e-07,2.72417e-07,-1.0471e-07,-0.00552307,0.0244006,-0.000982964,0.0288034,3,2308
12,3.08455e-22,2,6877,161.73,-8.45012e-07,1.48372e-05,-4.53469e-08,1.48613e-05,22.75,119.12,126.69,4.37488e+06,687500,-1.03237e-07,2.36209e-07,-9.03288e-08,-0.00613662,0.0249067,-0.000890667,0.0298462,3,2309
12,4.14783e-22,1,6878,153.51,-9.30532e-07,1.48343e-05,-3.57239e-08,1.48635e-05,25.25,-89.16,129.77,6.95812e+06,812500,-6.79759e-08,1.83222e-07,-7.18704e-08,-0.00597498,0.0255938,-0.000461751,0.0301687,2,4567
12,4.9453e-22,1,6879,153.51,-9.80964e-07,1.47905e-05,-2.69338e-08,1.4823e-05,27.125,-89.16,129.77,8.89556e+06,906250,-4.46607e-08,1.44244e-07,-5.49518e-08,-0.00536445,0.025637,0.000218686,0.0291969,2,4568
12,5.47694e-22,1,6880,153.51,-1.01985e-06,1.47021e-05,-2.31241e-08,1.47375e-05,28.375,-89.16,129.77,1.01872e+07,968750,-3.53673e-08,1.27789e-07,-4.67203e-08,-0.00547657,0.0275304,0.000333462,0.0308051,2,4569
12,5.74276e-22,1,6881,153.51,-1.0517e-06,1.46047e-05,-2.39517e-08,1.46425e-05,29,-89.16,129.77,1.0833e+07,1e+06,-3.21319e-08,1.29837e-07,-4.73805e-08,-0.00535328,0.0299332,0.000365954,0.0329213,2,4570
12,5.74276e-22,1,6882,153.51,-1.08412e-06,1.45152e-05,-2.66323e-08,1.45557e-05,29,-89.16,129.77,1.0833e+07,1e+06,-3.2639e-08,1.39839e-07,-5.28702e-08,-0.00538246,0.0322177,9.57286e-05,0.0353262,2,4571
12,5.74276e-22,1,6883,153.51,-1.11698e-06,1.44396e-05,-2.86256e-08,1.44828e-05,29,-89.16,129.77,1.0833e+07,1e+06,-3.33625e-08,1.48036e-07,-5.73045e-08,-0.00544984,0.0338915,-3.92615e-06,0.037037,2,4572
12,5.74276e-22,1,6884,153.51,-1.15084e-06,1.43837e-05,-3.00255e-08,1.44297e-05,29,-89.16,129.77,1.0833e+07,1e+06,-3.41792e-08,1.52926e-07,-6.0056e-08,-0.00557329,0.0346745,-8.37416e-06,0.0378272,2,4573
12,5.74276e-22,1,6885,153.51,-1.18533e-06,1.43481e-05,-3.07215e-08,1.4397e-05,29,-89.16,129.77,1.0833e+07,1e+06,-3.46239e-08,1.54424e-07,-6.14587e-08,-0.00568104,0.0346319,-3.13492e-05,0.0378255,2,4574
12,5.74276e-22,1,6886,153.51,-1.22009e-06,1.43299e-05,-3.08965e-08,1.43818e-05,29,-89.16,129.77,1.0833e+07,1e+06,-3.48136e-08,1.53843e-07,-6.17884e-08,-0.00575678,0.0341692,-3.82874e-05,0.0374239,2,4575
12,5.74276e-22,1,6887,153.51,-1.25496e-06,1.43251e-05,-3.06665e-08,1.438e-05,29,-89.16,129.77,1.0833e+07,1e+06,-3.49102e-08,1.5197e-07,-6.1338e-08,-0.00582904,0.0334961,-4.59028e-05,0.0368354,2,4576
12,5.74276e-22,1,6888,153.51,-1.28991e-06,1.43289e-05,-3.00964e-08,1.43868e-05,29,-89.16,129.77,1.0833e+07,1e+06,-3.50669e-08,1.49074e-07,-6.01611e-08,-0.0059352,0.0326874,-6.09392e-05,0.0361337,2,4577
12,5.74276e-22,1,6889,153.51,-1.3251e-06,1.43359e-05,-2.92009e-08,1.4397e-05,29,-89.16,129.77,1.0833e+07,1e+06,-3.53929e-08,1.45582e-07,-5.8592e-08,-0.00610532,0.0318385,-0.000156653,0.0354397,2,4578
12,5.74276e-22,1,6890,153.51,-1.3607e-06,1.43405e-05,-2.82322e-08,1.4405e-05,29,-89.16,129.77,1.0833e+07,1e+06,-3.62051e-08,1.41539e-07,-5.65843e-08,-0.00641497,0.0309291,-0.000349193,0.0347897,2,4579
12,5.7053e-22,1,6891,153.51,-1.39751e-06,1.43386e-05,-2.55605e-08,1.44066e-05,29.8125,-89.16,129.77,1.0833e+07,1e+06,-3.8682e-08,1.35458e-07,-5.08197e-08,-0.0068071,0.0300366,-0.000448951,0.0343052,2,4580
12,5.44174e-22,1,6892,153.51,-1.43806e-06,1.43219e-05,-1.86169e-08,1.43939e-05,33.1875,-89.16,129.77,1.01872e+07,968750,-4.67668e-08,1.31301e-07,-3.62855e-08,-0.00606623,0.02972,6.44981e-05,0.0339248,2,4581
12,5.02699e-22,1,6893,125.44,-1.49104e-06,1.42826e-05,-1.01137e-08,1.43602e-05,37.5,67.45,-41.35,8.89556e+06,906250,-5.84406e-08,1.25785e-07,-1.99686e-08,-0.00474471,0.0262921,0.000749791,0.0305735,2,4582
12,5.11014e-22,1,6894,125.44,-1.55494e-06,1.42749e-05,-7.31759e-09,1.43593e-05,40.75,67.45,-41.35,8.89556e+06,906250,-6.37619e-08,1.23971e-07,-1.67359e-08,-0.00506836,0.0249425,0.000325232,0.0302602,2,4583
12,6.04478e-22,1,6895,125.44,-1.61856e-06,1.43264e-05,-1.33569e-08,1.44175e-05,45.375,67.45,-41.35,1.01872e+07,968750,-6.40608e-08,1.42675e-07,-2.73027e-08,-0.00528609,0.0308744,-0.000515564,0.0361504,2,4584
12,7.09865e-22,1,6896,130.6,-1.68306e-06,1.43901e-05,-2.01377e-08,1.44882e-05,50.125,117.2,-48.36,1.0833e+07,1e+06,-6.40501e-08,1.65413e-07,-3.92345e-08,-0.00367266,0.0348461,-0.000376721,0.0381064,2,4585
12,7.6852e-22,1,6897,130.6,-1.74666e-06,1.44403e-05,-2.50349e-08,1.45456e-05,52.5625,117.2,-48.36,1.0833e+07,1e+06,-6.21083e-08,1.80771e-07,-4.93527e-08,-0.00158763,0.0362973,-0.000353181,0.0377562,2,4586
12,8.07623e-22,1,6898,130.6,-1.80728e-06,1.44887e-05,-2.8337e-08,1.46011e-05,54.1875,117.2,-48.36,1.0833e+07,1e+06,-6.1256e-08,1.91528e-07,-5.64319e-08,-0.000352282,0.0373291,-0.000374423,0.0378776,2,4587
12,8.27175e-22,1,6899,130.6,-1.86918e-06,1.45416e-05,-2.83889e-08,1.46613e-05,55,117.2,-48.36,1.0833e+07,1e+06,-6.23502e-08,1.93551e-07,-5.72605e-08,-0.000294818,0.0369868,-4.00075e-05,0.0372722,2,4588
12,8.27175e-22,1,6900,130.6,-1.93198e-06,1.45892e-05,-2.8231e-08,1.47166e-05,55,117.2,-48.36,1.0833e+07,1e+06,-6.31675e-08,1.92861e-07,-5.64947e-08,-0.000600958,0.0369224,-3.69509e-05,0.0374615,2,4589
12,8.27175e-22,1,6901,130.6,-1.99551e-06,1.46347e-05,-2.81596e-08,1.47702e-05,55,117.2,-48.36,1.0833e+07,1e+06,-6.4524e-08,1.93545e-07,-5.63317e-08,-0.00094068,0.0370246,-5.21533e-05,0.0377882,2,4590
12,8.27175e-22,1,6902,130.6,-2.06103e-06,1.46826e-05,-2.82207e-08,1.48266e-05,55,117.2,-48.36,1.0833e+07,1e+06,-6.70191e-08,1.94836e-07,-5.64222e-08,-0.00153411,0.0370029,-7.86848e-05,0.0380592,2,4591
12,8.27175e-22,1,6903,130.6,-2.12955e-06,1.47397e-05,-2.78826e-08,1.48928e-05,55,117.2,-48.36,1.0833e+07,1e+06,-6.91686e-08,1.95241e-07,-5.5406e-08,-0.00197798,0.0367365,0.0002706,0.0377698,2,4592
12,8.0058e-22,1,6904,130.6,-2.19937e-06,1.48112e-05,-2.68541e-08,1.49736e-05,54.9375,117.2,-48.36,1.01872e+07,968750,-6.76481e-08,1.86938e-07,-5.46531e-08,-0.0024458,0.0341483,-2.30017e-05,0.0355658,2,4593
12,6.67603e-22,1,6905,130.6,-2.26485e-06,1.48809e-05,-3.18756e-08,1.50523e-05,54.625,117.2,-48.36,6.95812e+06,812500,-5.9063e-08,1.91463e-07,-6.41635e-08,-0.00140303,0.0331371,-0.000360145,0.0344251,2,4594
12,4.81437e-22,2,6906,99.23,-2.31749e-06,1.48876e-05,-4.07193e-08,1.50669e-05,54.1875,131.95,-38.71,2.43744e+06,593750,-4.70975e-08,2.03323e-07,-8.04945e-08,7.76135e-05,0.0328189,-0.000300695,0.0335182,3,2310
12,4.24964e-22,2,6907,99.23,-2.35904e-06,1.48525e-05,-4.28375e-08,1.50387e-05,55.6875,131.95,-38.71,1.14581e+06,531250,-4.32883e-08,2.01461e-07,-8.50622e-08,0.000346862,0.0309509,-0.00040575,0.031612,3,2311
12,5.41528e-22,2,6908,99.23,-2.40407e-06,1.48399e-05,-3.84382e-08,1.50334e-05,64.125,131.95,-38.71,4.37488e+06,687500,-5.49747e-08,1.97765e-07,-7.70161e-08,-3.04422e-05,0.0291266,-9.49067e-05,0.0297757,3,2312
12,7.04718e-22,1,6909,91.26,-2.46899e-06,1.48497e-05,-3.76426e-08,1.50536e-05,75.9375,-49.63,-179.82,8.89556e+06,906250,-7.1893e-08,2.03938e-07,-7.56787e-08,-0.000376836,0.027435,-0.000226023,0.0280381,2,4595
12,7.74657e-22,1,6910,91.26,-2.54785e-06,1.4863e-05,-3.96128e-08,1.50799e-05,81,-49.63,-179.82,1.0833e+07,1e+06,-7.74466e-08,2.11645e-07,-7.92046e-08,0.000168124,0.0274417,-0.00034961,0.0276083,2,4596
12,7.74657e-22,1,6911,91.26,-2.62388e-06,1.48651e-05,-3.89182e-08,1.50949e-05,81,-49.63,-179.82,1.0833e+07,1e+06,-7.39728e-08,2.08823e-07,-7.79821e-08,0.00085602,0.027425,-9.19103e-05,0.0271085,2,4597
12,7.74657e-22,1,6912,91.26,-2.6958e-06,1.48621e-05,-3.84961e-08,1.51047e-05,81,-49.63,-179.82,1.0833e+07,1e+06,-7.0423e-08,2.05089e-07,-7.69045e-08,0.00145899,0.0271912,-1.79747e-05,0.0265631,2,4598
12,7.74657e-22,1,6913,91.26,-2.76473e-06,1.48573e-05,-3.80255e-08,1.51124e-05,81,-49.63,-179.82,1.0833e+07,1e+06,-6.7845e-08,2.01851e-07,-7.60689e-08,0.00183791,0.0269072,-2.58092e-05,0.0261095,2,4599
12,7.74657e-22,1,6914,91.26,-2.83149e-06,1.4852e-05,-3.7703e-08,1.51196e-05,81,-49.63,-179.82,1.0833e+07,1e+06,-6.6071e-08,1.99546e-07,-7.54047e-08,0.00209426,0.0267059,-1.49017e-05,0.0257809,2,4600
12,7.74657e-22,1,6915,91.26,-2.89687e-06,1.4847e-05,-3.74979e-08,1.5127e-05,81,-49.63,-179.82,1.0833e+07,1e+06,-6.49927e-08,1.9811e-07,-7.49919e-08,0.00224627,0.0265766,-1.03141e-05,0.0255741,2,4601
12,7.74657e-22,1,6916,91.26,-2.96147e-06,1.48421e-05,-3.74065e-08,1.51347e-05,81,-49.63,-179.82,1.0833e+07,1e+06,-6.44424e-08,1.97471e-07,-7.4809e-08,0.00233456,0.0265283,-3.58139e-06,0.0254783,2,4602
12,7.74657e-22,1,6917,91.26,-3.02576e-06,1.48372e-05,-3.74205e-08,1.51426e-05,81,-49.63,-179.82,1.0833e+07,1e+06,-6.42416e-08,1.97522e-07,-7.4838e-08,0.00239825,0.0265629,8.52643e-06,0.0254789,2,4603
12,7.74657e-22,1,6918,91.26,-3.08996e-06,1.4832e-05,-3.75292e-08,1.51505e-05,81,-49.63,-179.82,1.0833e+07,1e+06,-6.4161e-08,1.98074e-07,-7.50602e-08,0.0024806,0.0266706,2.21079e-05,0.0255547,2,4604
12,7.74657e-22,1,6919,91.26,-3.15408e-06,1.48259e-05,-3.77298e-08,1.51577e-05,81,-49.63,-179.82,1.0833e+07,1e+06,-6.38784e-08,1.98967e-07,-7.54603e-08,0.00265562,0.0268598,4.19721e-05,0.0256882,2,4605
12,7.74657e-22,1,6920,91.26,-3.21771e-06,1.48182e-05,-3.79942e-08,1.51636e-05,81,-49.63,-179.82,1.0833e+07,1e+06,-6.31368e-08,1.99899e-07,-7.60667e-08,0.00295499,0.027092,3.95516e-05,0.0258698,2,4606
12,7.74657e-22,1,6921,91.26,-3.28035e-06,1.48079e-05,-3.82932e-08,1.51669e-05,81,-49.63,-179.82,1.0833e+07,1e+06,-6.14174e-08,2.00675e-07,-7.67932e-08,0.00351693,0.0274027,4.37479e-05,0.0260755,2,4607
12,7.47894e-22,1,6922,91.26,-3.34055e-06,1.47939e-05,-3.80578e-08,1.51664e-05,80.5625,-49.63,-179.82,1.01872e+07,968750,-5.67254e-08,1.97408e-07,-7.58939e-08,0.00412809,0.0276605,3.65808e-05,0.0263664,2,4608
12,6.40844e-22,1,6923,91.26,-3.3938e-06,1.47678e-05,-3.5409e-08,1.51528e-05,78.8125,-49.63,-179.82,7.60394e+06,843750,-4.71923e-08,1.81348e-07,-7.02794e-08,0.003681,0.0267228,-0.000129673,0.0260184,2,4609
12,4.80267e-22,2,6924,76.12,-3.43493e-06,1.47121e-05,-3.08017e-08,1.51078e-05,76.1875,38.14,139.31,3.72906e+06,656250,-3.54594e-08,1.57266e-07,-6.20282e-08,0.0022762,0.0244986,-0.000169028,0.0242462,3,2313
12,3.73216e-22,2,6925,76.12,-3.46472e-06,1.46282e-05,-2.9724e-08,1.50329e-05,74.4375,38.14,139.31,1.14581e+06,531250,-2.80289e-08,1.44362e-07,-5.9438e-08,0.00128375,0.0230236,-0.000211437,0.0227431,3,2314
12,3.26936e-22,2,6926,76.12,-3.49099e-06,1.45298e-05,-2.69484e-08,1.49433e-05,77.75,38.14,139.31,2.43744e+06,593750,-2.99183e-08,1.4571e-07,-5.373e-08,0.00119396,0.0256382,-3.94193e-05,0.0251915,3,2315
12,2.81395e-22,1,6927,118.57,-3.52456e-06,1.44534e-05,-1.93214e-08,1.4877e-05,86.5,73.1,-29.9,6.95812e+06,812500,-3.85816e-08,1.49399e-07,-3.91552e-08,0.00123386,0.0318434,0.000212815,0.0313204,2,4610
12,2.48866e-22,1,6928,118.57,-3.56816e-06,1.44166e-05,-1.54609e-08,1.48516e-05,92.75,73.1,-29.9,1.01872e+07,968750,-4.66045e-08,1.56765e-07,-3.07838e-08,0.00113301,0.0375904,0.000182577,0.0370912,2,4611
12,2.42361e-22,1,6929,118.57,-3.61777e-06,1.43933e-05,-1.55847e-08,1.4841e-05,94,73.1,-29.9,1.0833e+07,1e+06,-5.11498e-08,1.67363e-07,-3.10195e-08,0.00105939,0.0410644,0.000106297,0.0406543,2,4612
12,2.42361e-22,1,6930,118.57,-3.67045e-06,1.43783e-05,-1.64992e-08,1.48394e-05,94,73.1,-29.9,1.0833e+07,1e+06,-5.32203e-08,1.75858e-07,-3.30741e-08,0.000957989,0.0433859,5.22249e-05,0.0431994,2,4613
12,2.42361e-22,1,6931,118.57,-3.72421e-06,1.438e-05,-1.74275e-08,1.48545e-05,94,73.1,-29.9,1.0833e+07,1e+06,-5.27634e-08,1.8347e-07,-3.47072e-08,0.00114943,0.0460094,0.000427892,0.0460069,2,4614
12,2.49465e-22,1,6932,118.57,-3.77598e-06,1.4412e-05,-2.06816e-08,1.48985e-05,93.5625,73.1,-29.9,1.01872e+07,968750,-5.04853e-08,1.89786e-07,-4.14611e-08,0.00118995,0.0465212,0.000197168,0.047409,2,4615
12,2.77885e-22,1,6933,118.57,-3.82518e-06,1.44691e-05,-3.05259e-08,1.49662e-05,91.8125,73.1,-29.9,7.60394e+06,843750,-5.82853e-08,2.08595e-07,-6.17172e-08,7.22184e-05,0.0427052,-0.00116713,0.0453585,2,4616
12,3.20515e-22,2,6934,26.35,-3.89255e-06,1.44938e-05,-4.42294e-08,1.50075e-05,89.1875,19.24,-38.99,3.72906e+06,656250,-8.3778e-08,2.54791e-07,-8.7931e-08,-0.00107079,0.0387358,-0.00120494,0.041765,3,2316
12,3.48935e-22,2,6935,26.35,-3.99273e-06,1.44563e-05,-5.28257e-08,1.49976e-05,87.4375,19.24,-38.99,1.14581e+06,531250,-1.06749e-07,2.95528e-07,-1.04988e-07,-0.00147138,0.0368478,-6.39759e-05,0.0390727,3,2317
12,3.5604e-22,2,6936,26.35,-4.10605e-06,1.43961e-05,-5.51183e-08,1.49703e-05,87,19.24,-38.99,500000,500000,-1.11765e-07,3.03029e-07,-1.1056e-07,-0.00187464,0.0354313,0.000177494,0.037634,3,2318
12,3.5604e-22,2,6937,26.35,-4.21626e-06,1.43405e-05,-5.51489e-08,1.49476e-05,87,19.24,-38.99,500000,500000,-1.08964e-07,2.96415e-07,-1.10346e-07,-0.00218261,0.0344261,-1.31869e-05,0.0369596,3,2319
12,3.5604e-22,2,6938,26.35,-4.32398e-06,1.42858e-05,-5.36046e-08,1.49259e-05,87,19.24,-38.99,500000,500000,-1.06797e-07,2.87985e-07,-1.07149e-07,-0.0023959,0.0333773,-3.28782e-05,0.0361076,3,2320
12,3.5604e-22,2,6939,26.35,-4.42986e-06,1.42254e-05,-4.95206e-08,1.48992e-05,87,19.24,-38.99,500000,500000,-1.00891e-07,2.72947e-07,-9.91875e-08,-0.00202847,0.0318994,0.000588284,0.0341981,3,2321
12,4.28149e-22,2,6940,26.35,-4.52576e-06,1.41628e-05,-4.38681e-08,1.48684e-05,91.875,19.24,-38.99,2.43744e+06,593750,-8.36864e-08,2.40156e-07,-8.82474e-08,-0.00201846,0.0324458,-0.000803202,0.0356349,3,2322
12,5.96403e-22,1,6941,137.15,-4.59723e-06,1.41377e-05,-4.06482e-08,1.48665e-05,103.25,109.19,-42.07,6.95812e+06,812500,-6.26406e-08,2.33202e-07,-8.11271e-08,-0.000378559,0.0439093,-0.00108916,0.0460354,2,4617
12,7.16585e-22,1,6942,137.15,-4.65104e-06,1.41488e-05,-3.91667e-08,1.48937e-05,111.375,109.19,-42.07,1.01872e+07,968750,-5.26521e-08,2.46527e-07,-7.78269e-08,0.00160021,0.0549058,0.000477768,0.0545733,2,4618
12,7.40621e-22,1,6943,137.15,-4.70254e-06,1.41587e-05,-3.77396e-08,1.49193e-05,113,109.19,-42.07,1.0833e+07,1e+06,-5.11913e-08,2.42004e-07,-7.55716e-08,0.001448,0.0554704,0.000206263,0.0553058,2,4619
12,7.40621e-22,1,6944,137.15,-4.75342e-06,1.41606e-05,-3.62618e-08,1.49372e-05,113,109.19,-42.07,1.0833e+07,1e+06,-5.01459e-08,2.33857e-07,-7.26332e-08,0.00123854,0.0538212,1.04343e-06,0.0540223,2,4620
12,7.40621e-22,1,6945,137.15,-4.80283e-06,1.41505e-05,-3.43059e-08,1.49434e-05,113,109.19,-42.07,1.0833e+07,1e+06,-4.87643e-08,2.23916e-07,-6.87137e-08,0.00100737,0.0518239,-7.022e-05,0.0523157,2,4621
12,6.44813e-22,1,6946,137.15,-4.85095e-06,1.41305e-05,-3.56343e-08,1.49401e-05,108.5,109.19,-42.07,8.24975e+06,875000,-5.18547e-08,2.22815e-07,-7.14934e-08,0.000869302,0.0466777,9.01986e-05,0.0476891,2,4622
12,4.53196e-22,2,6947,104.3,-4.90654e-06,1.41012e-05,-4.42173e-08,1.49305e-05,99.5,72.82,111.89,3.08325e+06,625000,-5.6557e-08,2.28339e-07,-8.85621e-08,-6.08176e-05,0.0365832,0.00025556,0.038618,3,2323
12,3.8134e-22,2,6948,104.3,-4.96406e-06,1.40687e-05,-4.82769e-08,1.49189e-05,96.125,72.82,111.89,1.14581e+06,531250,-5.16716e-08,2.20577e-07,-9.62688e-08,-0.00019185,0.030793,3.54105e-05,0.0330389,3,2324
12,5.011e-22,2,6949,104.3,-5.00988e-06,1.4052e-05,-3.85628e-08,1.49184e-05,101.75,72.82,111.89,4.37488e+06,687500,-3.86418e-08,1.86832e-07,-7.65803e-08,0.00127468,0.0313028,-0.000592354,0.0326198,3,2325
12,6.68765e-22,1,6950,137.15,-5.04135e-06,1.40624e-05,-2.68819e-08,1.49388e-05,109.625,109.19,-42.07,8.89556e+06,906250,-2.67515e-08,1.50509e-07,-5.37534e-08,0.00237618,0.0317737,-0.000397549,0.031607,2,4623
12,7.40621e-22,1,6951,137.15,-5.06338e-06,1.40916e-05,-2.30279e-08,1.49737e-05,113,109.19,-42.07,1.0833e+07,1e+06,-2.23319e-08,1.36581e-07,-4.63814e-08,0.00253367,0.0310317,7.6593e-05,0.0299944,2,4624
12,7.40621e-22,1,6952,137.15,-5.08601e-06,1.41382e-05,-2.39522e-08,1.50252e-05,113,109.19,-42.07,1.0833e+07,1e+06,-2.44511e-08,1.37765e-07,-4.79419e-08,0.00192918,0.0305181,-4.25605e-05,0.0296974,2,4625
12,7.40621e-22,1,6953,137.15,-5.11229e-06,1.42072e-05,-2.50846e-08,1.5099e-05,113,109.19,-42.07,1.0833e+07,1e+06,-2.82706e-08,1.43617e-07,-5.01691e-08,0.00117959,0.0311616,-3.32627e-05,0.0306386,2,4626
12,7.40621e-22,1,6954,137.15,-5.14255e-06,1.42938e-05,-2.64358e-08,1.51907e-05,113,109.19,-42.07,1.0833e+07,1e+06,-3.22232e-08,1.52099e-07,-5.28965e-08,0.000580588,0.032655,-3.41915e-05,0.0324118,2,4627
12,7.40621e-22,1,6955,137.15,-5.17673e-06,1.43936e-05,-2.78104e-08,1.52962e-05,113,109.19,-42.07,1.0833e+07,1e+06,-3.59623e-08,1.61653e-07,-5.55887e-08,0.000140847,0.0346194,-1.09047e-05,0.0345722,2,4628
12,7.40621e-22,1,6956,137.15,-5.21448e-06,1.45033e-05,-2.89761e-08,1.54123e-05,113,109.19,-42.07,1.0833e+07,1e+06,-3.87401e-08,1.7007e-07,-5.78909e-08,-9.71223e-05,0.0364574,4.30095e-05,0.0365003,2,4629
12,7.40621e-22,1,6957,137.15,-5.25421e-06,1.46227e-05,-2.99337e-08,1.55381e-05,113,109.19,-42.07,1.0833e+07,1e+06,-3.90917e-08,1.7337e-07,-5.95647e-08,-7.35968e-05,0.0370873,2.14378e-05,0.0371543,2,4630
12,7.11149e-22,1,6958,137.15,-5.29266e-06,1.47548e-05,-2.96476e-08,1.56753e-05,114.438,109.19,-42.07,1.01872e+07,968750,-3.11949e-08,1.67164e-07,-5.9642e-08,0.000177595,0.0361364,0.00102416,0.0358963,2,4631
12,6.72914e-22,1,6959,9.52002,-5.3166e-06,1.48574e-05,-3.30954e-08,1.578e-05,117.875,63.66,-15.5,9.54138e+06,937500,-1.50474e-08,1.4617e-07,-6.67352e-08,-0.00095213,0.0315451,0.000497588,0.0322359,2,4632
12,6.84859e-22,1,6960,9.52003,-5.32276e-06,1.48966e-05,-3.72145e-08,1.5819e-05,120.438,63.66,-15.5,1.01872e+07,968750,-3.94735e-09,1.30859e-07,-7.40984e-08,-0.00194482,0.0284691,-0.000674043,0.0299372,2,4633
12,7.05568e-22,1,6961,9.52003,-5.3245e-06,1.49024e-05,-3.79459e-08,1.5825e-05,121,63.66,-15.5,1.0833e+07,1e+06,-2.09403e-09,1.36185e-07,-7.57042e-08,-0.00158018,0.0305636,-4.12329e-05,0.031425,2,4634
12,7.05568e-22,1,6962,9.52003,-5.32694e-06,1.48974e-05,-3.97875e-08,1.58212e-05,121,63.66,-15.5,1.0833e+07,1e+06,-2.2625e-09,1.4445e-07,-7.96373e-08,-0.0015483,0.0324698,8.45004e-05,0.0332464,2,4635
12,7.05568e-22,1,6963,9.52003,-5.32902e-06,1.4887e-05,-4.17395e-08,1.58121e-05,121,63.66,-15.5,1.0833e+07,1e+06,-1.48723e-09,1.49918e-07,-8.3464e-08,-0.00144083,0.0336338,1.07574e-05,0.034381,2,4636
12,7.05568e-22,1,6964,9.52003,-5.32992e-06,1.48745e-05,-4.33783e-08,1.58007e-05,121,63.66,-15.5,1.0833e+07,1e+06,-2.43846e-10,1.54559e-07,-8.67556e-08,-0.00119596,0.0346655,1.93545e-05,0.0352776,2,4637
12,7.05568e-22,1,6965,9.52003,-5.32951e-06,1.48617e-05,-4.47276e-08,1.57885e-05,121,63.66,-15.5,1.0833e+07,1e+06,1.15092e-09,1.5787e-07,-8.94579e-08,-0.000926458,0.0353969,1.1654e-05,0.0358724,2,4638
12,7.05568e-22,1,6966,9.52003,-5.32762e-06,1.48496e-05,-4.59258e-08,1.57764e-05,121,63.66,-15.5,1.0833e+07,1e+06,2.62841e-09,1.60466e-07,-9.18496e-08,-0.000641188,0.0359626,-5.52081e-06,0.0363,2,4639
12,7.05568e-22,1,6967,9.52003,-5.32425e-06,1.48379e-05,-4.72047e-08,1.57643e-05,121,63.66,-15.5,1.0833e+07,1e+06,3.98397e-09,1.63494e-07,-9.44062e-08,-0.000377895,0.0366212,-2.17937e-05,0.0368317,2,4640
12,7.05568e-22,1,6968,9.52003,-5.31965e-06,1.48251e-05,-4.87569e-08,1.57507e-05,121,63.66,-15.5,1.0833e+07,1e+06,4.96298e-09,1.67835e-07,-9.75132e-08,-0.000196371,0.037561,-4.61325e-05,0.037689,2,4641
12,7.05568e-22,1,6969,9.52003,-5.31433e-06,1.4809e-05,-5.04313e-08,1.57337e-05,121,63.66,-15.5,1.0833e+07,1e+06,5.41573e-09,1.73981e-07,-1.00859e-07,-7.42881e-05,0.0389689,3.67114e-05,0.0389913,2,4642
12,5.74276e-22,1,6970,153.51,-3.29045e-08,1.44693e-05,-3.48365e-08,1.44694e-05,29,-89.16,129.77,1.0833e+07,1e+06,-6.5834e-08,1.97714e-07,-6.92101e-08,-0.0125261,0.0437241,-0.000132473,0.0512444,2,4643
12,5.74276e-22,1,6971,153.51,-9.87634e-08,1.45832e-05,-3.18048e-08,1.45836e-05,29,-89.16,129.77,1.0833e+07,1e+06,-6.49519e-08,1.89267e-07,-6.29986e-08,-0.0123567,0.0419128,0.00083832,0.0490665,2,4644
12,5.47694e-22,1,6972,153.51,-1.62808e-07,1.47193e-05,-2.80416e-08,1.47202e-05,28.375,-89.16,129.77,1.01872e+07,968750,-6.99307e-08,1.76961e-07,-5.63604e-08,-0.0126278,0.0367111,0.0007329,0.0444799,2,4645
12,4.9453e-22,1,6973,153.51,-2.38625e-07,1.48535e-05,-2.59471e-08,1.48554e-05,27.125,-89.16,129.77,8.89556e+06,906250,-8.50943e-08,1.7984e-07,-5.25034e-08,-0.0129096,0.031429,0.000708753,0.0399575,2,4646
12,4.67947e-22,1,6974,153.51,-3.32997e-07,1.49441e-05,-2.61275e-08,1.49478e-05,26.5,-89.16,129.77,8.24975e+06,875000,-9.72239e-08,1.86906e-07,-5.24023e-08,-0.0137953,0.0291451,0.000412157,0.0386388,2,4647
12,4.67947e-22,1,6975,153.51,-4.33073e-07,1.49945e-05,-2.55798e-08,1.50007e-05,26.5,-89.16,129.77,8.24975e+06,875000,-1.00196e-07,1.85763e-07,-5.13635e-08,-0.0147003,0.0288589,0.000228008,0.0390839,2,4648
12,4.67947e-22,1,6976,153.51,-5.33389e-07,1.50274e-05,-2.49831e-08,1.50369e-05,26.5,-89.16,129.77,8.24975e+06,875000,-9.93071e-08,1.81087e-07,-5.00864e-08,-0.0147296,0.0278558,0.000137475,0.0381949,2,4649
12,4.67947e-22,1,6977,153.51,-6.31687e-07,1.5044e-05,-2.34024e-08,1.50573e-05,26.5,-89.16,129.77,8.24975e+06,875000,-9.47828e-08,1.71256e-07,-4.66639e-08,-0.0139389,0.0260968,0.000231344,0.035842,2,4650
12,4.9453e-22,1,6978,153.51,-7.22955e-07,1.50252e-05,-2.08791e-08,1.50426e-05,27.125,-89.16,129.77,8.89556e+06,906250,-8.08286e-08,1.5295e-07,-4.17133e-08,-0.0127726,0.0260557,0.000387666,0.0347774,2,4651
12,5.47694e-22,1,6979,153.51,-7.93344e-07,1.4973e-05,-1.77826e-08,1.4994e-05,28.375,-89.16,129.77,1.01872e+07,968750,-6.05013e-08,1.29005e-07,-3.61309e-08,-0.0112239,0.026488,0.000581195,0.0337683,2,4652
12,5.74276e-22,1,6980,153.51,-8.43958e-07,1.49068e-05,-1.72166e-08,1.49307e-05,29,-89.16,129.77,1.0833e+07,1e+06,-4.80209e-08,1.17687e-07,-3.4651e-08,-0.00956063,0.0263228,0.000594683,0.0321878,2,4653
12,5.74276e-22,1,6981,153.51,-8.89386e-07,1.48251e-05,-1.98442e-08,1.48518e-05,29,-89.16,129.77,1.0833e+07,1e+06,-4.42013e-08,1.23659e-07,-3.91205e-08,-0.0085369,0.0281814,0.000350748,0.0333254,2,4654
12,5.74276e-22,1,6982,153.51,-9.3236e-07,1.47368e-05,-2.2632e-08,1.47663e-05,29,-89.16,129.77,1.0833e+07,1e+06,-4.1704e-08,1.32263e-07,-4.49377e-08,-0.00782737,0.0303685,7.29895e-05,0.0351042,2,4655
12,5.74276e-22,1,6983,153.51,-9.72794e-07,1.46555e-05,-2.49659e-08,1.46878e-05,29,-89.16,129.77,1.0833e+07,1e+06,-3.98341e-08,1.39634e-07,-4.99508e-08,-0.00726233,0.0320145,-4.19031e-05,0.0363817,2,4656
12,5.74276e-22,1,6984,153.51,-1.01203e-06,1.45869e-05,-2.68888e-08,1.4622e-05,29,-89.16,129.77,1.0833e+07,1e+06,-3.89144e-08,1.45822e-07,-5.37682e-08,-0.00690357,0.0332646,-1.98319e-05,0.0373191,2,4657
12,5.74276e-22,1,6985,153.51,-1.05062e-06,1.45351e-05,-2.83021e-08,1.45731e-05,29,-89.16,129.77,1.0833e+07,1e+06,-3.8314e-08,1.49679e-07,-5.66151e-08,-0.00668472,0.0338428,-1.8691e-05,0.0376879,2,4658
12,5.74276e-22,1,6986,153.51,-1.08866e-06,1.45011e-05,-2.92169e-08,1.45419e-05,29,-89.16,129.77,1.0833e+07,1e+06,-3.7722e-08,1.51245e-07,-5.84327e-08,-0.00652125,0.0338563,-2.68698e-05,0.0375701,2,4659
12,5.74276e-22,1,6987,153.51,-1.12607e-06,1.44826e-05,-2.96981e-08,1.45263e-05,29,-89.16,129.77,1.0833e+07,1e+06,-3.7085e-08,1.51217e-07,-5.93965e-08,-0.00637578,0.0335414,-3.31425e-05,0.0371786,2,4660
12,5.74276e-22,1,6988,153.51,-1.16283e-06,1.44763e-05,-2.98384e-08,1.45229e-05,29,-89.16,129.77,1.0833e+07,1e+06,-3.64314e-08,1.50146e-07,-5.96754e-08,-0.00624153,0.0330648,-3.61721e-05,0.0366561,2,4661
12,5.74276e-22,1,6989,153.51,-1.19893e-06,1.44777e-05,-2.96907e-08,1.45273e-05,29,-89.16,129.77,1.0833e+07,1e+06,-3.57633e-08,1.48339e-07,-5.93845e-08,-0.00611397,0.0325206,-3.99749e-05,0.0360696,2,4662
12,5.74276e-22,1,6990,153.51,-1.23435e-06,1.44819e-05,-2.93016e-08,1.45344e-05,29,-89.16,129.77,1.0833e+07,1e+06,-3.51671e-08,1.45916e-07,-5.86066e-08,-0.00601943,0.0319361,-6.98308e-05,0.0354532,2,4663
12,5.74276e-22,1,6991,153.51,-1.26926e-06,1.44832e-05,-2.88038e-08,1.45387e-05,29,-89.16,129.77,1.0833e+07,1e+06,-3.42099e-08,1.43237e-07,-5.77493e-08,-0.00584062,0.0314154,-0.000156357,0.0348365,2,4664
12,5.74276e-22,1,6992,153.51,-1.30277e-06,1.4475e-05,-2.76421e-08,1.45335e-05,29,-89.16,129.77,1.0833e+07,1e+06,-3.28637e-08,1.37159e-07,-5.53271e-08,-0.00564117,0.0301208,-0.000206067,0.0334061,2,4665
12,5.36408e-22,1,6993,153.51,-1.33499e-06,1.44583e-05,-2.19421e-08,1.45198e-05,30.1875,-89.16,129.77,8.89556e+06,906250,-4.90329e-08,1.37731e-07,-4.40674e-08,-0.00543535,0.0271902,0.000227654,0.0310913,2,4666
12,4.60671e-22,2,6994,58.62,-1.40084e-06,1.44295e-05,-1.91223e-08,1.44973e-05,32.5625,158.52,96.68,5.02069e+06,718750,-8.61468e-08,1.65451e-07,-3.86098e-08,-0.00467662,0.0225616,0.000381808,0.027391,3,2326
12,5.04345e-22,2,6995,58.62,-1.50728e-06,1.44278e-05,-2.62585e-08,1.45064e-05,38.25,158.52,96.68,5.02069e+06,718750,-9.87554e-08,1.89682e-07,-5.16948e-08,-0.00494361,0.0238425,-0.0016404,0.0301522,3,2327
12,6.86979e-22,1,6996,130.6,-1.59835e-06,1.44934e-05,-2.95377e-08,1.45813e-05,48.0625,117.2,-48.36,8.89556e+06,906250,-7.89897e-08,1.9305e-07,-5.85773e-08,-0.00385324,0.0327687,-0.00183729,0.0375124,2,4667
12,8.07623e-22,1,6997,130.6,-1.66526e-06,1.45753e-05,-2.84797e-08,1.46702e-05,54.1875,117.2,-48.36,1.0833e+07,1e+06,-6.66114e-08,1.95325e-07,-5.71201e-08,-0.00149456,0.0370985,-0.000115119,0.0383598,2,4668
12,8.27175e-22,1,6998,130.6,-1.73157e-06,1.46357e-05,-2.9408e-08,1.47378e-05,55,117.2,-48.36,1.0833e+07,1e+06,-6.70242e-08,1.99473e-07,-5.8884e-08,-0.0010206,0.0374448,4.16172e-05,0.0379778,2,4669
12,8.27175e-22,1,6999,130.6,-1.79931e-06,1.46875e-05,-2.93439e-08,1.47973e-05,55,117.2,-48.36,1.0833e+07,1e+06,-6.72491e-08,2.00909e-07,-5.90121e-08,-0.000985358,0.0379867,1.13769e-06,0.0385555,2,4670
12,8.27175e-22,1,7000,130.6,-1.86607e-06,1.47374e-05,-2.89791e-08,1.48551e-05,55,117.2,-48.36,1.0833e+07,1e+06,-6.61281e-08,1.97766e-07,-5.79671e-08,-0.00096855,0.0375212,-3.42525e-05,0.0381577,2,4671
12,8.27175e-22,1,7001,130.6,-1.93157e-06,1.47839e-05,-2.85944e-08,1.49096e-05,55,117.2,-48.36,1.0833e+07,1e+06,-6.56405e-08,1.95826e-07,-5.71948e-08,-0.00102748,0.0372612,-5.23129e-05,0.0379891,2,4672
12,8.27175e-22,1,7002,130.6,-1.99735e-06,1.48293e-05,-2.83022e-08,1.49632e-05,55,117.2,-48.36,1.0833e+07,1e+06,-6.63968e-08,1.94725e-07,-5.6594e-08,-0.00134939,0.0369695,-6.15711e-05,0.0378789,2,4673
12,8.27175e-22,1,7003,130.6,-2.06436e-06,1.48774e-05,-2.80118e-08,1.502e-05,55,117.2,-48.36,1.0833e+07,1e+06,-6.76862e-08,1.93724e-07,-5.60142e-08,-0.00178365,0.0365187,-2.46028e-05,0.0375934,2,4674
12,8.27175e-22,1,7004,130.6,-2.13272e-06,1.49325e-05,-2.73711e-08,1.50841e-05,55,117.2,-48.36,1.0833e+07,1e+06,-6.79497e-08,1.90241e-07,-5.46924e-08,-0.00210877,0.0355194,9.7858e-05,0.0366331,2,4675
12,8.27175e-22,1,7005,130.6,-2.20026e-06,1.49938e-05,-2.64631e-08,1.51544e-05,55,117.2,-48.36,1.0833e+07,1e+06,-6.70894e-08,1.81697e-07,-5.258e-08,-0.00261284,0.0333729,-1.3029e-05,0.0348058,2,4676
12,7.46401e-22,1,7006,130.6,-2.2669e-06,1.5063e-05,-2.4496e-08,1.52326e-05,54.4375,117.2,-48.36,8.89556e+06,906250,-6.56253e-08,1.74778e-07,-4.93833e-08,-0.00331201,0.0316094,0.000278624,0.0337706,2,4677
12,5.70215e-22,2,7007,99.23,-2.33151e-06,1.50845e-05,-2.8437e-08,1.52636e-05,53.9375,131.95,-38.71,5.02069e+06,718750,-6.15488e-08,1.83643e-07,-5.73536e-08,-0.00313942,0.031619,0.000381981,0.0339544,3,2328
12,4.60165e-22,2,7008,99.23,-2.39e-06,1.50529e-05,-3.61331e-08,1.52415e-05,54.625,131.95,-38.71,3.08325e+06,625000,-5.37015e-08,1.94641e-07,-7.17879e-08,-0.00128439,0.031337,4.42773e-05,0.0327027,3,2329
12,5.15466e-22,2,7009,99.23,-2.43892e-06,1.50369e-05,-3.61619e-08,1.52334e-05,60.3125,131.95,-38.71,5.02069e+06,718750,-5.14853e-08,1.98067e-07,-7.26397e-08,0.00143721,0.0309675,0.000965068,0.0304676,3,2330
12,6.67687e-22,1,7010,91.26,-2.49297e-06,1.50556e-05,-3.73315e-08,1.52606e-05,71.8125,-49.63,-179.82,8.89556e+06,906250,-6.06675e-08,2.05802e-07,-7.46742e-08,0.00276964,0.0301324,0.000744843,0.0289944,2,4678
12,7.62313e-22,1,7011,91.26,-2.56025e-06,1.50758e-05,-4.06169e-08,1.52917e-05,79.625,-49.63,-179.82,1.0833e+07,1e+06,-6.8637e-08,2.114e-07,-8.06077e-08,0.0025112,0.0286407,-0.000341937,0.0278752,2,4679
12,7.74657e-22,1,7012,91.26,-2.63024e-06,1.50738e-05,-3.95971e-08,1.53016e-05,81,-49.63,-179.82,1.0833e+07,1e+06,-6.96872e-08,2.08899e-07,-7.93707e-08,0.00204876,0.0278285,-0.000214099,0.0270349,2,4680
12,7.74657e-22,1,7013,91.26,-2.69962e-06,1.50668e-05,-3.83897e-08,1.53068e-05,81,-49.63,-179.82,1.0833e+07,1e+06,-6.84156e-08,2.0412e-07,-7.69708e-08,0.00192052,0.0272296,-3.58121e-05,0.0264345,2,4681
12,7.74657e-22,1,7014,91.26,-2.76708e-06,1.50586e-05,-3.78836e-08,1.53108e-05,81,-49.63,-179.82,1.0833e+07,1e+06,-6.67269e-08,2.00837e-07,-7.57385e-08,0.00205216,0.0268699,1.25304e-05,0.0259835,2,4682
12,7.74657e-22,1,7015,91.26,-2.83308e-06,1.50511e-05,-3.75127e-08,1.53155e-05,81,-49.63,-179.82,1.0833e+07,1e+06,-6.54407e-08,1.98499e-07,-7.50205e-08,0.00216578,0.0266028,7.90636e-07,0.025657,2,4683
12,7.74657e-22,1,7016,91.26,-2.89796e-06,1.50447e-05,-3.73158e-08,1.53213e-05,81,-49.63,-179.82,1.0833e+07,1e+06,-6.4582e-08,1.97134e-07,-7.46274e-08,0.00226148,0.0264574,-5.95158e-06,0.0254568,2,4684
12,7.74657e-22,1,7017,91.26,-2.96224e-06,1.50393e-05,-3.73094e-08,1.53283e-05,81,-49.63,-179.82,1.0833e+07,1e+06,-6.43161e-08,1.96979e-07,-7.46109e-08,0.00231967,0.0264592,-2.84941e-06,0.0254195,2,4685
12,7.74657e-22,1,7018,91.26,-3.02659e-06,1.50349e-05,-3.74866e-08,1.53365e-05,81,-49.63,-179.82,1.0833e+07,1e+06,-6.4635e-08,1.97994e-07,-7.49676e-08,0.00233759,0.026601,5.99164e-06,0.0255462,2,4686
12,7.74657e-22,1,7019,91.26,-3.09151e-06,1.50307e-05,-3.78256e-08,1.53454e-05,81,-49.63,-179.82,1.0833e+07,1e+06,-6.52545e-08,1.99972e-07,-7.56488e-08,0.00237427,0.0268798,2.62229e-05,0.0258119,2,4687
12,7.74657e-22,1,7020,91.26,-3.1571e-06,1.50262e-05,-3.82876e-08,1.53543e-05,81,-49.63,-179.82,1.0833e+07,1e+06,-6.5855e-08,2.02514e-07,-7.66564e-08,0.00246819,0.0272468,2.81873e-05,0.0261889,2,4688
12,7.74657e-22,1,7021,91.26,-3.22322e-06,1.50201e-05,-3.8823e-08,1.53621e-05,81,-49.63,-179.82,1.0833e+07,1e+06,-6.57553e-08,2.0526e-07,-7.78763e-08,0.00278585,0.0277256,3.78111e-05,0.026633,2,4689
12,7.47894e-22,1,7022,91.26,-3.28861e-06,1.50113e-05,-3.87738e-08,1.53674e-05,80.5625,-49.63,-179.82,1.01872e+07,968750,-6.26742e-08,2.03821e-07,-7.73264e-08,0.00315732,0.0281666,2.99608e-05,0.027197,2,4690
12,6.40844e-22,1,7023,91.26,-3.34857e-06,1.49909e-05,-3.59721e-08,1.53604e-05,78.8125,-49.63,-179.82,7.60394e+06,843750,-5.45525e-08,1.88364e-07,-7.13277e-08,0.00248577,0.0273171,-0.000164995,0.0270984,2,4691
12,4.80267e-22,2,7024,76.12,-3.39771e-06,1.49403e-05,-3.05934e-08,1.53218e-05,76.1875,38.14,139.31,3.72906e+06,656250,-4.40715e-08,1.6325e-07,-6.15154e-08,0.000905376,0.024984,-0.000198622,0.0253726,3,2331
12,3.73216e-22,2,7025,76.12,-3.43671e-06,1.48606e-05,-2.76691e-08,1.52528e-05,74.4375,38.14,139.31,1.14581e+06,531250,-3.65991e-08,1.48089e-07,-5.58572e-08,6.24378e-05,0.0233952,0.000102477,0.0235366,3,2332
12,3.46453e-22,2,7026,76.12,-3.47091e-06,1.47723e-05,-2.90355e-08,1.51747e-05,74,38.14,139.31,500000,500000,-3.41507e-08,1.46696e-07,-5.86867e-08,-0.000195277,0.0230089,-0.000300792,0.0232601,3,2333
12,3.39948e-22,2,7027,76.12,-3.50502e-06,1.46818e-05,-3.08959e-08,1.50944e-05,75.25,38.14,139.31,1.14581e+06,531250,-3.71296e-08,1.55337e-07,-6.12189e-08,-0.000328535,0.0251025,-0.000732757,0.0257105,3,2334
12,3.07419e-22,2,7028,76.12,-3.54517e-06,1.46099e-05,-2.53919e-08,1.50339e-05,81.5,38.14,139.31,4.37488e+06,687500,-4.50102e-08,1.62337e-07,-4.95329e-08,-0.000241801,0.030825,-0.000352427,0.0313462,3,2335
12,2.61878e-22,1,7029,118.57,-3.59504e-06,1.45762e-05,-1.65186e-08,1.5013e-05,90.25,73.1,-29.9,8.89556e+06,906250,-5.24057e-08,1.62125e-07,-3.35302e-08,-0.000118022,0.0367951,-8.40777e-05,0.0371053,2,4692
12,2.42361e-22,1,7030,118.57,-3.64998e-06,1.45603e-05,-1.41509e-08,1.50108e-05,94,73.1,-29.9,1.0833e+07,1e+06,-5.55131e-08,1.65598e-07,-2.87623e-08,6.14722e-05,0.0402431,6.82335e-06,0.0403723,2,4693
12,2.42361e-22,1,7031,118.57,-3.70606e-06,1.45524e-05,-1.51269e-08,1.50169e-05,94,73.1,-29.9,1.0833e+07,1e+06,-5.64878e-08,1.71878e-07,-3.02093e-08,1.808e-05,0.0421636,4.22866e-05,0.0424717,2,4694
12,2.42361e-22,1,7032,118.57,-3.76296e-06,1.45608e-05,-1.5984e-08,1.50392e-05,94,73.1,-29.9,1.0833e+07,1e+06,-5.59979e-08,1.77166e-07,-3.14854e-08,5.90212e-05,0.0441255,0.000271023,0.0446998,2,4695
12,2.42361e-22,1,7033,118.57,-3.81806e-06,1.45922e-05,-1.61098e-08,1.50834e-05,94,73.1,-29.9,1.0833e+07,1e+06,-5.14931e-08,1.76806e-07,-3.19627e-08,0.00051896,0.0449731,0.000781522,0.0457465,2,4696
12,2.49465e-22,1,7034,118.57,-3.86594e-06,1.46508e-05,-1.81584e-08,1.51523e-05,93.5625,73.1,-29.9,1.01872e+07,968750,-4.65431e-08,1.74023e-07,-3.7563e-08,0.000603163,0.0430937,0.000408959,0.0447035,2,4697
12,2.77885e-22,1,7035,118.57,-3.91114e-06,1.4716e-05,-2.79521e-08,1.52269e-05,91.8125,73.1,-29.9,7.60394e+06,843750,-5.61686e-08,1.95876e-07,-5.66734e-08,-0.000256433,0.0400133,-0.000801255,0.0428568,2,4698
12,3.20515e-22,2,7036,26.35,-3.97828e-06,1.47359e-05,-4.21791e-08,1.52636e-05,89.1875,19.24,-38.99,3.72906e+06,656250,-8.24422e-08,2.46518e-07,-8.32439e-08,-0.00121225,0.037551,-0.000895703,0.0405812,3,2336
12,3.48935e-22,2,7037,26.35,-4.07603e-06,1.46957e-05,-5.13637e-08,1.52506e-05,87.4375,19.24,-38.99,1.14581e+06,531250,-1.01581e-07,2.84113e-07,-1.0209e-07,-0.0015756,0.0355576,-8.6402e-05,0.0379734,3,2337
12,3.5604e-22,2,7038,26.35,-4.18144e-06,1.46344e-05,-5.47651e-08,1.52202e-05,87,19.24,-38.99,500000,500000,-1.0199e-07,2.90175e-07,-1.0984e-07,-0.00156009,0.0342076,0.00010089,0.0363987,3,2338
12,3.5604e-22,2,7039,26.35,-4.28001e-06,1.45722e-05,-5.58606e-08,1.51878e-05,87,19.24,-38.99,500000,500000,-9.5943e-08,2.84346e-07,-1.11769e-07,-0.00131999,0.0334355,-8.24027e-05,0.0355649,3,2339
12,3.5604e-22,2,7040,26.35,-4.37333e-06,1.44981e-05,-5.31531e-08,1.51434e-05,87,19.24,-38.99,500000,500000,-8.96882e-08,2.74321e-07,-1.05648e-07,-0.000285332,0.0325351,0.000765847,0.0335507,3,2340
12,4.52185e-22,2,7041,26.35,-4.45939e-06,1.44019e-05,-4.48253e-08,1.50766e-05,93.5,19.24,-38.99,3.08325e+06,625000,-7.60969e-08,2.49421e-07,-8.95954e-08,0.000428817,0.0362273,0.000322795,0.0372627,3,2341
12,6.44476e-22,1,7042,137.15,-4.52552e-06,1.43673e-05,-3.74612e-08,1.50632e-05,106.5,109.19,-42.07,8.24975e+06,875000,-5.99977e-08,2.39045e-07,-7.64879e-08,0.000792784,0.0480966,0.000601168,0.0482989,2,4699
12,7.40621e-22,1,7043,137.15,-4.57938e-06,1.43956e-05,-3.79223e-08,1.51064e-05,113,109.19,-42.07,1.0833e+07,1e+06,-5.45655e-08,2.49976e-07,-7.58637e-08,0.00116387,0.0567313,0.00136373,0.0557839,2,4700
12,7.40621e-22,1,7044,137.15,-4.63466e-06,1.44037e-05,-3.87119e-08,1.5131e-05,113,109.19,-42.07,1.0833e+07,1e+06,-5.37139e-08,2.47264e-07,-7.66568e-08,0.00110275,0.056552,0.000288899,0.0565066,2,4701
12,7.40621e-22,1,7045,137.15,-4.68681e-06,1.43949e-05,-3.63287e-08,1.51387e-05,113,109.19,-42.07,1.0833e+07,1e+06,-5.06934e-08,2.34277e-07,-7.28492e-08,0.00111606,0.0538238,-4.93059e-05,0.0540878,2,4702
12,7.40621e-22,1,7046,137.15,-4.73604e-06,1.43762e-05,-3.52031e-08,1.51362e-05,113,109.19,-42.07,1.0833e+07,1e+06,-4.92972e-08,2.26274e-07,-7.02398e-08,0.000963917,0.0520679,-0.000122473,0.052462,2,4703
12,6.44813e-22,1,7047,137.15,-4.7854e-06,1.43569e-05,-3.73472e-08,1.51335e-05,108.5,109.19,-42.07,8.24975e+06,875000,-5.45108e-08,2.29018e-07,-7.44437e-08,0.000652295,0.0473034,-5.12104e-06,0.0481755,2,4704
12,4.53196e-22,2,7048,104.3,-4.84506e-06,1.43335e-05,-4.59376e-08,1.51303e-05,99.5,72.82,111.89,3.08325e+06,625000,-6.34468e-08,2.36987e-07,-9.2135e-08,-0.000809896,0.0369814,-0.000143801,0.0393352,3,2342
12,3.57387e-22,2,7049,104.3,-4.9123e-06,1.42979e-05,-4.94726e-08,1.51183e-05,95,72.82,111.89,500000,500000,-6.34296e-08,2.33308e-07,-9.86625e-08,-0.00143541,0.0308989,0.000304979,0.033762,3,2343
12,4.53196e-22,2,7050,104.3,-4.97192e-06,1.42471e-05,-3.75315e-08,1.50898e-05,99.5,72.82,111.89,3.08325e+06,625000,-4.9933e-08,1.942e-07,-7.50847e-08,-0.000218179,0.0303662,0.000302802,0.0323894,3,2344
12,6.44813e-22,1,7051,137.15,-5.01216e-06,1.42126e-05,-2.37133e-08,1.50705e-05,108.5,109.19,-42.07,8.24975e+06,875000,-3.40071e-08,1.46123e-07,-4.83359e-08,0.000561153,0.0298248,0.000246404,0.0304877,2,4705
12,7.40621e-22,1,7052,137.15,-5.03994e-06,1.42256e-05,-2.06804e-08,1.5092e-05,113,109.19,-42.07,1.0833e+07,1e+06,-2.9399e-08,1.32672e-07,-4.10317e-08,0.000409263,0.0297333,0.000709967,0.0294454,2,4706
12,7.40621e-22,1,7053,137.15,-5.07096e-06,1.42755e-05,-2.27754e-08,1.51495e-05,113,109.19,-42.07,1.0833e+07,1e+06,-3.25541e-08,1.37037e-07,-4.49959e-08,-0.000389399,0.0296525,0.00022461,0.0298206,2,4707
12,7.40621e-22,1,7054,137.15,-5.10505e-06,1.4351e-05,-2.43596e-08,1.5232e-05,113,109.19,-42.07,1.0833e+07,1e+06,-3.55598e-08,1.4355e-07,-4.88209e-08,-0.000932107,0.030381,-0.000119137,0.0309605,2,4708
12,7.40621e-22,1,7055,137.15,-5.14208e-06,1.44469e-05,-2.61692e-08,1.53347e-05,113,109.19,-42.07,1.0833e+07,1e+06,-3.88992e-08,1.54446e-07,-5.2424e-08,-0.00117621,0.0325489,-8.28838e-05,0.0332292,2,4709
12,7.40621e-22,1,7056,137.15,-5.18284e-06,1.45569e-05,-2.77089e-08,1.5452e-05,113,109.19,-42.07,1.0833e+07,1e+06,-4.22442e-08,1.64726e-07,-5.53626e-08,-0.00144774,0.0347734,-5.46719e-05,0.0355717,2,4710
12,7.40621e-22,1,7057,137.15,-5.22657e-06,1.46745e-05,-2.87469e-08,1.55775e-05,113,109.19,-42.07,1.0833e+07,1e+06,-4.4528e-08,1.72245e-07,-5.76006e-08,-0.00161799,0.0364827,-0.000108189,0.0373812,2,4711
12,7.40621e-22,1,7058,137.15,-5.2719e-06,1.47964e-05,-2.90647e-08,1.57075e-05,113,109.19,-42.07,1.0833e+07,1e+06,-4.43736e-08,1.73447e-07,-5.81157e-08,-0.00155585,0.0368597,-0.00013057,0.0377189,2,4712
12,7.31858e-22,1,7059,137.15,-5.31532e-06,1.49171e-05,-2.88535e-08,1.58358e-05,115,109.19,-42.07,1.0833e+07,1e+06,-3.2211e-08,1.58946e-07,-5.77775e-08,-0.00108097,0.0347681,0.000494992,0.0353619,2,4713
12,7.14331e-22,1,7060,9.52002,-5.33632e-06,1.49955e-05,-3.39438e-08,1.59167e-05,119,63.66,-15.5,1.0833e+07,1e+06,-9.92756e-09,1.37166e-07,-6.78908e-08,-0.00119134,0.0306087,1.22466e-06,0.0315749,2,4714
12,7.05568e-22,1,7061,9.52003,-5.33517e-06,1.50259e-05,-3.89178e-08,1.5945e-05,121,63.66,-15.5,1.0833e+07,1e+06,1.32287e-09,1.3178e-07,-7.76345e-08,-0.00124733,0.0293232,-0.000580399,0.0303408,2,4715
12,7.05568e-22,1,7062,9.52003,-5.33368e-06,1.504e-05,-3.90878e-08,1.59578e-05,121,63.66,-15.5,1.0833e+07,1e+06,4.22894e-10,1.38578e-07,-7.8229e-08,-0.00101426,0.031132,6.43825e-06,0.0316848,2,4716
12,7.05568e-22,1,7063,9.52003,-5.33432e-06,1.50418e-05,-4.04131e-08,1.59598e-05,121,63.66,-15.5,1.0833e+07,1e+06,-7.91461e-10,1.45018e-07,-8.08573e-08,-0.00122403,0.0325674,6.86043e-05,0.0331732,2,4717
12,7.05568e-22,1,7064,9.52003,-5.33526e-06,1.50372e-05,-4.20497e-08,1.59557e-05,121,63.66,-15.5,1.0833e+07,1e+06,-6.64901e-10,1.50501e-07,-8.41153e-08,-0.00121929,0.0337546,4.22003e-05,0.0343645,2,4718
12,7.05568e-22,1,7065,9.52003,-5.33565e-06,1.50291e-05,-4.35101e-08,1.59482e-05,121,63.66,-15.5,1.0833e+07,1e+06,1.34313e-10,1.54729e-07,-8.70305e-08,-0.00107247,0.0346729,2.40394e-05,0.0352131,2,4719
12,7.05568e-22,1,7066,9.52003,-5.33499e-06,1.50195e-05,-4.47631e-08,1.59389e-05,121,63.66,-15.5,1.0833e+07,1e+06,1.34335e-09,1.57861e-07,-8.95326e-08,-0.00083601,0.0353578,1.44652e-05,0.0357796,2,4720
12,7.05568e-22,1,7067,9.52003,-5.33297e-06,1.501e-05,-4.59301e-08,1.59294e-05,121,63.66,-15.5,1.0833e+07,1e+06,2.73775e-09,1.60423e-07,-9.18611e-08,-0.00056863,0.0359153,-3.66061e-06,0.0362086,2,4721
12,7.05568e-22,1,7068,9.52003,-5.32951e-06,1.50015e-05,-4.72453e-08,1.59201e-05,121,63.66,-15.5,1.0833e+07,1e+06,4.06438e-09,1.63563e-07,-9.44855e-08,-0.000323233,0.0366034,-2.41991e-05,0.0367819,2,4722
12,7.05568e-22,1,7069,9.52003,-5.32484e-06,1.49933e-05,-4.89025e-08,1.59109e-05,121,63.66,-15.5,1.0833e+07,1e+06,5.02318e-09,1.68315e-07,-9.78011e-08,-0.000161021,0.0376492,-4.45365e-05,0.0377554,2,4723
12,7.05568e-22,1,7070,9.52003,-5.31947e-06,1.49835e-05,-5.07066e-08,1.58999e-05,121,63.66,-15.5,1.0833e+07,1e+06,5.45767e-09,1.7496e-07,-1.01415e-07,-5.78071e-05,0.0391796,3.93289e-05,0.0391911,2,4724
12,5.74276e-22,1,7071,153.51,-3.81419e-08,1.4667e-05,-3.22796e-08,1.46671e-05,29,-89.16,129.77,1.0833e+07,1e+06,-7.64188e-08,1.96739e-07,-6.45637e-08,-0.0152746,0.043227,-0.000314053,0.0526733,2,4725
12,5.74276e-22,1,7072,153.51,-1.14696e-07,1.47729e-05,-2.9537e-08,1.47734e-05,29,-89.16,129.77,1.0833e+07,1e+06,-7.65417e-08,1.88289e-07,-5.89227e-08,-0.015401,0.0412575,0.000328407,0.0506934,2,4726
12,5.74276e-22,1,7073,153.51,-1.91225e-07,1.48885e-05,-2.564e-08,1.48898e-05,29,-89.16,129.77,1.0833e+07,1e+06,-7.48025e-08,1.6856e-07,-5.05664e-08,-0.0154562,0.0365421,0.000323764,0.0462704,2,4727
12,5.74276e-22,1,7074,153.51,-2.64301e-07,1.49978e-05,-1.91139e-08,1.50001e-05,29,-89.16,129.77,1.0833e+07,1e+06,-7.19067e-08,1.44202e-07,-3.82455e-08,-0.0151155,0.031227,0.00076685,0.0409526,2,4728
12,5.74276e-22,1,7075,153.51,-3.35039e-07,1.50779e-05,-1.41804e-08,1.50816e-05,29,-89.16,129.77,1.0833e+07,1e+06,-7.19843e-08,1.31347e-07,-2.9041e-08,-0.0151285,0.0287892,0.0013698,0.0385668,2,4729
12,5.74276e-22,1,7076,153.51,-4.08269e-07,1.51275e-05,-1.23422e-08,1.5133e-05,29,-89.16,129.77,1.0833e+07,1e+06,-7.39095e-08,1.28119e-07,-2.48642e-08,-0.015491,0.0283181,0.00171948,0.0383153,2,4730
12,5.74276e-22,1,7077,153.51,-4.82858e-07,1.51571e-05,-1.16284e-08,1.51648e-05,29,-89.16,129.77,1.0833e+07,1e+06,-7.30769e-08,1.2421e-07,-2.34059e-08,-0.0153538,0.027409,0.00168881,0.0373816,2,4731
12,5.74276e-22,1,7078,153.51,-5.54423e-07,1.51656e-05,-1.12202e-08,1.51757e-05,29,-89.16,129.77,1.0833e+07,1e+06,-6.86447e-08,1.17468e-07,-2.28315e-08,-0.0144661,0.0259227,0.0014273,0.0353978,2,4732
12,5.74276e-22,1,7079,153.51,-6.20147e-07,1.51431e-05,-1.22525e-08,1.51558e-05,29,-89.16,129.77,1.0833e+07,1e+06,-6.34534e-08,1.15268e-07,-2.48776e-08,-0.0133232,0.0256516,0.0010243,0.0343583,2,4733
12,5.74276e-22,1,7080,153.51,-6.8133e-07,1.50923e-05,-1.48995e-08,1.51076e-05,29,-89.16,129.77,1.0833e+07,1e+06,-5.8496e-08,1.18035e-07,-2.93521e-08,-0.0121672,0.0265747,0.000556352,0.0344141,2,4734
12,5.74276e-22,1,7081,153.51,-7.37139e-07,1.50259e-05,-1.72489e-08,1.5044e-05,29,-89.16,129.77,1.0833e+07,1e+06,-5.24683e-08,1.19742e-07,-3.39921e-08,-0.0108043,0.0272156,8.64607e-05,0.0341455,2,4735
12,5.74276e-22,1,7082,153.51,-7.86266e-07,1.49494e-05,-1.92628e-08,1.49701e-05,29,-89.16,129.77,1.0833e+07,1e+06,-4.72301e-08,1.24542e-07,-3.85427e-08,-0.00941308,0.0286426,-1.15917e-05,0.0346263,2,4736
12,5.74276e-22,1,7083,153.51,-8.31599e-07,1.48692e-05,-2.1503e-08,1.48925e-05,29,-89.16,129.77,1.0833e+07,1e+06,-4.43384e-08,1.31558e-07,-4.30207e-08,-0.00852013,0.0304113,1.83282e-05,0.0357478,2,4737
12,5.74276e-22,1,7084,153.51,-8.74943e-07,1.47945e-05,-2.3593e-08,1.48203e-05,29,-89.16,129.77,1.0833e+07,1e+06,-4.25621e-08,1.37601e-07,-4.71825e-08,-0.00796895,0.0316978,-6.69953e-06,0.0365909,2,4738
12,5.74276e-22,1,7085,153.51,-9.16723e-07,1.47313e-05,-2.53959e-08,1.47598e-05,29,-89.16,129.77,1.0833e+07,1e+06,-4.11727e-08,1.42548e-07,-5.07962e-08,-0.00752627,0.0326016,-3.39228e-06,0.0370952,2,4739
12,5.74276e-22,1,7086,153.51,-9.57288e-07,1.46831e-05,-2.6849e-08,1.47143e-05,29,-89.16,129.77,1.0833e+07,1e+06,-4.00027e-08,1.45858e-07,-5.36975e-08,-0.00717814,0.0330398,-7.1727e-06,0.0372198,2,4740
12,5.74276e-22,1,7087,153.51,-9.96729e-07,1.46506e-05,-2.79223e-08,1.46845e-05,29,-89.16,129.77,1.0833e+07,1e+06,-3.88829e-08,1.4757e-07,-5.58444e-08,-0.00687878,0.0330894,-1.65593e-05,0.0370365,2,4741
12,5.74276e-22,1,7088,153.51,-1.03505e-06,1.46324e-05,-2.86581e-08,1.46689e-05,29,-89.16,129.77,1.0833e+07,1e+06,-3.77689e-08,1.48107e-07,-5.73145e-08,-0.00660189,0.0329083,-2.28713e-05,0.0366834,2,4742
12,5.74276e-22,1,7089,153.51,-1.07227e-06,1.46254e-05,-2.91151e-08,1.46647e-05,29,-89.16,129.77,1.0833e+07,1e+06,-3.66456e-08,1.47874e-07,-5.82318e-08,-0.00633331,0.0326296,-2.60323e-05,0.0362651,2,4743
12,5.74276e-22,1,7090,153.51,-1.10835e-06,1.46255e-05,-2.93477e-08,1.46675e-05,29,-89.16,129.77,1.0833e+07,1e+06,-3.53983e-08,1.47141e-07,-5.86819e-08,-0.00603334,0.0323531,-1.78504e-05,0.0358262,2,4744
12,5.74276e-22,1,7091,153.51,-1.14306e-06,1.46277e-05,-2.93984e-08,1.46723e-05,29,-89.16,129.77,1.0833e+07,1e+06,-3.37289e-08,1.45921e-07,-5.88467e-08,-0.00563158,0.0320949,-2.04232e-05,0.0353288,2,4745
12,5.74276e-22,1,7092,153.51,-1.1758e-06,1.4627e-05,-2.92776e-08,1.46742e-05,29,-89.16,129.77,1.0833e+07,1e+06,-3.20677e-08,1.43397e-07,-5.89607e-08,-0.0053689,0.0315877,-0.000259922,0.0347328,2,4746
12,5.62902e-22,1,7093,153.51,-1.2072e-06,1.4613e-05,-2.83978e-08,1.46628e-05,29.125,-89.16,129.77,1.01872e+07,968750,-3.61373e-08,1.43305e-07,-5.61076e-08,-0.00522787,0.030503,-0.000215664,0.0338896,2,4747
12,5.0603e-22,1,7094,153.51,-1.24808e-06,1.45973e-05,-2.23703e-08,1.46506e-05,29.75,-89.16,129.77,6.95812e+06,812500,-6.53463e-08,1.51317e-07,-4.4854e-08,-0.00550174,0.025111,0.000274036,0.0300378,2,4748
12,4.53591e-22,2,7095,58.62,-1.33789e-06,1.46135e-05,-2.21968e-08,1.46746e-05,32.125,158.52,96.68,3.08325e+06,625000,-1.08543e-07,1.8494e-07,-4.57628e-08,-0.00580431,0.0194063,0.000192823,0.0260172,3,2345
12,5.55371e-22,2,7096,58.62,-1.46516e-06,1.46542e-05,-3.33068e-08,1.47273e-05,40,158.52,96.68,4.37488e+06,687500,-1.15099e-07,2.22729e-07,-6.50984e-08,-0.00533011,0.0258152,-0.0009537,0.0321586,3,2346
12,7.45634e-22,1,7097,130.6,-1.56809e-06,1.47125e-05,-3.44458e-08,1.47959e-05,50.5,117.2,-48.36,8.89556e+06,906250,-9.00909e-08,2.23319e-07,-6.82065e-08,-0.00374451,0.0362407,-0.000672913,0.0397208,2,4749
12,8.27175e-22,1,7098,130.6,-1.64535e-06,1.47808e-05,-3.01537e-08,1.48721e-05,55,117.2,-48.36,1.0833e+07,1e+06,-7.50542e-08,2.10414e-07,-6.12518e-08,-0.00226215,0.0388448,0.000152637,0.0400039,2,4750
12,8.27175e-22,1,7099,130.6,-1.7182e-06,1.48393e-05,-3.04321e-08,1.49385e-05,55,117.2,-48.36,1.0833e+07,1e+06,-7.19649e-08,2.0694e-07,-6.07911e-08,-0.00176989,0.0386239,-8.12899e-05,0.0396115,2,4751
12,8.27175e-22,1,7100,130.6,-1.78927e-06,1.48906e-05,-2.97768e-08,1.49977e-05,55,117.2,-48.36,1.0833e+07,1e+06,-7.0321e-08,2.04569e-07,-5.96156e-08,-0.00152907,0.0385346,-1.0389e-05,0.0394162,2,4752
12,8.27175e-22,1,7101,130.6,-1.85884e-06,1.49371e-05,-2.9176e-08,1.50524e-05,55,117.2,-48.36,1.0833e+07,1e+06,-6.86635e-08,2.00714e-07,-5.83755e-08,-0.0014274,0.0379757,-2.79402e-05,0.0388618,2,4753
12,8.27175e-22,1,7102,130.6,-1.9266e-06,1.49809e-05,-2.86745e-08,1.51043e-05,55,117.2,-48.36,1.0833e+07,1e+06,-6.71942e-08,1.97158e-07,-5.73461e-08,-0.00134411,0.0373873,-4.67918e-05,0.0382624,2,4754
12,8.27175e-22,1,7103,130.6,-1.99323e-06,1.50242e-05,-2.82234e-08,1.51558e-05,55,117.2,-48.36,1.0833e+07,1e+06,-6.64555e-08,1.94081e-07,-5.64368e-08,-0.00140604,0.0367344,-4.01857e-05,0.037619,2,4755
12,8.27175e-22,1,7104,130.6,-2.05951e-06,1.50701e-05,-2.77275e-08,1.52102e-05,55,117.2,-48.36,1.0833e+07,1e+06,-6.61915e-08,1.9059e-07,-5.54544e-08,-0.00162102,0.0358228,-2.66375e-05,0.0367583,2,4756
12,8.27175e-22,1,7105,130.6,-2.12561e-06,1.51202e-05,-2.70061e-08,1.52689e-05,55,117.2,-48.36,1.0833e+07,1e+06,-6.60004e-08,1.85268e-07,-5.41802e-08,-0.0020376,0.0343957,-9.43122e-05,0.0355363,2,4757
12,8.27175e-22,1,7106,130.6,-2.19151e-06,1.51746e-05,-2.68389e-08,1.53321e-05,55,117.2,-48.36,1.0833e+07,1e+06,-6.54308e-08,1.78243e-07,-5.25522e-08,-0.00254126,0.0326454,-0.000233159,0.0341206,2,4758
12,7.98603e-22,1,7107,130.6,-2.25647e-06,1.52304e-05,-2.12729e-08,1.53967e-05,54.1875,117.2,-48.36,1.01872e+07,968750,-6.26281e-08,1.64152e-07,-4.29816e-08,-0.00297333,0.0312961,0.000315649,0.0333821,2,4759
12,6.96557e-22,1,7108,68.42,-2.31677e-06,1.52549e-05,-2.05704e-08,1.54298e-05,54.0625,31.63,111.85,8.89556e+06,906250,-6.04267e-08,1.6563e-07,-4.23099e-08,-0.00251299,0.0320168,0.000460764,0.0343619,2,4760
12,5.78182e-22,1,7109,77.86,-2.37733e-06,1.52417e-05,-3.02677e-08,1.54261e-05,56.25,-129.75,-168.63,8.24975e+06,875000,-6.15341e-08,1.86911e-07,-6.02597e-08,-0.000721443,0.0316557,-0.000166543,0.0329289,2,4761
12,5.56594e-22,1,7110,77.86,-2.43984e-06,1.52361e-05,-3.4975e-08,1.54302e-05,59.4375,-129.75,-168.63,8.89556e+06,906250,-6.1888e-08,2.01212e-07,-6.98397e-08,0.0016529,0.0311897,0.000454235,0.0305604,2,4762
12,6.27907e-22,1,7111,77.86,-2.5011e-06,1.52613e-05,-3.58331e-08,1.54649e-05,65.5625,-129.75,-168.63,1.01872e+07,968750,-6.2568e-08,2.04494e-07,-7.14062e-08,0.00277634,0.0310145,0.000699105,0.0298408,2,4763
12,7.12939e-22,1,7112,91.26,-2.56497e-06,1.52858e-05,-3.80677e-08,1.54996e-05,74.125,-49.63,-179.82,1.0833e+07,1e+06,-6.55133e-08,2.08161e-07,-7.618e-08,0.00289634,0.029795,0.000256594,0.0287707,2,4764
12,7.62313e-22,1,7113,91.26,-2.63213e-06,1.52829e-05,-3.93655e-08,1.55079e-05,79.625,-49.63,-179.82,1.0833e+07,1e+06,-6.7732e-08,2.10051e-07,-7.87151e-08,0.00267721,0.0287382,0.000113112,0.0276094,2,4765
12,7.74657e-22,1,7114,91.26,-2.70044e-06,1.52704e-05,-3.86036e-08,1.55073e-05,81,-49.63,-179.82,1.0833e+07,1e+06,-6.7888e-08,2.04539e-07,-7.72361e-08,0.00211759,0.0273587,-2.46991e-05,0.0264586,2,4766
12,7.74657e-22,1,7115,91.26,-2.7679e-06,1.5259e-05,-3.77622e-08,1.5508e-05,81,-49.63,-179.82,1.0833e+07,1e+06,-6.68221e-08,2.00524e-07,-7.54822e-08,0.00200129,0.0268203,3.77555e-05,0.0259571,2,4767
12,7.74657e-22,1,7116,91.26,-2.83408e-06,1.5249e-05,-3.72733e-08,1.55102e-05,81,-49.63,-179.82,1.0833e+07,1e+06,-6.5566e-08,1.97525e-07,-7.45434e-08,0.00203234,0.0264274,7.95396e-07,0.0255565,2,4768
12,7.74657e-22,1,7117,91.26,-2.89904e-06,1.52412e-05,-3.70541e-08,1.55145e-05,81,-49.63,-179.82,1.0833e+07,1e+06,-6.475e-08,1.96131e-07,-7.41095e-08,0.00211493,0.0262753,-6.67404e-07,0.0253454,2,4769
12,7.74657e-22,1,7118,91.26,-2.96358e-06,1.52361e-05,-3.71365e-08,1.55217e-05,81,-49.63,-179.82,1.0833e+07,1e+06,-6.4847e-08,1.96513e-07,-7.4274e-08,0.00212583,0.0263269,-3.54509e-06,0.0253738,2,4770
12,7.74657e-22,1,7119,91.26,-3.02873e-06,1.52332e-05,-3.75436e-08,1.55314e-05,81,-49.63,-179.82,1.0833e+07,1e+06,-6.588e-08,1.9888e-07,-7.50692e-08,0.00208508,0.0266232,7.79939e-06,0.0256733,2,4771
12,7.74657e-22,1,7120,91.26,-3.09534e-06,1.52319e-05,-3.82252e-08,1.55433e-05,81,-49.63,-179.82,1.0833e+07,1e+06,-6.76678e-08,2.02977e-07,-7.65117e-08,0.00200941,0.0271282,8.24971e-06,0.0262269,2,4772
12,7.74657e-22,1,7121,91.26,-3.16407e-06,1.52309e-05,-3.908e-08,1.55561e-05,81,-49.63,-179.82,1.0833e+07,1e+06,-6.93962e-08,2.08223e-07,-7.84157e-08,0.00207929,0.0278423,2.4101e-05,0.0269565,2,4773
12,7.47894e-22,1,7122,91.26,-3.23413e-06,1.52287e-05,-3.93684e-08,1.55684e-05,80.5625,-49.63,-179.82,1.01872e+07,968750,-6.83352e-08,2.09617e-07,-7.85296e-08,0.00220201,0.0286019,2.58905e-05,0.0279032,2,4774
12,6.40844e-22,1,7123,91.26,-3.30074e-06,1.52155e-05,-3.66114e-08,1.55694e-05,78.8125,-49.63,-179.82,7.60394e+06,843750,-6.1808e-08,1.9588e-07,-7.25168e-08,0.0013513,0.0280302,-0.000179988,0.0282083,2,4775
12,4.80267e-22,2,7124,76.12,-3.35775e-06,1.51706e-05,-3.06534e-08,1.55378e-05,76.1875,38.14,139.31,3.72906e+06,656250,-5.22152e-08,1.70363e-07,-6.16326e-08,-0.000324094,0.0257303,-0.00021936,0.0266814,3,2347
12,3.73216e-22,2,7125,76.12,-3.40517e-06,1.50943e-05,-2.68877e-08,1.54737e-05,74.4375,38.14,139.31,1.14581e+06,531250,-4.52346e-08,1.53417e-07,-5.44388e-08,-0.00123681,0.0239031,9.76654e-05,0.0247171,3,2348
12,3.46453e-22,2,7126,76.12,-3.44822e-06,1.50083e-05,-2.73598e-08,1.53994e-05,74,38.14,139.31,500000,500000,-4.23378e-08,1.50152e-07,-5.4388e-08,-0.00125697,0.0234417,0.000147405,0.0240269,3,2349
12,3.46453e-22,2,7127,76.12,-3.48984e-06,1.49216e-05,-2.87316e-08,1.53243e-05,74,38.14,139.31,500000,500000,-4.20473e-08,1.51176e-07,-5.74251e-08,-0.00139759,0.0233432,-0.000333515,0.0242298,3,2350
12,3.39948e-22,2,7128,76.12,-3.53231e-06,1.48404e-05,-2.78646e-08,1.5255e-05,75.25,38.14,139.31,1.14581e+06,531250,-4.44587e-08,1.5515e-07,-5.58596e-08,-0.00135947,0.0248821,-0.000376308,0.0258514,3,2351
12,3.07419e-22,2,7129,76.12,-3.57876e-06,1.47781e-05,-2.17031e-08,1.52053e-05,81.5,38.14,139.31,4.37488e+06,687500,-4.93172e-08,1.60056e-07,-4.32368e-08,-0.000573102,0.0303871,0.000358271,0.0307061,3,2352
12,2.61878e-22,1,7130,118.57,-3.63095e-06,1.47409e-05,-1.50443e-08,1.51815e-05,90.25,73.1,-29.9,8.89556e+06,906250,-5.41281e-08,1.61213e-07,-3.00791e-08,-7.58118e-05,0.0365599,0.000482787,0.036524,2,4776
12,2.42361e-22,1,7131,118.57,-3.68702e-06,1.47245e-05,-1.34681e-08,1.51791e-05,94,73.1,-29.9,1.0833e+07,1e+06,-5.67591e-08,1.63076e-07,-2.69122e-08,-0.000279923,0.0395324,0.000108393,0.0397853,2,4777
12,2.42361e-22,1,7132,118.57,-3.74447e-06,1.47221e-05,-1.4104e-08,1.51908e-05,94,73.1,-29.9,1.0833e+07,1e+06,-5.75569e-08,1.67484e-07,-2.8225e-08,-0.000519337,0.0409829,3.59348e-05,0.0415922,2,4778
12,2.42361e-22,1,7133,118.57,-3.80213e-06,1.47344e-05,-1.48442e-08,1.5217e-05,94,73.1,-29.9,1.0833e+07,1e+06,-5.63662e-08,1.70671e-07,-2.98036e-08,-0.000519824,0.0423392,6.76467e-05,0.0432853,2,4779
12,2.42361e-22,1,7134,118.57,-3.8572e-06,1.47656e-05,-1.56563e-08,1.52611e-05,94,73.1,-29.9,1.0833e+07,1e+06,-5.24233e-08,1.70386e-07,-3.09143e-08,-0.000194897,0.0430493,0.000295121,0.0442463,2,4780
12,2.42361e-22,1,7135,118.57,-3.90698e-06,1.48171e-05,-1.57786e-08,1.53236e-05,94,73.1,-29.9,1.0833e+07,1e+06,-4.59136e-08,1.64904e-07,-3.10936e-08,0.00042942,0.0424398,0.000700728,0.0437178,2,4781
12,2.49465e-22,1,7136,118.57,-3.94903e-06,1.48856e-05,-1.75623e-08,1.54005e-05,93.5625,73.1,-29.9,1.01872e+07,968750,-4.1512e-08,1.62972e-07,-3.63142e-08,0.000747639,0.0406184,0.000391808,0.0423318,2,4782
12,2.77885e-22,1,7137,118.57,-3.99e-06,1.49493e-05,-2.71659e-08,1.54727e-05,91.8125,73.1,-29.9,7.60394e+06,843750,-5.12115e-08,1.87634e-07,-5.52442e-08,0.000201155,0.0385151,-0.000653996,0.0410616,2,4783
12,3.20515e-22,2,7138,26.35,-4.05145e-06,1.49643e-05,-4.19022e-08,1.55031e-05,89.1875,19.24,-38.99,3.72906e+06,656250,-7.36881e-08,2.36703e-07,-8.27581e-08,-0.000421124,0.0363925,-0.000786877,0.0389259,3,2353
12,3.48935e-22,2,7139,26.35,-4.13738e-06,1.49208e-05,-5.24299e-08,1.54839e-05,87.4375,19.24,-38.99,1.14581e+06,531250,-8.69797e-08,2.71585e-07,-1.0419e-07,-0.000362461,0.0344006,-0.000153721,0.036123,3,2354
12,3.5604e-22,2,7140,26.35,-4.22541e-06,1.48545e-05,-5.74466e-08,1.54439e-05,87,19.24,-38.99,500000,500000,-8.47579e-08,2.7975e-07,-1.14994e-07,0.000116839,0.0334106,-8.79026e-05,0.0345821,3,2355
12,3.5604e-22,2,7141,26.35,-4.30689e-06,1.4774e-05,-5.70114e-08,1.53891e-05,87,19.24,-38.99,500000,500000,-8.11081e-08,2.7916e-07,-1.14679e-07,0.00119948,0.0332292,0.00042099,0.0333762,3,2356
12,4.64395e-22,2,7142,26.35,-4.38763e-06,1.46617e-05,-5.2169e-08,1.53042e-05,91.8125,19.24,-38.99,3.08325e+06,625000,-7.39508e-08,2.71617e-07,-1.04265e-07,0.00212652,0.0396059,-0.000485083,0.040479,3,2357
12,6.68895e-22,1,7143,137.15,-4.45479e-06,1.46158e-05,-4.72629e-08,1.52797e-05,103.125,109.19,-42.07,8.24975e+06,875000,-5.99128e-08,2.59924e-07,-9.39603e-08,0.00180478,0.0507032,-0.00161972,0.0521099,2,4784
12,7.52831e-22,1,7144,137.15,-4.50745e-06,1.46487e-05,-4.37453e-08,1.53266e-05,111.312,109.19,-42.07,1.0833e+07,1e+06,-5.25751e-08,2.57235e-07,-8.8004e-08,0.00161804,0.0570714,-0.000863573,0.0571981,2,4785
12,7.40621e-22,1,7145,137.15,-4.55994e-06,1.46533e-05,-4.06774e-08,1.53464e-05,113,109.19,-42.07,1.0833e+07,1e+06,-5.12104e-08,2.50462e-07,-8.11973e-08,0.00183268,0.0570979,-0.000411198,0.0570638,2,4786
12,7.40621e-22,1,7146,137.15,-4.60987e-06,1.46292e-05,-3.74507e-08,1.53383e-05,113,109.19,-42.07,1.0833e+07,1e+06,-4.88511e-08,2.33393e-07,-7.4254e-08,0.00154868,0.0534628,-0.000341888,0.0536205,2,4787
12,7.40621e-22,1,7147,137.15,-4.65765e-06,1.4603e-05,-3.56822e-08,1.53279e-05,113,109.19,-42.07,1.0833e+07,1e+06,-4.87046e-08,2.26768e-07,-7.17316e-08,0.00113107,0.0518338,-0.000256529,0.0520654,2,4788
12,6.44813e-22,1,7148,137.15,-4.70728e-06,1.45886e-05,-3.84995e-08,1.53293e-05,108.5,109.19,-42.07,8.24975e+06,875000,-5.56318e-08,2.33741e-07,-7.77941e-08,0.000609119,0.047662,-0.000131835,0.0483612,2,4789
12,4.53196e-22,2,7149,104.3,-4.76891e-06,1.45752e-05,-4.896e-08,1.53356e-05,99.5,72.82,111.89,3.08325e+06,625000,-6.2958e-08,2.45916e-07,-9.72829e-08,-0.000262094,0.0381516,-2.41652e-05,0.0399548,3,2358
12,3.55422e-22,2,7150,104.3,-4.8332e-06,1.45354e-05,-5.17551e-08,1.53179e-05,95.5,72.82,111.89,500000,500000,-6.2112e-08,2.3944e-07,-1.02674e-07,-0.00073578,0.0314538,0.000487585,0.0339079,3,2359
12,4.23347e-22,2,7151,104.3,-4.89313e-06,1.44404e-05,-3.96331e-08,1.52469e-05,99.875,72.82,111.89,2.43744e+06,593750,-6.14151e-08,2.04126e-07,-7.90712e-08,-0.00162202,0.0288011,0.000112216,0.0319103,3,2360
12,5.91012e-22,1,7152,137.15,-4.95603e-06,1.43546e-05,-2.55505e-08,1.51861e-05,107.75,109.19,-42.07,6.95812e+06,812500,-5.96028e-08,1.6106e-07,-5.17951e-08,-0.00414126,0.0276695,-0.000548735,0.0317552,2,4790
12,7.14704e-22,1,7153,137.15,-5.01234e-06,1.4357e-05,-1.79375e-08,1.52068e-05,112.375,109.19,-42.07,1.01872e+07,968750,-5.14807e-08,1.38394e-07,-3.70946e-08,-0.00483694,0.0285696,0.000795882,0.0315414,2,4791
12,7.40621e-22,1,7154,137.15,-5.05899e-06,1.44123e-05,-1.84344e-08,1.52744e-05,113,109.19,-42.07,1.0833e+07,1e+06,-4.49774e-08,1.35431e-07,-3.70339e-08,-0.00376621,0.0288999,0.00134618,0.0305569,2,4792
12,7.40621e-22,1,7155,137.15,-5.1023e-06,1.44943e-05,-2.214e-08,1.53662e-05,113,109.19,-42.07,1.0833e+07,1e+06,-4.43747e-08,1.42523e-07,-4.35778e-08,-0.00336154,0.0298805,0.000531501,0.0316009,2,4793
12,7.40621e-22,1,7156,137.15,-5.14774e-06,1.46026e-05,-2.52637e-08,1.54834e-05,113,109.19,-42.07,1.0833e+07,1e+06,-4.62534e-08,1.56201e-07,-5.00063e-08,-0.00309741,0.0326261,0.000184089,0.0342606,2,4794
12,7.40621e-22,1,7157,137.15,-5.1948e-06,1.4723e-05,-2.71397e-08,1.56126e-05,113,109.19,-42.07,1.0833e+07,1e+06,-4.71795e-08,1.66636e-07,-5.46131e-08,-0.00273374,0.0349749,-9.86132e-05,0.0364903,2,4795
12,7.40621e-22,1,7158,137.15,-5.2421e-06,1.48478e-05,-2.86628e-08,1.5746e-05,113,109.19,-42.07,1.0833e+07,1e+06,-4.64256e-08,1.73838e-07,-5.7095e-08,-0.00202595,0.0369602,-7.83145e-05,0.0380621,2,4796
12,7.3843e-22,1,7159,137.15,-5.28765e-06,1.49696e-05,-2.80996e-08,1.58761e-05,113.5,109.19,-42.07,1.0833e+07,1e+06,-4.14874e-08,1.70045e-07,-5.59006e-08,-0.00125243,0.0369249,0.000343573,0.0375182,2,4797
12,7.27476e-22,1,7160,137.15,-5.32507e-06,1.50727e-05,-2.7831e-08,1.59857e-05,116,109.19,-42.07,1.0833e+07,1e+06,-2.77557e-08,1.50207e-07,-5.63188e-08,-0.00124996,0.0335116,0.000520034,0.0343384,2,4798
12,7.1214e-22,1,7161,9.52002,-5.34316e-06,1.51317e-05,-3.38683e-08,1.60474e-05,119.5,63.66,-15.5,1.0833e+07,1e+06,-1.04011e-08,1.35535e-07,-6.78187e-08,-0.0019149,0.0304565,-0.000130529,0.0319114,2,4799
12,7.05568e-22,1,7162,9.52003,-5.34587e-06,1.51601e-05,-3.89767e-08,1.60751e-05,121,63.66,-15.5,1.0833e+07,1e+06,-1.74117e-09,1.36425e-07,-7.75782e-08,-0.0018215,0.030519,-0.000390242,0.0317603,2,4800
12,7.05568e-22,1,7163,9.52003,-5.34665e-06,1.51795e-05,-3.94739e-08,1.60937e-05,121,63.66,-15.5,1.0833e+07,1e+06,-1.04584e-09,1.40775e-07,-7.89767e-08,-0.00140326,0.0315944,-7.61972e-05,0.0323957,2,4801
12,7.05568e-22,1,7164,9.52003,-5.34797e-06,1.51874e-05,-4.07447e-08,1.61016e-05,121,63.66,-15.5,1.0833e+07,1e+06,-1.25222e-09,1.46375e-07,-8.15129e-08,-0.00134688,0.032846,3.1978e-05,0.0335343,2,4802
12,7.05568e-22,1,7165,9.52003,-5.34915e-06,1.5188e-05,-4.22789e-08,1.61025e-05,121,63.66,-15.5,1.0833e+07,1e+06,-8.1912e-10,1.51339e-07,-8.45648e-08,-0.00124398,0.033913,2.46339e-05,0.0345437,2,4803
12,7.05568e-22,1,7166,9.52003,-5.3496e-06,1.5184e-05,-4.36469e-08,1.60989e-05,121,63.66,-15.5,1.0833e+07,1e+06,1.00528e-10,1.55239e-07,-8.72996e-08,-0.00104766,0.0347545,2.01587e-05,0.0352843,2,4804
12,7.05568e-22,1,7167,9.52003,-5.34895e-06,1.51774e-05,-4.48066e-08,1.60925e-05,121,63.66,-15.5,1.0833e+07,1e+06,1.35207e-09,1.58029e-07,-8.96194e-08,-0.000789406,0.035357,1.31312e-05,0.0357569,2,4805
12,7.05568e-22,1,7168,9.52003,-5.3469e-06,1.51704e-05,-4.58939e-08,1.60852e-05,121,63.66,-15.5,1.0833e+07,1e+06,2.7979e-09,1.60262e-07,-9.17886e-08,-0.000507501,0.0358405,-4.13294e-06,0.0361036,2,4806
12,7.05568e-22,1,7169,9.52003,-5.34335e-06,1.5165e-05,-4.71896e-08,1.60789e-05,121,63.66,-15.5,1.0833e+07,1e+06,4.17703e-09,1.6322e-07,-9.43691e-08,-0.000262457,0.0364925,-3.01433e-05,0.0366427,2,4807
12,7.05568e-22,1,7170,9.52003,-5.33855e-06,1.51618e-05,-4.89372e-08,1.60742e-05,121,63.66,-15.5,1.0833e+07,1e+06,5.14367e-09,1.68302e-07,-9.7862e-08,-0.000114801,0.0376275,-4.63288e-05,0.0377103,2,4808
12,7.05568e-22,1,7171,9.52003,-5.33307e-06,1.51589e-05,-5.0888e-08,1.60697e-05,121,63.66,-15.5,1.0833e+07,1e+06,5.54945e-09,1.75566e-07,-1.01789e-07,-3.1813e-05,0.0393107,4.30337e-05,0.0393068,2,4809
12,5.74276e-22,1,7172,153.51,-3.87502e-08,1.48628e-05,-3.12037e-08,1.48628e-05,29,-89.16,129.77,1.0833e+07,1e+06,-7.71409e-08,1.94289e-07,-6.24434e-08,-0.0154408,0.0427684,-0.000210805,0.0523075,2,4810
12,5.74276e-22,1,7173,153.51,-1.15532e-07,1.49598e-05,-2.87132e-08,1.49603e-05,29,-89.16,129.77,1.0833e+07,1e+06,-7.51645e-08,1.84971e-07,-5.74903e-08,-0.0150565,0.0406282,0.000361496,0.0498111,2,4811
12,5.74276e-22,1,7174,153.51,-1.89079e-07,1.50564e-05,-2.58554e-08,1.50576e-05,29,-89.16,129.77,1.0833e+07,1e+06,-7.11251e-08,1.66368e-07,-5.1828e-08,-0.0145943,0.0360982,1.66e-05,0.0452282,2,4812
12,5.74276e-22,1,7175,153.51,-2.57782e-07,1.51419e-05,-2.17796e-08,1.51441e-05,29,-89.16,129.77,1.0833e+07,1e+06,-6.66224e-08,1.4451e-07,-4.34402e-08,-0.0139798,0.0311295,-7.41791e-05,0.0400656,2,4813
12,5.74276e-22,1,7176,153.51,-3.22324e-07,1.52068e-05,-1.8473e-08,1.52102e-05,29,-89.16,129.77,1.0833e+07,1e+06,-6.32526e-08,1.29991e-07,-3.679e-08,-0.0133587,0.0281413,6.25469e-05,0.0367163,2,4814
12,5.74276e-22,1,7177,153.51,-3.84287e-07,1.52507e-05,-1.66439e-08,1.52556e-05,29,-89.16,129.77,1.0833e+07,1e+06,-6.11177e-08,1.23553e-07,-3.32952e-08,-0.0128346,0.0270276,0.000251577,0.0352019,2,4815
12,5.74276e-22,1,7178,153.51,-4.44559e-07,1.52758e-05,-1.56746e-08,1.52823e-05,29,-89.16,129.77,1.0833e+07,1e+06,-5.9038e-08,1.18931e-07,-3.13801e-08,-0.0123763,0.0262267,0.000283273,0.0341028,2,4816
12,5.74276e-22,1,7179,153.51,-5.02363e-07,1.52789e-05,-1.51077e-08,1.52872e-05,29,-89.16,129.77,1.0833e+07,1e+06,-5.63036e-08,1.14548e-07,-3.01586e-08,-0.0118158,0.0255357,0.000202215,0.033112,2,4817
12,5.74276e-22,1,7180,153.51,-5.57167e-07,1.52557e-05,-1.52356e-08,1.52659e-05,29,-89.16,129.77,1.0833e+07,1e+06,-5.33267e-08,1.13896e-07,-3.04134e-08,-0.0110794,0.0258509,0.000176829,0.0329847,2,4818
12,5.74276e-22,1,7181,153.51,-6.09016e-07,1.5209e-05,-1.61849e-08,1.52212e-05,29,-89.16,129.77,1.0833e+07,1e+06,-5.05062e-08,1.16927e-07,-3.24688e-08,-0.0102921,0.0269635,0.000158229,0.0336056,2,4819
12,5.74276e-22,1,7182,153.51,-6.58179e-07,1.51463e-05,-1.75843e-08,1.51606e-05,29,-89.16,129.77,1.0833e+07,1e+06,-4.79234e-08,1.20216e-07,-3.52128e-08,-0.00961912,0.0279408,5.86426e-05,0.034203,2,4820
12,5.74276e-22,1,7183,153.51,-7.04863e-07,1.50742e-05,-1.91646e-08,1.50907e-05,29,-89.16,129.77,1.0833e+07,1e+06,-4.55444e-08,1.24314e-07,-3.83075e-08,-0.00896607,0.0290139,9.10202e-06,0.0348592,2,4821
12,5.74276e-22,1,7184,153.51,-7.49268e-07,1.49999e-05,-2.08999e-08,1.50186e-05,29,-89.16,129.77,1.0833e+07,1e+06,-4.35459e-08,1.2952e-07,-4.1813e-08,-0.00835349,0.030226,1.80981e-05,0.0355947,2,4822
12,5.74276e-22,1,7185,153.51,-7.91955e-07,1.49307e-05,-2.26713e-08,1.49517e-05,29,-89.16,129.77,1.0833e+07,1e+06,-4.20204e-08,1.34478e-07,-4.53469e-08,-0.00787471,0.0312084,1.87319e-05,0.0361355,2,4823
12,5.74276e-22,1,7186,153.51,-8.33309e-07,1.4872e-05,-2.43083e-08,1.48953e-05,29,-89.16,129.77,1.0833e+07,1e+06,-4.07509e-08,1.38596e-07,-4.86173e-08,-0.00748529,0.0318742,1.3026e-05,0.0364061,2,4824
12,5.74276e-22,1,7187,153.51,-8.73457e-07,1.48269e-05,-2.57203e-08,1.48526e-05,29,-89.16,129.77,1.0833e+07,1e+06,-3.95556e-08,1.41603e-07,-5.14417e-08,-0.00714033,0.0322211,4.47869e-06,0.0364159,2,4825
12,5.74276e-22,1,7188,153.51,-9.1242e-07,1.47962e-05,-2.68752e-08,1.48243e-05,29,-89.16,129.77,1.0833e+07,1e+06,-3.83602e-08,1.43532e-07,-5.37508e-08,-0.00681834,0.0323131,-5.4031e-06,0.0362387,2,4826
12,5.74276e-22,1,7189,153.51,-9.50177e-07,1.47788e-05,-2.77904e-08,1.48093e-05,29,-89.16,129.77,1.0833e+07,1e+06,-3.71447e-08,1.44669e-07,-5.55784e-08,-0.00650454,0.0322666,-1.27634e-05,0.0359796,2,4827
12,5.74276e-22,1,7190,153.51,-9.86709e-07,1.4772e-05,-2.85033e-08,1.4805e-05,29,-89.16,129.77,1.0833e+07,1e+06,-3.59185e-08,1.4534e-07,-5.6997e-08,-0.00619317,0.0321957,-1.57288e-05,0.0357281,2,4828
12,5.74276e-22,1,7191,153.51,-1.02201e-06,1.4772e-05,-2.90431e-08,1.48074e-05,29,-89.16,129.77,1.0833e+07,1e+06,-3.47879e-08,1.45717e-07,-5.81098e-08,-0.00591987,0.0321544,-5.21934e-05,0.0355467,2,4829
12,5.74276e-22,1,7192,153.51,-1.05628e-06,1.47737e-05,-2.9569e-08,1.48114e-05,29,-89.16,129.77,1.0833e+07,1e+06,-3.34221e-08,1.46216e-07,-5.90797e-08,-0.00558339,0.0322999,-9.03025e-05,0.035495,2,4830
12,5.74276e-22,1,7193,153.51,-1.08886e-06,1.477e-05,-2.94612e-08,1.48101e-05,29,-89.16,129.77,1.0833e+07,1e+06,-3.23838e-08,1.43929e-07,-5.87763e-08,-0.00545289,0.0318052,-0.000194852,0.0349431,2,4831
12,5.40153e-22,1,7194,153.51,-1.12105e-06,1.47616e-05,-2.52549e-08,1.48042e-05,29.375,-89.16,129.77,8.89556e+06,906250,-5.16091e-08,1.51422e-07,-5.08299e-08,-0.00581545,0.0296166,0.000320065,0.0338483,2,4832
12,4.60533e-22,2,7195,58.62,-1.19208e-06,1.47609e-05,-2.07962e-08,1.4809e-05,30.25,158.52,96.68,4.37488e+06,687500,-9.80685e-08,1.76724e-07,-4.13117e-08,-0.00625091,0.0226751,0.000954966,0.0285559,3,2361
12,4.85204e-22,2,7196,58.62,-1.31719e-06,1.47993e-05,-2.42581e-08,1.48579e-05,35.375,158.52,96.68,3.08325e+06,625000,-1.22688e-07,1.94218e-07,-4.81818e-08,-0.00784827,0.0187625,-0.000589345,0.0269752,3,2362
12,6.64092e-22,1,7197,130.6,-1.43745e-06,1.48733e-05,-2.93784e-08,1.49426e-05,46,117.2,-48.36,6.95812e+06,812500,-1.07818e-07,2.12238e-07,-5.96481e-08,-0.00735545,0.029498,-0.000570341,0.0363019,2,4833
12,7.99995e-22,1,7198,130.6,-1.53282e-06,1.494e-05,-3.0536e-08,1.50185e-05,53.5,117.2,-48.36,1.01872e+07,968750,-9.16612e-08,2.24686e-07,-6.10684e-08,-0.00515161,0.0396651,0.00080975,0.0427353,2,4834
12,8.27175e-22,1,7199,130.6,-1.62078e-06,1.49962e-05,-3.06491e-08,1.50835e-05,55,117.2,-48.36,1.0833e+07,1e+06,-8.45919e-08,2.18221e-07,-6.08149e-08,-0.00427465,0.0400933,0.000275253,0.0423314,2,4835
12,8.27175e-22,1,7200,130.6,-1.70201e-06,1.50496e-05,-3.03618e-08,1.51456e-05,55,117.2,-48.36,1.0833e+07,1e+06,-7.85287e-08,2.12355e-07,-6.08069e-08,-0.00315498,0.0394027,-5.19684e-05,0.0411813,2,4836
12,8.27175e-22,1,7201,130.6,-1.77783e-06,1.50966e-05,-2.97842e-08,1.5201e-05,55,117.2,-48.36,1.0833e+07,1e+06,-7.38508e-08,2.0715e-07,-5.95591e-08,-0.00231953,0.0389076,-3.52919e-05,0.0402779,2,4837
12,8.27175e-22,1,7202,130.6,-1.84971e-06,1.51388e-05,-2.912e-08,1.52514e-05,55,117.2,-48.36,1.0833e+07,1e+06,-7.02967e-08,2.01942e-07,-5.82392e-08,-0.00179446,0.038208,-2.6462e-05,0.0393353,2,4838
12,8.27175e-22,1,7203,130.6,-1.91843e-06,1.51783e-05,-2.84868e-08,1.5299e-05,55,117.2,-48.36,1.0833e+07,1e+06,-6.73969e-08,1.96763e-07,-5.69751e-08,-0.00144088,0.0373495,-2.47196e-05,0.0382911,2,4839
12,8.27175e-22,1,7204,130.6,-1.9845e-06,1.52174e-05,-2.78849e-08,1.53463e-05,55,117.2,-48.36,1.0833e+07,1e+06,-6.49358e-08,1.91576e-07,-5.57715e-08,-0.00119527,0.0363387,-1.39459e-05,0.0371023,2,4840
12,8.27175e-22,1,7205,130.6,-2.0483e-06,1.52586e-05,-2.72716e-08,1.53955e-05,55,117.2,-48.36,1.0833e+07,1e+06,-6.27216e-08,1.85927e-07,-5.4546e-08,-0.00104751,0.0350912,-9.43105e-06,0.0357048,2,4841
12,8.27175e-22,1,7206,130.6,-2.10995e-06,1.53031e-05,-2.65619e-08,1.54478e-05,55,117.2,-48.36,1.0833e+07,1e+06,-6.03549e-08,1.79543e-07,-5.30549e-08,-0.000901289,0.0336396,4.3481e-05,0.0340996,2,4842
12,8.27175e-22,1,7207,130.6,-2.16901e-06,1.53502e-05,-2.58835e-08,1.55028e-05,55,117.2,-48.36,1.0833e+07,1e+06,-5.68716e-08,1.71754e-07,-5.196e-08,-0.000624901,0.03193,-0.000114809,0.032271,2,4843
12,8.26186e-22,1,7208,130.6,-2.22369e-06,1.53913e-05,-2.44717e-08,1.55511e-05,54.625,117.2,-48.36,1.0833e+07,1e+06,-5.21778e-08,1.62529e-07,-4.87466e-08,-0.000226127,0.031074,-0.000310412,0.0315321,2,4844
12,7.62694e-22,1,7209,130.6,-2.27336e-06,1.54157e-05,-2.33923e-08,1.55825e-05,55.25,117.2,-48.36,1.0833e+07,1e+06,-5.37135e-08,1.67665e-07,-4.67502e-08,0.000110021,0.0326126,0.000588839,0.0332925,2,4845
12,6.38674e-22,1,7210,77.86,-2.33112e-06,1.54267e-05,-3.00047e-08,1.56019e-05,57.625,-129.75,-168.63,1.0833e+07,1e+06,-6.47913e-08,1.8876e-07,-6.04093e-08,-1.4806e-05,0.0315273,-6.18526e-06,0.032352,2,4846
12,5.77158e-22,1,7211,77.86,-2.40295e-06,1.54393e-05,-3.65103e-08,1.56252e-05,59,-129.75,-168.63,1.0833e+07,1e+06,-7.349e-08,2.04335e-07,-7.24491e-08,-0.000134542,0.0299556,-0.000874158,0.0304622,2,4847
12,5.89501e-22,1,7212,77.86,-2.4781e-06,1.54646e-05,-3.50588e-08,1.56619e-05,60.375,-129.75,-168.63,1.0833e+07,1e+06,-7.38201e-08,2.04634e-07,-7.0348e-08,-3.05457e-05,0.0301713,-0.000167772,0.0303742,2,4848
12,6.5122e-22,1,7213,77.86,-2.55059e-06,1.54922e-05,-3.63247e-08,1.57008e-05,67.25,-129.75,-168.63,1.0833e+07,1e+06,-7.22661e-08,2.06315e-07,-7.31009e-08,0.000586609,0.0297802,-0.000155201,0.0300377,2,4849
12,7.37626e-22,1,7214,91.26,-2.62263e-06,1.54939e-05,-3.96652e-08,1.57144e-05,76.875,-49.63,-179.82,1.0833e+07,1e+06,-7.26008e-08,2.12172e-07,-7.87764e-08,0.00130963,0.0290666,-0.000240271,0.0289143,2,4850
12,7.74657e-22,1,7215,91.26,-2.69579e-06,1.54759e-05,-3.92013e-08,1.5709e-05,81,-49.63,-179.82,1.0833e+07,1e+06,-7.18538e-08,2.07996e-07,-7.83829e-08,0.00134165,0.0274638,-0.000174138,0.026973,2,4851
12,7.74657e-22,1,7216,91.26,-2.76634e-06,1.54597e-05,-3.7646e-08,1.57053e-05,81,-49.63,-179.82,1.0833e+07,1e+06,-6.90389e-08,2.01023e-07,-7.54771e-08,0.00142699,0.0266385,-5.52733e-05,0.026101,2,4852
12,7.74657e-22,1,7217,91.26,-2.83387e-06,1.54461e-05,-3.69982e-08,1.5704e-05,81,-49.63,-179.82,1.0833e+07,1e+06,-6.68837e-08,1.96976e-07,-7.3979e-08,0.00161338,0.0262017,-1.53051e-07,0.0255355,2,4853
12,7.74657e-22,1,7218,91.26,-2.9001e-06,1.54369e-05,-3.67415e-08,1.5707e-05,81,-49.63,-179.82,1.0833e+07,1e+06,-6.61704e-08,1.9553e-07,-7.348e-08,0.00166339,0.0260321,3.69767e-06,0.0253077,2,4854
12,7.74657e-22,1,7219,91.26,-2.96621e-06,1.54324e-05,-3.68879e-08,1.57149e-05,81,-49.63,-179.82,1.0833e+07,1e+06,-6.65649e-08,1.96412e-07,-7.37897e-08,0.00164445,0.0261386,4.24813e-06,0.0253948,2,4855
12,7.74657e-22,1,7220,91.26,-3.03323e-06,1.54326e-05,-3.74916e-08,1.57279e-05,81,-49.63,-179.82,1.0833e+07,1e+06,-6.84157e-08,1.99966e-07,-7.50278e-08,0.00149171,0.0265371,-1.07255e-05,0.025856,2,4856
12,7.74657e-22,1,7221,91.26,-3.10304e-06,1.54367e-05,-3.86268e-08,1.57455e-05,81,-49.63,-179.82,1.0833e+07,1e+06,-7.15927e-08,2.07258e-07,-7.7488e-08,0.00137234,0.0274495,1.64165e-05,0.0268037,2,4857
12,7.47894e-22,1,7222,91.26,-3.17642e-06,1.54426e-05,-3.94946e-08,1.5766e-05,80.5625,-49.63,-179.82,1.01872e+07,968750,-7.30561e-08,2.13025e-07,-7.88183e-08,0.00126742,0.0287408,3.36856e-05,0.0283033,2,4858
12,6.40844e-22,1,7223,91.26,-3.24915e-06,1.54393e-05,-3.71106e-08,1.57775e-05,78.8125,-49.63,-179.82,7.60394e+06,843750,-6.87726e-08,2.02948e-07,-7.34444e-08,0.000255191,0.0287303,-0.000181757,0.0292528,2,4859
12,4.80267e-22,2,7224,76.12,-3.31397e-06,1.54031e-05,-3.08782e-08,1.57556e-05,76.1875,38.14,139.31,3.72906e+06,656250,-6.01257e-08,1.7845e-07,-6.20733e-08,-0.00143325,0.0267181,-0.000225712,0.028145,3,2363
12,3.73216e-22,2,7225,76.12,-3.3694e-06,1.53317e-05,-2.66444e-08,1.56976e-05,74.4375,38.14,139.31,1.14581e+06,531250,-5.30158e-08,1.60645e-07,-5.40317e-08,-0.00227208,0.0248378,0.000133521,0.0261862,3,2364
12,3.46453e-22,2,7226,76.12,-3.42e-06,1.52471e-05,-2.67663e-08,1.5626e-05,74,38.14,139.31,500000,500000,-4.94466e-08,1.55522e-07,-5.32631e-08,-0.00221396,0.0240743,0.000215229,0.0251622,3,2365
12,3.46453e-22,2,7227,76.12,-3.46829e-06,1.51609e-05,-2.76014e-08,1.55526e-05,74,38.14,139.31,500000,500000,-4.72648e-08,1.54004e-07,-5.50602e-08,-0.00203118,0.0236493,-1.61261e-05,0.0247388,3,2366
12,3.46453e-22,2,7228,76.12,-3.51453e-06,1.50747e-05,-2.85986e-08,1.5479e-05,74,38.14,139.31,500000,500000,-4.56968e-08,1.54104e-07,-5.64491e-08,-0.0018186,0.0236527,-0.000115656,0.0246709,3,2367
12,3.33442e-22,2,7229,76.12,-3.55969e-06,1.49921e-05,-2.49295e-08,1.54089e-05,76.5,38.14,139.31,1.79162e+06,562500,-4.69409e-08,1.52389e-07,-5.02479e-08,-0.00158774,0.0250587,5.91513e-06,0.0260392,3,2368
12,2.94407e-22,1,7230,118.57,-3.60841e-06,1.493e-05,-1.69925e-08,1.53599e-05,84,73.1,-29.9,5.6665e+06,750000,-5.22704e-08,1.51114e-07,-3.51467e-08,-0.00127838,0.0298349,0.000329212,0.0306073,2,4860
12,2.55372e-22,1,7231,118.57,-3.66423e-06,1.48986e-05,-1.27862e-08,1.53426e-05,91.5,73.1,-29.9,9.54138e+06,937500,-5.79582e-08,1.56119e-07,-2.50853e-08,-0.00101725,0.0359204,0.000467489,0.0363943,2,4861
12,2.42361e-22,1,7232,118.57,-3.72432e-06,1.48865e-05,-1.23162e-08,1.53453e-05,94,73.1,-29.9,1.0833e+07,1e+06,-6.01075e-08,1.60986e-07,-2.4306e-08,-0.00108137,0.038831,0.000206847,0.0394656,2,4862
12,2.42361e-22,1,7233,118.57,-3.78444e-06,1.48873e-05,-1.31191e-08,1.53608e-05,94,73.1,-29.9,1.0833e+07,1e+06,-5.9011e-08,1.6348e-07,-2.62658e-08,-0.00107039,0.0398132,2.20118e-05,0.040708,2,4863
12,2.42361e-22,1,7234,118.57,-3.84235e-06,1.49021e-05,-1.41144e-08,1.53895e-05,94,73.1,-29.9,1.0833e+07,1e+06,-5.60865e-08,1.65322e-07,-2.82172e-08,-0.000767649,0.0408782,4.97155e-05,0.0419052,2,4864
12,2.42361e-22,1,7235,118.57,-3.89662e-06,1.4933e-05,-1.50626e-08,1.5433e-05,94,73.1,-29.9,1.0833e+07,1e+06,-5.15939e-08,1.64938e-07,-3.01968e-08,-0.000347507,0.0414964,6.70507e-05,0.0427254,2,4865
12,2.42361e-22,1,7236,118.57,-3.94553e-06,1.49806e-05,-1.58953e-08,1.54915e-05,94,73.1,-29.9,1.0833e+07,1e+06,-4.57838e-08,1.61697e-07,-3.14262e-08,0.000241728,0.0414057,0.000232456,0.0427246,2,4866
12,2.42361e-22,1,7237,118.57,-3.98818e-06,1.50419e-05,-1.60142e-08,1.55617e-05,94,73.1,-29.9,1.0833e+07,1e+06,-3.90956e-08,1.56059e-07,-3.15579e-08,0.00108349,0.0405959,0.000656011,0.0416841,2,4867
12,2.49465e-22,1,7238,118.57,-4.02373e-06,1.51112e-05,-1.78225e-08,1.56377e-05,93.5625,73.1,-29.9,1.01872e+07,968750,-3.49513e-08,1.56125e-07,-3.67849e-08,0.00168065,0.0392358,0.000461982,0.0403471,2,4868
12,2.77885e-22,1,7239,118.57,-4.05809e-06,1.51691e-05,-2.76396e-08,1.57026e-05,91.8125,73.1,-29.9,7.60394e+06,843750,-4.24158e-08,1.81084e-07,-5.6274e-08,0.00156945,0.0375613,-0.000510854,0.0391293,2,4869
12,3.20515e-22,2,7240,26.35,-4.10856e-06,1.51776e-05,-4.31933e-08,1.57239e-05,89.1875,19.24,-38.99,3.72906e+06,656250,-5.9397e-08,2.27306e-07,-8.55976e-08,0.00142299,0.0354055,-0.000727104,0.0366973,3,2369
12,3.48935e-22,2,7241,26.35,-4.17688e-06,1.51317e-05,-5.53922e-08,1.56977e-05,87.4375,19.24,-38.99,1.14581e+06,531250,-7.04483e-08,2.63358e-07,-1.10202e-07,0.00167429,0.0336145,-0.000427866,0.034077,3,2370
12,3.5604e-22,2,7242,26.35,-4.24945e-06,1.50564e-05,-5.96852e-08,1.56447e-05,87,19.24,-38.99,500000,500000,-7.44717e-08,2.81259e-07,-1.19368e-07,0.00260471,0.0338325,0.000104099,0.0332591,3,2371
12,4.76605e-22,2,7243,26.35,-4.32582e-06,1.49452e-05,-5.55314e-08,1.55587e-05,90.125,19.24,-38.99,3.08325e+06,625000,-7.0006e-08,2.87199e-07,-1.11556e-07,0.00423873,0.0427374,-0.000201633,0.0427887,3,2372
12,6.93315e-22,1,7244,18.55,-4.38947e-06,1.48871e-05,-5.0871e-08,1.55209e-05,99.75,-13.39,-147.65,8.24975e+06,875000,-5.09508e-08,2.72719e-07,-1.0123e-07,0.00538756,0.0535845,-0.00122597,0.0536994,2,4870
12,7.339e-22,1,7245,137.15,-4.42773e-06,1.491e-05,-4.56869e-08,1.55537e-05,108.438,109.19,-42.07,1.0833e+07,1e+06,-3.70021e-08,2.55717e-07,-9.03891e-08,0.00634484,0.0579401,-0.000674104,0.0561267,2,4871
12,6.47197e-22,1,7246,137.15,-4.46347e-06,1.49046e-05,-3.69665e-08,1.55587e-05,109.438,109.19,-42.07,1.0833e+07,1e+06,-4.33364e-08,2.45416e-07,-7.44625e-08,0.00503329,0.0578859,0.00034005,0.0561095,2,4872
12,6.47197e-22,1,7247,137.15,-4.5144e-06,1.48617e-05,-3.23618e-08,1.55323e-05,109.438,109.19,-42.07,1.0833e+07,1e+06,-5.47066e-08,2.31875e-07,-6.53711e-08,0.00117898,0.0541141,0.000124705,0.0542851,2,4873
12,7.15416e-22,1,7248,137.15,-4.57288e-06,1.48297e-05,-3.45947e-08,1.55188e-05,110.5,109.19,-42.07,1.0833e+07,1e+06,-5.66513e-08,2.2876e-07,-6.91246e-08,-0.000262219,0.0518783,-0.000567244,0.0531727,2,4874
12,6.86572e-22,1,7249,137.15,-4.6277e-06,1.48244e-05,-3.97918e-08,1.55299e-05,105.688,109.19,-42.07,8.89556e+06,906250,-5.73433e-08,2.35861e-07,-8.01343e-08,0.000742637,0.0477533,-0.000996488,0.0489856,2,4875
12,5.16942e-22,2,7250,104.3,-4.68757e-06,1.48253e-05,-4.7468e-08,1.55488e-05,98.3125,72.82,111.89,4.37488e+06,687500,-6.08332e-08,2.4777e-07,-9.39942e-08,0.00164847,0.0398191,0.000223019,0.0407676,3,2373
12,3.77448e-22,2,7251,104.3,-4.74937e-06,1.47767e-05,-4.99658e-08,1.55213e-05,97.3125,72.82,111.89,1.14581e+06,531250,-6.79368e-08,2.40234e-07,-9.95639e-08,0.000102384,0.0303338,0.000434831,0.0323596,3,2374
12,3.61685e-22,2,7252,105.68,-4.82344e-06,1.46553e-05,-4.47958e-08,1.54288e-05,101.125,-4.36,162.92,1.14581e+06,531250,-8.36682e-08,2.28235e-07,-9.02731e-08,-0.00189678,0.0249803,-0.000456172,0.0278508,3,2375
12,4.57494e-22,2,7253,105.68,-4.9167e-06,1.45347e-05,-3.9142e-08,1.53438e-05,105.625,-4.36,162.92,3.72906e+06,656250,-8.57503e-08,2.13518e-07,-7.70194e-08,-0.00371986,0.0265085,-0.00113941,0.030418,3,2376
12,5.85116e-22,1,7254,137.15,-4.99494e-06,1.45023e-05,-3.009e-08,1.53385e-05,109.25,109.19,-42.07,6.95812e+06,812500,-7.09469e-08,1.79903e-07,-6.02625e-08,-0.00545007,0.0281833,-0.000919484,0.0329094,2,4876
12,6.62869e-22,1,7255,137.15,-5.0586e-06,1.45464e-05,-2.23739e-08,1.54009e-05,111.125,109.19,-42.07,8.89556e+06,906250,-6.1899e-08,1.54152e-07,-4.59697e-08,-0.00622763,0.0279567,-3.07948e-05,0.0323935,2,4877
12,7.14704e-22,1,7256,137.15,-5.11874e-06,1.46361e-05,-2.02644e-08,1.55054e-05,112.375,109.19,-42.07,1.01872e+07,968750,-5.60067e-08,1.46738e-07,-4.13005e-08,-0.00587316,0.0294971,0.000666349,0.0329872,2,4878
12,7.40621e-22,1,7257,137.15,-5.17061e-06,1.47593e-05,-2.23829e-08,1.56388e-05,113,109.19,-42.07,1.0833e+07,1e+06,-5.09601e-08,1.55547e-07,-4.48025e-08,-0.00428436,0.0328122,0.00110709,0.0347659,2,4879
12,7.40621e-22,1,7258,137.15,-5.22066e-06,1.48901e-05,-2.64443e-08,1.57788e-05,113,109.19,-42.07,1.0833e+07,1e+06,-4.95753e-08,1.68184e-07,-5.22572e-08,-0.00320197,0.0357815,0.000310955,0.0373992,2,4880
12,7.3843e-22,1,7259,137.15,-5.26976e-06,1.50222e-05,-2.7632e-08,1.59197e-05,113.5,109.19,-42.07,1.0833e+07,1e+06,-4.56667e-08,1.73079e-07,-5.46608e-08,-0.00216013,0.0377586,0.000464084,0.0388271,2,4881
12,7.29667e-22,1,7260,137.15,-5.312e-06,1.51364e-05,-2.7212e-08,1.60415e-05,115.5,109.19,-42.07,1.0833e+07,1e+06,-3.52172e-08,1.60503e-07,-5.49503e-08,-0.00201774,0.036124,0.000758909,0.0372438,2,4882
12,7.16522e-22,1,7261,9.52002,-5.3402e-06,1.52175e-05,-3.02992e-08,1.61273e-05,118.5,63.66,-15.5,1.0833e+07,1e+06,-2.12626e-08,1.41663e-07,-6.07026e-08,-0.0028473,0.0322135,0.000225893,0.0341105,2,4883
12,7.07758e-22,1,7262,9.52002,-5.35452e-06,1.52665e-05,-3.54429e-08,1.61784e-05,120.5,63.66,-15.5,1.0833e+07,1e+06,-1.08885e-08,1.36277e-07,-7.05344e-08,-0.00319998,0.0306996,-0.0003087,0.0328104,2,4884
12,7.05568e-22,1,7263,9.52003,-5.36197e-06,1.52988e-05,-3.81879e-08,1.62113e-05,121,63.66,-15.5,1.0833e+07,1e+06,-5.96125e-09,1.40074e-07,-7.65438e-08,-0.00262725,0.0314164,-0.000252457,0.0329951,2,4885
12,7.05568e-22,1,7264,9.52003,-5.36644e-06,1.53216e-05,-3.95157e-08,1.62343e-05,121,63.66,-15.5,1.0833e+07,1e+06,-3.67618e-09,1.4335e-07,-7.89723e-08,-0.00196919,0.0321507,-9.17493e-05,0.0332485,2,4886
12,7.05568e-22,1,7265,9.52003,-5.36933e-06,1.53346e-05,-4.1004e-08,1.62475e-05,121,63.66,-15.5,1.0833e+07,1e+06,-2.34512e-09,1.48038e-07,-8.19934e-08,-0.00159297,0.0331781,-9.50649e-06,0.034015,2,4887
12,7.05568e-22,1,7266,9.52003,-5.37113e-06,1.53399e-05,-4.25201e-08,1.62531e-05,121,63.66,-15.5,1.0833e+07,1e+06,-1.26968e-09,1.52518e-07,-8.50376e-08,-0.0013283,0.0341425,6.53389e-06,0.0348285,2,4888
12,7.05568e-22,1,7267,9.52003,-5.37187e-06,1.53396e-05,-4.3824e-08,1.6253e-05,121,63.66,-15.5,1.0833e+07,1e+06,-1.09672e-10,1.56055e-07,-8.76483e-08,-0.00106111,0.0349016,1.40814e-05,0.0354474,2,4889
12,7.05568e-22,1,7268,9.52003,-5.37135e-06,1.53356e-05,-4.48731e-08,1.62491e-05,121,63.66,-15.5,1.0833e+07,1e+06,1.25771e-09,1.584e-07,-8.97502e-08,-0.000762576,0.0354014,1.40312e-05,0.0357959,2,4890
12,7.05568e-22,1,7269,9.52003,-5.36935e-06,1.53306e-05,-4.58144e-08,1.62437e-05,121,63.66,-15.5,1.0833e+07,1e+06,2.82634e-09,1.60001e-07,-9.16312e-08,-0.000448466,0.0357424,-2.45345e-06,0.0359831,2,4891
12,7.05568e-22,1,7270,9.52003,-5.3657e-06,1.53279e-05,-4.70173e-08,1.624e-05,121,63.66,-15.5,1.0833e+07,1e+06,4.35526e-09,1.62364e-07,-9.40156e-08,-0.000185056,0.0362637,-3.94463e-05,0.036384,2,4892
12,7.05568e-22,1,7271,9.52003,-5.36064e-06,1.53299e-05,-4.88631e-08,1.62402e-05,121,63.66,-15.5,1.0833e+07,1e+06,5.38912e-09,1.67655e-07,-9.76953e-08,-4.79087e-05,0.0374589,-6.08723e-05,0.0375163,2,4893
12,7.05568e-22,1,7272,9.52003,-5.35492e-06,1.53347e-05,-5.10684e-08,1.62428e-05,121,63.66,-15.5,1.0833e+07,1e+06,5.75799e-09,1.76015e-07,-1.02171e-07,1.0483e-05,0.0394075,4.08616e-05,0.0393834,2,4894
12,5.74276e-22,1,7273,153.51,-3.71892e-08,1.50556e-05,-3.11232e-08,1.50557e-05,29,-89.16,129.77,1.0833e+07,1e+06,-7.37271e-08,1.91826e-07,-6.22807e-08,-0.0145861,0.0424402,-0.000185375,0.0513823,2,4895
12,5.74276e-22,1,7274,153.51,-1.10265e-07,1.51429e-05,-2.85963e-08,1.51433e-05,29,-89.16,129.77,1.0833e+07,1e+06,-7.09936e-08,1.81758e-07,-5.72165e-08,-0.0140536,0.0402262,0.000370917,0.0486985,2,4896
12,5.74276e-22,1,7275,153.51,-1.79176e-07,1.52213e-05,-2.59775e-08,1.52223e-05,29,-89.16,129.77,1.0833e+07,1e+06,-6.60284e-08,1.63441e-07,-5.19651e-08,-0.0133623,0.035881,9.42326e-06,0.0441136,2,4897
12,5.74276e-22,1,7276,153.51,-2.42322e-07,1.52868e-05,-2.26148e-08,1.52887e-05,29,-89.16,129.77,1.0833e+07,1e+06,-6.07335e-08,1.43968e-07,-4.51975e-08,-0.0124877,0.0314432,-0.000100904,0.0392472,2,4898
12,5.74276e-22,1,7277,153.51,-3.00643e-07,1.53379e-05,-2.01495e-08,1.53408e-05,29,-89.16,129.77,1.0833e+07,1e+06,-5.67592e-08,1.30842e-07,-4.02575e-08,-0.0117376,0.0285955,-9.09165e-05,0.0359683,2,4899
12,5.74276e-22,1,7278,153.51,-3.5584e-07,1.53746e-05,-1.87908e-08,1.53787e-05,29,-89.16,129.77,1.0833e+07,1e+06,-5.40468e-08,1.24237e-07,-3.757e-08,-0.011142,0.0273427,-3.11027e-05,0.034323,2,4900
12,5.74276e-22,1,7279,153.51,-4.08737e-07,1.5395e-05,-1.79676e-08,1.54004e-05,29,-89.16,129.77,1.0833e+07,1e+06,-5.17477e-08,1.20199e-07,-3.59424e-08,-0.0106237,0.0267522,-1.4037e-05,0.0334114,2,4901
12,5.74276e-22,1,7280,153.51,-4.59336e-07,1.53947e-05,-1.73959e-08,1.54016e-05,29,-89.16,129.77,1.0833e+07,1e+06,-4.94326e-08,1.1728e-07,-3.4783e-08,-0.0100982,0.0265118,-2.35852e-05,0.0329028,2,4902
12,5.74276e-22,1,7281,153.51,-5.07602e-07,1.53709e-05,-1.72275e-08,1.53793e-05,29,-89.16,129.77,1.0833e+07,1e+06,-4.72317e-08,1.1652e-07,-3.44335e-08,-0.00954304,0.02682,5.04226e-07,0.0329624,2,4903
12,5.74276e-22,1,7282,153.51,-5.53799e-07,1.53261e-05,-1.75496e-08,1.53361e-05,29,-89.16,129.77,1.0833e+07,1e+06,-4.52605e-08,1.17765e-07,-3.51003e-08,-0.00900247,0.027514,2.95922e-05,0.0334273,2,4904
12,5.74276e-22,1,7283,153.51,-5.98123e-07,1.52663e-05,-1.82777e-08,1.5278e-05,29,-89.16,129.77,1.0833e+07,1e+06,-4.34865e-08,1.20016e-07,-3.65777e-08,-0.00850776,0.0282823,2.95828e-05,0.0339629,2,4905
12,5.74276e-22,1,7284,153.51,-6.40772e-07,1.51981e-05,-1.93487e-08,1.52116e-05,29,-89.16,129.77,1.0833e+07,1e+06,-4.19785e-08,1.23194e-07,-3.87078e-08,-0.00806596,0.0291064,3.03864e-05,0.034504,2,4906
12,5.74276e-22,1,7285,153.51,-6.8208e-07,1.51283e-05,-2.06763e-08,1.51436e-05,29,-89.16,129.77,1.0833e+07,1e+06,-4.07495e-08,1.27044e-07,-4.13549e-08,-0.00768349,0.0299285,3.14411e-05,0.0349883,2,4907
12,5.74276e-22,1,7286,153.51,-7.22271e-07,1.50634e-05,-2.2121e-08,1.50808e-05,29,-89.16,129.77,1.0833e+07,1e+06,-3.96909e-08,1.30926e-07,-4.42457e-08,-0.00734889,0.0306146,2.66391e-05,0.0353041,2,4908
12,5.74276e-22,1,7287,153.51,-7.61462e-07,1.50085e-05,-2.35496e-08,1.50278e-05,29,-89.16,129.77,1.0833e+07,1e+06,-3.87087e-08,1.34376e-07,-4.71016e-08,-0.00704653,0.0311003,2.01802e-05,0.035425,2,4909
12,5.74276e-22,1,7288,153.51,-7.99689e-07,1.49663e-05,-2.48726e-08,1.49876e-05,29,-89.16,129.77,1.0833e+07,1e+06,-3.77288e-08,1.37176e-07,-4.9747e-08,-0.0067609,0.0313856,1.13208e-05,0.0353874,2,4910
12,5.74276e-22,1,7289,153.51,-8.3692e-07,1.49376e-05,-2.6052e-08,1.49611e-05,29,-89.16,129.77,1.0833e+07,1e+06,-3.67088e-08,1.39354e-07,-5.21037e-08,-0.00647806,0.0315288,2.49854e-06,0.0352646,2,4911
12,5.74276e-22,1,7290,153.51,-8.73106e-07,1.49217e-05,-2.70862e-08,1.49472e-05,29,-89.16,129.77,1.0833e+07,1e+06,-3.56491e-08,1.41105e-07,-5.41736e-08,-0.00619236,0.0316186,-5.57894e-06,0.0351414,2,4912
12,5.74276e-22,1,7291,153.51,-9.08218e-07,1.49161e-05,-2.80145e-08,1.49437e-05,29,-89.16,129.77,1.0833e+07,1e+06,-3.44943e-08,1.42739e-07,-5.60131e-08,-0.00587734,0.0317729,-4.30142e-06,0.035097,2,4913
12,5.74276e-22,1,7292,153.51,-9.42095e-07,1.4917e-05,-2.88981e-08,1.49467e-05,29,-89.16,129.77,1.0833e+07,1e+06,-3.30484e-08,1.44501e-07,-5.78385e-08,-0.00548338,0.0320773,-1.76865e-05,0.0351699,2,4914
12,5.74276e-22,1,7293,153.51,-9.74314e-07,1.49202e-05,-2.97467e-08,1.4952e-05,29,-89.16,129.77,1.0833e+07,1e+06,-3.19656e-08,1.4573e-07,-5.9954e-08,-0.00531893,0.0323041,-0.000311629,0.035403,2,4915
12,5.62902e-22,1,7294,153.51,-1.00603e-06,1.49149e-05,-2.99655e-08,1.49488e-05,29.125,-89.16,129.77,1.01872e+07,968750,-3.81353e-08,1.5018e-07,-5.88645e-08,-0.00561227,0.032037,-0.000331778,0.0357509,2,4916
12,5.0603e-22,1,7295,153.51,-1.05059e-06,1.49158e-05,-2.39145e-08,1.49528e-05,29.75,-89.16,129.77,6.95812e+06,812500,-7.37819e-08,1.64947e-07,-4.78126e-08,-0.00658483,0.0273371,0.00028459,0.0330354,2,4917
12,4.26411e-22,2,7296,58.62,-1.15359e-06,1.49508e-05,-1.99451e-08,1.49952e-05,30.625,158.52,96.68,2.43744e+06,593750,-1.25603e-07,1.98524e-07,-4.09887e-08,-0.00649221,0.0196999,0.00125927,0.0261844,3,2377
12,5.0101e-22,2,7297,58.62,-1.30179e-06,1.50019e-05,-2.82086e-08,1.50583e-05,37,158.52,96.68,3.08325e+06,625000,-1.33506e-07,2.15637e-07,-5.57967e-08,-0.00762154,0.0204497,-0.000827514,0.0279792,3,2378
12,7.18453e-22,1,7298,130.6,-1.4206e-06,1.50787e-05,-3.1181e-08,1.51455e-05,49,117.2,-48.36,8.24975e+06,875000,-1.05478e-07,2.15867e-07,-6.24734e-08,-0.00770225,0.0324902,-0.000911608,0.038511,2,4918
12,8.27175e-22,1,7299,130.6,-1.51275e-06,1.51619e-05,-2.90681e-08,1.52372e-05,55,117.2,-48.36,1.0833e+07,1e+06,-9.16147e-08,2.22774e-07,-5.83548e-08,-0.00575329,0.0408109,0.00103143,0.0437416,2,4919
12,8.27175e-22,1,7300,130.6,-1.60383e-06,1.52172e-05,-3.03259e-08,1.53015e-05,55,117.2,-48.36,1.0833e+07,1e+06,-8.79191e-08,2.20761e-07,-6.04795e-08,-0.00505881,0.040723,0.000205577,0.0435512,2,4920
12,8.27175e-22,1,7301,130.6,-1.68858e-06,1.5264e-05,-3.00789e-08,1.53571e-05,55,117.2,-48.36,1.0833e+07,1e+06,-8.16318e-08,2.14788e-07,-6.01353e-08,-0.00384497,0.0400211,2.01551e-05,0.0422748,2,4921
12,8.27175e-22,1,7302,130.6,-1.7671e-06,1.53049e-05,-2.95182e-08,1.54066e-05,55,117.2,-48.36,1.0833e+07,1e+06,-7.58882e-08,2.0838e-07,-5.90238e-08,-0.00281445,0.039246,-1.38092e-05,0.0409918,2,4922
12,8.27175e-22,1,7303,130.6,-1.84036e-06,1.5341e-05,-2.88038e-08,1.5451e-05,55,117.2,-48.36,1.0833e+07,1e+06,-7.09877e-08,2.01716e-07,-5.76032e-08,-0.00203397,0.0382944,-1.24922e-05,0.0396444,2,4923
12,8.27175e-22,1,7304,130.6,-1.90907e-06,1.53744e-05,-2.80581e-08,1.54925e-05,55,117.2,-48.36,1.0833e+07,1e+06,-6.66507e-08,1.94852e-07,-5.61122e-08,-0.00141739,0.0371563,-4.66348e-06,0.0381563,2,4924
12,8.27175e-22,1,7305,130.6,-1.97366e-06,1.54073e-05,-2.73119e-08,1.55332e-05,55,117.2,-48.36,1.0833e+07,1e+06,-6.26312e-08,1.87753e-07,-5.46213e-08,-0.000896136,0.0358352,8.00572e-06,0.0364894,2,4925
12,8.27175e-22,1,7306,130.6,-2.03433e-06,1.54419e-05,-2.65745e-08,1.55754e-05,55,117.2,-48.36,1.0833e+07,1e+06,-5.86763e-08,1.80379e-07,-5.31463e-08,-0.000402401,0.0343573,2.83952e-05,0.0346565,2,4926
12,8.27175e-22,1,7307,130.6,-2.09101e-06,1.54793e-05,-2.58474e-08,1.56199e-05,55,117.2,-48.36,1.0833e+07,1e+06,-5.4427e-08,1.7282e-07,-5.16497e-08,0.000176207,0.0328277,8.0519e-05,0.0327363,2,4927
12,8.27175e-22,1,7308,130.6,-2.14319e-06,1.55181e-05,-2.51805e-08,1.56654e-05,55,117.2,-48.36,1.0833e+07,1e+06,-5.00293e-08,1.65447e-07,-5.07848e-08,0.000765165,0.0313173,-4.38661e-05,0.0309692,2,4928
12,8.27175e-22,1,7309,130.6,-2.19107e-06,1.55555e-05,-2.69016e-08,1.57091e-05,55,117.2,-48.36,1.0833e+07,1e+06,-4.80702e-08,1.63755e-07,-5.35777e-08,0.000940336,0.0307333,-0.000887333,0.0306965,2,4929
12,7.64671e-22,1,7310,130.6,-2.23933e-06,1.55902e-05,-2.59985e-08,1.57502e-05,56,117.2,-48.36,1.0833e+07,1e+06,-5.42116e-08,1.75068e-07,-5.16369e-08,0.000691706,0.032808,0.000812158,0.0330197,2,4930
12,6.39662e-22,1,7311,77.86,-2.2995e-06,1.56193e-05,-3.03548e-08,1.57877e-05,58,-129.75,-168.63,1.0833e+07,1e+06,-6.6716e-08,1.93533e-07,-6.06924e-08,2.99659e-06,0.0319699,0.000804876,0.0325491,2,4931
12,5.77158e-22,1,7312,77.86,-2.37276e-06,1.56447e-05,-3.62877e-08,1.58237e-05,59,-129.75,-168.63,1.0833e+07,1e+06,-7.57264e-08,2.05825e-07,-7.25981e-08,-0.000649488,0.0299736,-0.000821319,0.0307231,2,4932
12,5.77158e-22,1,7313,77.86,-2.45095e-06,1.56706e-05,-3.47275e-08,1.58611e-05,59,-129.75,-168.63,1.0833e+07,1e+06,-7.8584e-08,2.08429e-07,-6.98784e-08,-0.000880497,0.0305782,2.76278e-05,0.0310059,2,4933
12,6.14189e-22,1,7314,77.86,-2.52993e-06,1.56985e-05,-3.53833e-08,1.59011e-05,63.125,-129.75,-168.63,1.0833e+07,1e+06,-7.89512e-08,2.07518e-07,-7.06042e-08,-0.00114138,0.0299698,-9.6641e-05,0.0309609,2,4934
12,7.00595e-22,1,7315,91.26,-2.60885e-06,1.57072e-05,-3.75131e-08,1.59225e-05,72.75,-49.63,-179.82,1.0833e+07,1e+06,-7.8432e-08,2.11771e-07,-7.49042e-08,-0.000446708,0.0293867,2.61325e-05,0.0301695,2,4935
12,7.62313e-22,1,7316,91.26,-2.68679e-06,1.56863e-05,-3.85261e-08,1.59148e-05,79.625,-49.63,-179.82,1.0833e+07,1e+06,-7.5952e-08,2.10644e-07,-7.71043e-08,0.000433058,0.028013,0.000100265,0.0280219,2,4936
12,7.74657e-22,1,7317,91.26,-2.76076e-06,1.5661e-05,-3.75936e-08,1.59025e-05,81,-49.63,-179.82,1.0833e+07,1e+06,-7.23644e-08,2.02008e-07,-7.51808e-08,0.000608969,0.026458,-7.0039e-05,0.02635,2,4937
12,7.74657e-22,1,7318,91.26,-2.83152e-06,1.5643e-05,-3.66434e-08,1.58972e-05,81,-49.63,-179.82,1.0833e+07,1e+06,-7.01079e-08,1.97275e-07,-7.33204e-08,0.000757229,0.0259275,6.76849e-06,0.0256728,2,4938
12,7.74657e-22,1,7319,91.26,-2.90097e-06,1.56323e-05,-3.63453e-08,1.58992e-05,81,-49.63,-179.82,1.0833e+07,1e+06,-6.95333e-08,1.95423e-07,-7.26823e-08,0.000720705,0.0256647,-1.0821e-05,0.0253914,2,4939
12,7.74657e-22,1,7320,91.26,-2.97059e-06,1.56289e-05,-3.65765e-08,1.59087e-05,81,-49.63,-179.82,1.0833e+07,1e+06,-7.04677e-08,1.97035e-07,-7.31636e-08,0.000630993,0.0258428,-1.54349e-06,0.0255728,2,4940
12,7.74657e-22,1,7321,91.26,-3.04191e-06,1.56331e-05,-3.72856e-08,1.59264e-05,81,-49.63,-179.82,1.0833e+07,1e+06,-7.29984e-08,2.01869e-07,-7.46416e-08,0.000441785,0.0264092,3.0084e-05,0.0261974,2,4941
12,7.47894e-22,1,7322,91.26,-3.11658e-06,1.56464e-05,-3.84255e-08,1.59539e-05,80.5625,-49.63,-179.82,1.01872e+07,968750,-7.60339e-08,2.10688e-07,-7.69424e-08,0.000222626,0.0280916,3.95932e-05,0.0280546,2,4942
12,6.40844e-22,1,7323,91.26,-3.19397e-06,1.56569e-05,-3.69826e-08,1.59794e-05,78.8125,-49.63,-179.82,7.60394e+06,843750,-7.49581e-08,2.07801e-07,-7.33164e-08,-0.000821124,0.0291781,-0.000137641,0.0300254,2,4943
12,4.80267e-22,2,7324,76.12,-3.2665e-06,1.56346e-05,-3.09701e-08,1.59722e-05,76.1875,38.14,139.31,3.72906e+06,656250,-6.79518e-08,1.8634e-07,-6.20237e-08,-0.00249666,0.0277741,-0.00019238,0.0296295,3,2379
12,3.73216e-22,2,7325,76.12,-3.32988e-06,1.55724e-05,-2.65212e-08,1.59245e-05,74.4375,38.14,139.31,1.14581e+06,531250,-6.08378e-08,1.69081e-07,-5.38769e-08,-0.00321791,0.0260788,0.000156837,0.0279296,3,2380
12,3.46453e-22,2,7326,76.12,-3.38818e-06,1.54919e-05,-2.67347e-08,1.58581e-05,74,38.14,139.31,500000,500000,-5.68857e-08,1.6347e-07,-5.31858e-08,-0.00311728,0.0251805,0.000257453,0.026774,3,2381
12,3.46453e-22,2,7327,76.12,-3.44365e-06,1.54054e-05,-2.75239e-08,1.57856e-05,74,38.14,139.31,500000,500000,-5.39274e-08,1.60287e-07,-5.48165e-08,-0.00288742,0.0243883,4.39744e-05,0.0259417,3,2382
12,3.46453e-22,2,7328,76.12,-3.49603e-06,1.53163e-05,-2.76569e-08,1.57103e-05,74,38.14,139.31,500000,500000,-5.09094e-08,1.56994e-07,-5.54192e-08,-0.00257878,0.0237751,-1.79629e-05,0.0251852,3,2383
12,3.46453e-22,2,7329,76.12,-3.54547e-06,1.52298e-05,-2.83557e-08,1.5637e-05,74,38.14,139.31,500000,500000,-4.85489e-08,1.55658e-07,-5.68881e-08,-0.00233339,0.0235322,-0.00020629,0.0248864,3,2384
12,3.39948e-22,2,7330,76.12,-3.59313e-06,1.51452e-05,-2.79459e-08,1.55656e-05,75.25,38.14,139.31,1.14581e+06,531250,-4.93825e-08,1.56873e-07,-5.57283e-08,-0.00230837,0.0245712,-0.000449634,0.0260919,3,2385
12,3.07419e-22,2,7331,76.12,-3.64423e-06,1.50803e-05,-2.11834e-08,1.55144e-05,81.5,38.14,139.31,4.37488e+06,687500,-5.51849e-08,1.56214e-07,-4.20457e-08,-0.00231583,0.0288028,-0.000207287,0.0303534,3,2386
12,2.61878e-22,1,7332,118.57,-3.7035e-06,1.50531e-05,-1.30861e-08,1.5502e-05,90.25,73.1,-29.9,8.89556e+06,906250,-6.13049e-08,1.56084e-07,-2.6354e-08,-0.0020359,0.0347597,0.000148838,0.0359545,2,4944
12,2.42361e-22,1,7333,118.57,-3.76684e-06,1.50465e-05,-1.12765e-08,1.55108e-05,94,73.1,-29.9,1.0833e+07,1e+06,-6.23399e-08,1.58617e-07,-2.26895e-08,-0.00163376,0.0379574,0.000153475,0.038878,2,4945
12,2.42361e-22,1,7334,118.57,-3.82818e-06,1.5049e-05,-1.24119e-08,1.55283e-05,94,73.1,-29.9,1.0833e+07,1e+06,-5.93959e-08,1.59956e-07,-2.47949e-08,-0.00126244,0.0387681,5.0895e-05,0.039689,2,4946
12,2.42361e-22,1,7335,118.57,-3.88564e-06,1.5065e-05,-1.36074e-08,1.55581e-05,94,73.1,-29.9,1.0833e+07,1e+06,-5.51642e-08,1.60785e-07,-2.72081e-08,-0.000770368,0.039613,2.61113e-05,0.0405491,2,4947
12,2.42361e-22,1,7336,118.57,-3.93851e-06,1.50955e-05,-1.47295e-08,1.56008e-05,94,73.1,-29.9,1.0833e+07,1e+06,-5.01399e-08,1.6046e-07,-2.94503e-08,-0.000198161,0.0402422,4.29786e-05,0.0412321,2,4948
12,2.42361e-22,1,7337,118.57,-3.98591e-06,1.51405e-05,-1.57378e-08,1.56564e-05,94,73.1,-29.9,1.0833e+07,1e+06,-4.43774e-08,1.58374e-07,-3.15397e-08,0.00043336,0.0403989,4.13632e-05,0.0414538,2,4949
12,2.42361e-22,1,7338,118.57,-4.02726e-06,1.51977e-05,-1.65724e-08,1.57222e-05,94,73.1,-29.9,1.0833e+07,1e+06,-3.84817e-08,1.5505e-07,-3.27911e-08,0.0011856,0.0401423,0.000200115,0.0410515,2,4950
12,2.42361e-22,1,7339,118.57,-4.06288e-06,1.52616e-05,-1.67296e-08,1.57931e-05,94,73.1,-29.9,1.0833e+07,1e+06,-3.26404e-08,1.51126e-07,-3.29757e-08,0.00216089,0.0395784,0.000647728,0.0399475,2,4951
12,2.49465e-22,1,7340,118.57,-4.09254e-06,1.53265e-05,-1.8652e-08,1.58635e-05,93.5625,73.1,-29.9,1.01872e+07,968750,-2.92124e-08,1.53095e-07,-3.83268e-08,0.00288981,0.0385791,0.000472085,0.0386921,2,4952
12,2.77885e-22,1,7341,118.57,-4.1213e-06,1.53755e-05,-2.82978e-08,1.59182e-05,91.8125,73.1,-29.9,7.60394e+06,843750,-3.54316e-08,1.77234e-07,-5.78139e-08,0.002896,0.0369304,-0.000468771,0.0373528,2,4953
12,3.1341e-22,2,7342,26.35,-4.16341e-06,1.53812e-05,-4.30577e-08,1.59348e-05,89.625,19.24,-38.99,4.37488e+06,687500,-4.82995e-08,2.18334e-07,-8.57182e-08,0.00285529,0.0352781,-0.00114601,0.0356986,3,2387
12,3.2762e-22,2,7343,26.35,-4.2179e-06,1.53365e-05,-5.21168e-08,1.5906e-05,88.75,19.24,-38.99,3.08325e+06,625000,-5.61055e-08,2.49565e-07,-1.02704e-07,0.00393747,0.0359569,-0.00119436,0.0356544,3,2388
12,4.11939e-22,2,7344,26.35,-4.27562e-06,1.52361e-05,-4.87067e-08,1.58247e-05,91.9375,19.24,-38.99,5.02069e+06,718750,-5.28845e-08,2.68294e-07,-9.67636e-08,0.00702332,0.0466118,-2.70259e-05,0.0451238,3,2389
12,5.68367e-22,1,7345,137.15,-4.32367e-06,1.51613e-05,-4.03986e-08,1.57658e-05,100,109.19,-42.07,8.89556e+06,906250,-4.21076e-08,2.61726e-07,-8.13574e-08,0.00853143,0.0568946,0.00119118,0.0540205,2,4954
12,5.65983e-22,1,7346,137.15,-4.35983e-06,1.51601e-05,-3.37515e-08,1.57746e-05,104.188,109.19,-42.07,1.0833e+07,1e+06,-3.98768e-08,2.39726e-07,-6.75989e-08,0.00707413,0.0574453,0.00103678,0.0544478,2,4955
12,4.29208e-22,1,7347,118.57,-4.40342e-06,1.51441e-05,-2.74592e-08,1.57713e-05,101.125,73.1,-29.9,1.0833e+07,1e+06,-5.04703e-08,2.32615e-07,-5.53484e-08,0.00502906,0.0569714,0.000851868,0.0547671,2,4956
12,4.29208e-22,1,7348,118.57,-4.46077e-06,1.50929e-05,-2.53212e-08,1.57383e-05,101.125,73.1,-29.9,1.0833e+07,1e+06,-6.00987e-08,2.34338e-07,-5.09871e-08,0.00269698,0.0571904,0.00120839,0.0559159,2,4957
12,6.02722e-22,1,7349,137.15,-4.52362e-06,1.50605e-05,-3.02207e-08,1.57253e-05,103.125,109.19,-42.07,1.0833e+07,1e+06,-6.52139e-08,2.35074e-07,-6.01249e-08,0.000148828,0.0541861,6.03469e-05,0.0554239,2,4958
12,7.38949e-22,1,7350,126.38,-4.5912e-06,1.50603e-05,-3.69815e-08,1.57446e-05,98.875,117.57,-54.43,1.01872e+07,968750,-6.84236e-08,2.37653e-07,-7.32233e-08,-0.00019845,0.0482139,-0.000930909,0.0503533,2,4959
12,6.44434e-22,1,7351,126.38,-4.66047e-06,1.50707e-05,-3.66512e-08,1.57749e-05,95.9375,117.57,-54.43,6.95812e+06,812500,-7.26255e-08,2.37963e-07,-7.4411e-08,0.00142808,0.039924,0.00120784,0.0405834,2,4960
12,4.27397e-22,2,7352,105.68,-4.73645e-06,1.50158e-05,-4.11633e-08,1.57452e-05,99.4375,-4.36,162.92,2.43744e+06,593750,-8.61295e-08,2.34765e-07,-8.31322e-08,0.000244595,0.0276184,0.000903261,0.0288618,3,2390
12,3.27906e-22,2,7353,105.68,-4.83273e-06,1.48968e-05,-4.81983e-08,1.56612e-05,102.5,-4.36,162.92,500000,500000,-1.00601e-07,2.47696e-07,-9.60312e-08,-0.00048235,0.0221316,-0.00030452,0.0231205,3,2391
12,3.51858e-22,2,7354,105.68,-4.93765e-06,1.47817e-05,-5.07747e-08,1.55846e-05,103.625,-4.36,162.92,1.14581e+06,531250,-9.78548e-08,2.61576e-07,-1.01107e-07,0.000556384,0.0257763,-1.85197e-05,0.0259188,3,2392
12,4.03693e-22,2,7355,105.68,-5.02844e-06,1.47168e-05,-5.02018e-08,1.55522e-05,104.875,-4.36,162.92,2.43744e+06,593750,-8.27812e-08,2.45089e-07,-9.90927e-08,-0.00019498,0.0273964,-0.000694688,0.0286666,3,2393
12,4.81446e-22,2,7356,105.68,-5.10322e-06,1.47206e-05,-4.35305e-08,1.55802e-05,106.75,-4.36,162.92,4.37488e+06,687500,-6.7652e-08,2.10909e-07,-8.66158e-08,-0.00199169,0.0276321,-0.00143382,0.0306119,3,2394
12,5.85116e-22,1,7357,137.15,-5.16374e-06,1.47878e-05,-3.50887e-08,1.56635e-05,109.25,109.19,-42.07,6.95812e+06,812500,-5.68826e-08,1.85386e-07,-7.07021e-08,-0.00288721,0.0297173,-0.000912832,0.0328775,2,4961
12,6.60678e-22,1,7358,137.15,-5.21698e-06,1.49137e-05,-2.95119e-08,1.57999e-05,111.625,109.19,-42.07,8.89556e+06,906250,-5.30733e-08,1.75651e-07,-6.00589e-08,-0.00355121,0.0329454,-7.54104e-06,0.0356193,2,4962
12,7.08131e-22,1,7359,137.15,-5.26989e-06,1.50594e-05,-2.87755e-08,1.59549e-05,113.875,109.19,-42.07,1.01872e+07,968750,-5.05251e-08,1.74905e-07,-5.76373e-08,-0.00434151,0.0369596,0.000102145,0.0397602,2,4963
12,7.27476e-22,1,7360,137.15,-5.31803e-06,1.5194e-05,-2.76964e-08,1.60978e-05,116,109.19,-42.07,1.0833e+07,1e+06,-4.28354e-08,1.66746e-07,-5.57622e-08,-0.00431491,0.0374995,0.000596276,0.0399454,2,4964
12,7.16522e-22,1,7361,9.52002,-5.35556e-06,1.52906e-05,-3.03135e-08,1.62014e-05,118.5,63.66,-15.5,1.0833e+07,1e+06,-2.90439e-08,1.50028e-07,-6.071e-08,-0.00447003,0.0341192,0.000228704,0.036836,2,4965
12,7.07758e-22,1,7362,9.52002,-5.37612e-06,1.5356e-05,-3.54401e-08,1.62699e-05,120.5,63.66,-15.5,1.0833e+07,1e+06,-1.56222e-08,1.3965e-07,-7.00134e-08,-0.00423785,0.0314117,-0.000399191,0.0340773,2,4966
12,7.05568e-22,1,7363,9.52003,-5.3868e-06,1.54043e-05,-3.75406e-08,1.6319e-05,121,63.66,-15.5,1.0833e+07,1e+06,-8.70933e-09,1.3946e-07,-7.50454e-08,-0.00325352,0.0312246,-0.000358004,0.0331868,2,4967
12,7.05568e-22,1,7364,9.52003,-5.39354e-06,1.54403e-05,-3.85834e-08,1.63553e-05,121,63.66,-15.5,1.0833e+07,1e+06,-5.53732e-09,1.42307e-07,-7.74192e-08,-0.0023822,0.0319151,-0.000113079,0.0332522,2,4968
12,7.05568e-22,1,7365,9.52003,-5.39788e-06,1.54662e-05,-4.00588e-08,1.63812e-05,121,63.66,-15.5,1.0833e+07,1e+06,-3.4772e-09,1.45507e-07,-8.0086e-08,-0.00185668,0.0326086,-4.6485e-05,0.0336087,2,4969
12,7.05568e-22,1,7366,9.52003,-5.40049e-06,1.54835e-05,-4.1554e-08,1.63983e-05,121,63.66,-15.5,1.0833e+07,1e+06,-2.05699e-09,1.49651e-07,-8.3088e-08,-0.00150707,0.0335003,-1.79967e-05,0.0342936,2,4970
12,7.05568e-22,1,7367,9.52003,-5.40199e-06,1.54931e-05,-4.29578e-08,1.64079e-05,121,63.66,-15.5,1.0833e+07,1e+06,-1.04151e-09,1.53838e-07,-8.59129e-08,-0.00125482,0.0344056,3.23479e-06,0.0350589,2,4971
12,7.05568e-22,1,7368,9.52003,-5.40257e-06,1.54961e-05,-4.41243e-08,1.64109e-05,121,63.66,-15.5,1.0833e+07,1e+06,-5.5861e-11,1.57134e-07,-8.82513e-08,-0.00101353,0.0351123,1.8179e-05,0.0356415,2,4972
12,7.05568e-22,1,7369,9.52003,-5.4021e-06,1.54942e-05,-4.4987e-08,1.6409e-05,121,63.66,-15.5,1.0833e+07,1e+06,1.17753e-09,1.59014e-07,-8.9981e-08,-0.000727322,0.0355056,2.47699e-05,0.0358927,2,4973
12,7.05568e-22,1,7370,9.52003,-5.40022e-06,1.54904e-05,-4.56741e-08,1.64048e-05,121,63.66,-15.5,1.0833e+07,1e+06,2.76806e-09,1.59709e-07,-9.13655e-08,-0.000398095,0.0356398,7.86283e-06,0.0358676,2,4974
12,7.05568e-22,1,7371,9.52003,-5.39657e-06,1.54897e-05,-4.66564e-08,1.64029e-05,121,63.66,-15.5,1.0833e+07,1e+06,4.5069e-09,1.60849e-07,-9.33032e-08,-0.000108341,0.0358806,-5.58351e-05,0.0359823,2,4975
12,7.05568e-22,1,7372,9.52003,-5.39121e-06,1.54971e-05,-4.86251e-08,1.64081e-05,121,63.66,-15.5,1.0833e+07,1e+06,5.76882e-09,1.66e-07,-9.71697e-08,3.59238e-05,0.0370486,-0.000106174,0.0370904,2,4976
12,7.05568e-22,1,7373,9.52004,-5.38503e-06,1.55109e-05,-5.13565e-08,1.64192e-05,121,63.66,-15.5,1.0833e+07,1e+06,6.20279e-09,1.76519e-07,-1.02764e-07,9.04495e-05,0.0395157,2.87178e-05,0.0394583,2,4977
12,5.74276e-22,1,7374,153.51,-3.53159e-08,1.52464e-05,-3.15698e-08,1.52465e-05,29,-89.16,129.77,1.0833e+07,1e+06,-6.98348e-08,1.90983e-07,-6.31854e-08,-0.0135948,0.0425372,-0.000210335,0.0508117,2,4978
12,5.74276e-22,1,7375,153.51,-1.04354e-07,1.53233e-05,-2.87323e-08,1.53237e-05,29,-89.16,129.77,1.0833e+07,1e+06,-6.6556e-08,1.80056e-07,-5.74789e-08,-0.0129424,0.0403087,0.000403116,0.0480083,2,4979
12,5.74276e-22,1,7376,153.51,-1.68428e-07,1.53833e-05,-2.58873e-08,1.53842e-05,29,-89.16,129.77,1.0833e+07,1e+06,-6.09105e-08,1.60361e-07,-5.17325e-08,-0.0121221,0.035746,2.96978e-05,0.0431175,2,4980
12,5.74276e-22,1,7377,153.51,-2.26175e-07,1.54298e-05,-2.2692e-08,1.54315e-05,29,-89.16,129.77,1.0833e+07,1e+06,-5.53336e-08,1.41042e-07,-4.53384e-08,-0.0111787,0.0312738,-8.37281e-05,0.0381462,2,4981
12,5.74276e-22,1,7378,153.51,-2.79095e-07,1.54685e-05,-2.07788e-08,1.5471e-05,29,-89.16,129.77,1.0833e+07,1e+06,-5.14657e-08,1.29754e-07,-4.15664e-08,-0.0104232,0.0287114,-8.53678e-05,0.0351344,2,4982
12,5.74276e-22,1,7379,153.51,-3.29106e-07,1.54992e-05,-1.99329e-08,1.55027e-05,29,-89.16,129.77,1.0833e+07,1e+06,-4.90244e-08,1.2506e-07,-3.98847e-08,-0.00986625,0.0278249,-3.89389e-05,0.0338903,2,4983
12,5.74276e-22,1,7380,153.51,-3.77144e-07,1.55162e-05,-1.9391e-08,1.55208e-05,29,-89.16,129.77,1.0833e+07,1e+06,-4.70486e-08,1.22488e-07,-3.87869e-08,-0.00939953,0.0275861,-1.82207e-05,0.0333898,2,4984
12,5.74276e-22,1,7381,153.51,-4.23203e-07,1.55135e-05,-1.88919e-08,1.55193e-05,29,-89.16,129.77,1.0833e+07,1e+06,-4.50251e-08,1.20381e-07,-3.77779e-08,-0.00892194,0.0275632,-1.39524e-05,0.0331742,2,4985
12,5.74276e-22,1,7382,153.51,-4.67194e-07,1.54888e-05,-1.85754e-08,1.54958e-05,29,-89.16,129.77,1.0833e+07,1e+06,-4.3021e-08,1.19168e-07,-3.71441e-08,-0.00842661,0.0277599,1.8037e-07,0.0332257,2,4986
12,5.74276e-22,1,7383,153.51,-5.09246e-07,1.54446e-05,-1.859e-08,1.5453e-05,29,-89.16,129.77,1.0833e+07,1e+06,-4.12058e-08,1.19112e-07,-3.71796e-08,-0.00795621,0.0281287,1.54472e-05,0.033468,2,4987
12,5.74276e-22,1,7384,153.51,-5.49606e-07,1.53863e-05,-1.89582e-08,1.53962e-05,29,-89.16,129.77,1.0833e+07,1e+06,-3.96584e-08,1.20023e-07,-3.79163e-08,-0.00754303,0.0285645,2.01308e-05,0.0337517,2,4988
12,5.74276e-22,1,7385,153.51,-5.88562e-07,1.53206e-05,-1.96525e-08,1.53319e-05,29,-89.16,129.77,1.0833e+07,1e+06,-3.8406e-08,1.21845e-07,-3.93053e-08,-0.00719095,0.0290449,2.31905e-05,0.0340113,2,4989
12,5.74276e-22,1,7386,153.51,-6.26418e-07,1.5254e-05,-2.06225e-08,1.52669e-05,29,-89.16,129.77,1.0833e+07,1e+06,-3.7433e-08,1.24403e-07,-4.12469e-08,-0.00689808,0.0295361,2.65858e-05,0.0342095,2,4990
12,5.74276e-22,1,7387,153.51,-6.63428e-07,1.51925e-05,-2.17732e-08,1.5207e-05,29,-89.16,129.77,1.0833e+07,1e+06,-3.66537e-08,1.27294e-07,-4.35495e-08,-0.00665295,0.0299698,2.56767e-05,0.03431,2,4991
12,5.74276e-22,1,7388,153.51,-6.99725e-07,1.51407e-05,-2.29967e-08,1.51569e-05,29,-89.16,129.77,1.0833e+07,1e+06,-3.59522e-08,1.30148e-07,-4.59954e-08,-0.00643266,0.0303041,2.14498e-05,0.034311,2,4992
12,5.74276e-22,1,7389,153.51,-7.35333e-07,1.51012e-05,-2.42154e-08,1.51191e-05,29,-89.16,129.77,1.0833e+07,1e+06,-3.5247e-08,1.3279e-07,-4.84325e-08,-0.00621827,0.0305471,1.51329e-05,0.0342559,2,4993
12,5.74276e-22,1,7390,153.51,-7.70219e-07,1.50749e-05,-2.53894e-08,1.50946e-05,29,-89.16,129.77,1.0833e+07,1e+06,-3.45038e-08,1.35226e-07,-5.07825e-08,-0.0059993,0.030747,7.21442e-06,0.0342117,2,4994
12,5.74276e-22,1,7391,153.51,-8.0434e-07,1.5061e-05,-2.65156e-08,1.50825e-05,29,-89.16,129.77,1.0833e+07,1e+06,-3.37251e-08,1.37589e-07,-5.30187e-08,-0.005772,0.0309743,1.72562e-06,0.0342458,2,4995
12,5.74276e-22,1,7392,153.51,-8.37669e-07,1.50575e-05,-2.76231e-08,1.50808e-05,29,-89.16,129.77,1.0833e+07,1e+06,-3.30887e-08,1.40133e-07,-5.5268e-08,-0.00559094,0.0313016,-4.52435e-05,0.0344627,2,4996
12,5.74276e-22,1,7393,153.51,-8.70518e-07,1.5061e-05,-2.89414e-08,1.50862e-05,29,-89.16,129.77,1.0833e+07,1e+06,-3.23273e-08,1.43787e-07,-5.78326e-08,-0.00535287,0.0320302,-9.4786e-05,0.0350569,2,4997
12,5.74276e-22,1,7394,153.51,-9.02324e-07,1.50652e-05,-2.98647e-08,1.50922e-05,29,-89.16,129.77,1.0833e+07,1e+06,-3.17788e-08,1.45828e-07,-5.95505e-08,-0.0052472,0.0324337,-0.000171634,0.0354115,2,4998
12,5.40153e-22,1,7395,153.51,-9.34075e-07,1.50704e-05,-2.64771e-08,1.50993e-05,29.375,-89.16,129.77,8.89556e+06,906250,-5.13767e-08,1.57984e-07,-5.35486e-08,-0.00544775,0.031141,0.000377448,0.035188,2,4999
12,4.60533e-22,2,7396,58.62,-1.00508e-06,1.50915e-05,-2.31806e-08,1.5125e-05,30.25,158.52,96.68,4.37488e+06,687500,-1.01707e-07,1.87964e-07,-4.62397e-08,-0.00607813,0.0241806,0.000595819,0.0301609,3,2395
12,4.03662e-22,2,7397,58.62,-1.13749e-06,1.5158e-05,-2.44307e-08,1.52006e-05,30.875,158.52,96.68,1.14581e+06,531250,-1.4477e-07,2.20749e-07,-4.87531e-08,-0.00646381,0.0175985,0.000421102,0.0243793,3,2396
12,5.0101e-22,2,7398,58.62,-1.29462e-06,1.52306e-05,-3.34384e-08,1.52856e-05,37,158.52,96.68,3.08325e+06,625000,-1.41976e-07,2.40053e-07,-6.66578e-08,-0.00745285,0.0234751,-0.00156113,0.0310309,3,2397
12,7.18453e-22,1,7399,130.6,-1.42144e-06,1.5305e-05,-3.51693e-08,1.53709e-05,49,117.2,-48.36,8.24975e+06,875000,-1.09028e-07,2.35396e-07,-6.99173e-08,-0.00691634,0.0360537,-0.00123585,0.0415555,2,5000
12,8.27175e-22,1,7400,130.6,-1.51267e-06,1.53855e-05,-2.98011e-08,1.54598e-05,55,117.2,-48.36,1.0833e+07,1e+06,-8.86623e-08,2.2452e-07,-6.0095e-08,-0.00487206,0.0417256,0.000701791,0.0443037,2,5001
12,8.27175e-22,1,7401,130.6,-1.59877e-06,1.54377e-05,-3.04705e-08,1.55203e-05,55,117.2,-48.36,1.0833e+07,1e+06,-8.43441e-08,2.20184e-07,-6.0941e-08,-0.00416226,0.0412042,8.54021e-05,0.0436925,2,5002
12,8.27175e-22,1,7402,130.6,-1.68136e-06,1.54792e-05,-2.99095e-08,1.55702e-05,55,117.2,-48.36,1.0833e+07,1e+06,-8.03363e-08,2.14834e-07,-5.98272e-08,-0.00351374,0.0404847,4.27536e-05,0.0427057,2,5003
12,8.27175e-22,1,7403,130.6,-1.75944e-06,1.55134e-05,-2.91915e-08,1.56129e-05,55,117.2,-48.36,1.0833e+07,1e+06,-7.55021e-08,2.07995e-07,-5.83837e-08,-0.00277495,0.0394972,1.3301e-05,0.0413781,2,5004
12,8.27175e-22,1,7404,130.6,-1.83237e-06,1.55423e-05,-2.83541e-08,1.56499e-05,55,117.2,-48.36,1.0833e+07,1e+06,-7.03327e-08,2.0024e-07,-5.67033e-08,-0.00201143,0.0382896,8.98305e-06,0.0397764,2,5005
12,8.27175e-22,1,7405,130.6,-1.9001e-06,1.5568e-05,-2.74588e-08,1.56835e-05,55,117.2,-48.36,1.0833e+07,1e+06,-6.51993e-08,1.91879e-07,-5.49133e-08,-0.00129961,0.0368621,1.1739e-05,0.0379324,2,5006
12,8.27175e-22,1,7406,130.6,-1.96277e-06,1.55929e-05,-2.65634e-08,1.5716e-05,55,117.2,-48.36,1.0833e+07,1e+06,-6.02031e-08,1.83214e-07,-5.31223e-08,-0.000639228,0.0352632,1.96691e-05,0.0358947,2,5007
12,8.27175e-22,1,7407,130.6,-2.02051e-06,1.56194e-05,-2.57168e-08,1.57495e-05,55,117.2,-48.36,1.0833e+07,1e+06,-5.53653e-08,1.74603e-07,-5.14276e-08,-5.5206e-06,0.033586,3.28218e-05,0.0337704,2,5008
12,8.27175e-22,1,7408,130.6,-2.0735e-06,1.56487e-05,-2.50093e-08,1.57855e-05,55,117.2,-48.36,1.0833e+07,1e+06,-5.08761e-08,1.66625e-07,-5.00727e-08,0.000582287,0.0319688,4.50427e-06,0.0317736,2,5009
12,8.27175e-22,1,7409,130.6,-2.12226e-06,1.56811e-05,-2.47518e-08,1.58241e-05,55,117.2,-48.36,1.0833e+07,1e+06,-4.73315e-08,1.6114e-07,-4.93879e-08,0.00110819,0.0308508,-2.57292e-05,0.0303574,2,5010
12,8.27175e-22,1,7410,130.6,-2.16816e-06,1.57188e-05,-2.66133e-08,1.58677e-05,55,117.2,-48.36,1.0833e+07,1e+06,-4.64397e-08,1.61901e-07,-5.36571e-08,0.00115465,0.0305408,-0.00105945,0.0305625,2,5011
12,7.49732e-22,1,7411,130.6,-2.21514e-06,1.57659e-05,-2.46977e-08,1.59207e-05,55.9375,117.2,-48.36,1.0833e+07,1e+06,-5.19964e-08,1.70206e-07,-4.96247e-08,0.000885505,0.032576,0.000535682,0.0329936,2,5012
12,6.09785e-22,1,7412,77.86,-2.27215e-06,1.58138e-05,-2.84892e-08,1.59762e-05,57.875,-129.75,-168.63,1.0833e+07,1e+06,-6.35422e-08,1.8564e-07,-5.63585e-08,0.000100596,0.0321103,0.000375696,0.0329753,2,5013
12,5.62219e-22,1,7413,77.86,-2.34223e-06,1.5851e-05,-3.56783e-08,1.60231e-05,58.9375,-129.75,-168.63,1.0833e+07,1e+06,-7.48644e-08,2.01918e-07,-7.11249e-08,-0.000937662,0.0299998,-0.00133842,0.0311623,2,5014
12,5.77158e-22,1,7414,77.86,-2.42188e-06,1.58814e-05,-3.5656e-08,1.60651e-05,59,-129.75,-168.63,1.0833e+07,1e+06,-8.22144e-08,2.11834e-07,-7.05506e-08,-0.00156491,0.0308488,-3.52137e-06,0.03166,2,5015
12,5.89501e-22,1,7415,77.86,-2.50665e-06,1.59072e-05,-3.39617e-08,1.61035e-05,60.375,-129.75,-168.63,1.0833e+07,1e+06,-8.38084e-08,2.11612e-07,-6.83608e-08,-0.00194427,0.0308905,0.000519487,0.0318509,2,5016
12,6.5122e-22,1,7416,77.86,-2.5895e-06,1.59175e-05,-3.44406e-08,1.61268e-05,67.25,-129.75,-168.63,1.0833e+07,1e+06,-8.16608e-08,2.10936e-07,-7.01685e-08,-0.00144101,0.030198,0.00054211,0.0312972,2,5017
12,7.37626e-22,1,7417,91.26,-2.66998e-06,1.58972e-05,-3.74672e-08,1.61199e-05,76.875,-49.63,-179.82,1.0833e+07,1e+06,-8.00649e-08,2.10624e-07,-7.45649e-08,-0.000843262,0.0283489,0.000250604,0.0292216,2,5018
12,7.74657e-22,1,7418,91.26,-2.74963e-06,1.58637e-05,-3.7277e-08,1.61002e-05,81,-49.63,-179.82,1.0833e+07,1e+06,-7.83409e-08,2.04017e-07,-7.41706e-08,-0.00082145,0.0262528,9.95965e-05,0.0268501,2,5019
12,7.74657e-22,1,7419,91.26,-2.82666e-06,1.58407e-05,-3.61953e-08,1.6091e-05,81,-49.63,-179.82,1.0833e+07,1e+06,-7.59052e-08,1.9826e-07,-7.24399e-08,-0.000747003,0.0254958,-6.02241e-06,0.0260203,2,5020
12,7.74657e-22,1,7420,91.26,-2.90144e-06,1.58278e-05,-3.5758e-08,1.60915e-05,81,-49.63,-179.82,1.0833e+07,1e+06,-7.48468e-08,1.95697e-07,-7.15578e-08,-0.000718219,0.0251673,-1.49855e-05,0.0256217,2,5021
12,7.74657e-22,1,7421,91.26,-2.97635e-06,1.58264e-05,-3.60431e-08,1.61039e-05,81,-49.63,-179.82,1.0833e+07,1e+06,-7.68085e-08,1.97677e-07,-7.21016e-08,-0.00106371,0.0252826,-4.52733e-05,0.0258916,2,5022
12,7.74657e-22,1,7422,91.26,-3.05505e-06,1.58364e-05,-3.67428e-08,1.61284e-05,81,-49.63,-179.82,1.0833e+07,1e+06,-8.15332e-08,2.04791e-07,-7.36072e-08,-0.00157629,0.026073,0.000115158,0.0268853,2,5023
12,6.94369e-22,1,7423,91.26,-3.13942e-06,1.5858e-05,-3.72089e-08,1.61659e-05,79.6875,-49.63,-179.82,8.89556e+06,906250,-8.1818e-08,2.09265e-07,-7.38605e-08,-0.00218924,0.0279535,-0.000120152,0.0293728,2,5024
12,5.0703e-22,2,7424,76.12,-3.21869e-06,1.58582e-05,-3.20455e-08,1.61816e-05,76.625,38.14,139.31,4.37488e+06,687500,-7.39062e-08,1.94498e-07,-6.40533e-08,-0.00311813,0.0285554,-0.000247374,0.0306699,3,2398
12,3.73216e-22,2,7425,76.12,-3.28723e-06,1.5812e-05,-2.61849e-08,1.61501e-05,74.4375,38.14,139.31,1.14581e+06,531250,-6.67709e-08,1.76662e-07,-5.31999e-08,-0.00374836,0.0274829,0.000248898,0.0295919,3,2399
12,3.46453e-22,2,7426,76.12,-3.35223e-06,1.57413e-05,-2.66322e-08,1.60943e-05,74,38.14,139.31,500000,500000,-6.40452e-08,1.72419e-07,-5.30291e-08,-0.0038399,0.0266708,0.000303284,0.0286812,3,2400
12,3.46453e-22,2,7427,76.12,-3.41532e-06,1.56586e-05,-2.77295e-08,1.60268e-05,74,38.14,139.31,500000,500000,-6.15464e-08,1.69367e-07,-5.52003e-08,-0.0037658,0.0256999,6.14119e-05,0.0277576,3,2401
12,3.46453e-22,2,7428,76.12,-3.47532e-06,1.55677e-05,-2.7891e-08,1.59509e-05,74,38.14,139.31,500000,500000,-5.82835e-08,1.64654e-07,-5.58803e-08,-0.00354723,0.0246678,-1.54978e-05,0.0266445,3,2402
12,3.46453e-22,2,7429,76.12,-3.53189e-06,1.54749e-05,-2.78764e-08,1.58728e-05,74,38.14,139.31,500000,500000,-5.50069e-08,1.6002e-07,-5.57486e-08,-0.00324484,0.0238575,-1.9941e-05,0.025676,3,2403
12,3.46453e-22,2,7430,76.12,-3.58534e-06,1.5386e-05,-2.79878e-08,1.57983e-05,74,38.14,139.31,500000,500000,-5.2826e-08,1.56986e-07,-5.6161e-08,-0.00309864,0.023372,-0.000209936,0.0251831,3,2404
12,3.46453e-22,2,7431,76.12,-3.63754e-06,1.53058e-05,-2.91351e-08,1.57321e-05,74,38.14,139.31,500000,500000,-5.33581e-08,1.60268e-07,-5.80972e-08,-0.0031102,0.0240768,-0.000562867,0.0260258,3,2405
12,3.2043e-22,2,7432,76.12,-3.69205e-06,1.52425e-05,-2.31529e-08,1.56833e-05,79,38.14,139.31,3.08325e+06,625000,-5.76492e-08,1.61917e-07,-4.61024e-08,-0.00269551,0.0282594,-4.27905e-05,0.0298814,3,2406
12,2.68384e-22,1,7433,118.57,-3.75284e-06,1.52108e-05,-1.33387e-08,1.56669e-05,89,73.1,-29.9,8.24975e+06,875000,-6.22843e-08,1.57732e-07,-2.68061e-08,-0.00201993,0.0342335,0.000457775,0.0352628,2,5025
12,2.42361e-22,1,7434,118.57,-3.81662e-06,1.52037e-05,-1.09099e-08,1.56754e-05,94,73.1,-29.9,1.0833e+07,1e+06,-6.2216e-08,1.56069e-07,-2.18456e-08,-0.00158583,0.0371157,0.000163867,0.0379405,2,5026
12,2.42361e-22,1,7435,118.57,-3.87727e-06,1.52073e-05,-1.20054e-08,1.56938e-05,94,73.1,-29.9,1.0833e+07,1e+06,-5.84515e-08,1.56366e-07,-2.4042e-08,-0.00115535,0.0377319,4.18828e-05,0.0385161,2,5027
12,2.42361e-22,1,7436,118.57,-3.93353e-06,1.52237e-05,-1.32595e-08,1.57237e-05,94,73.1,-29.9,1.0833e+07,1e+06,-5.37887e-08,1.56782e-07,-2.65181e-08,-0.000596641,0.0384853,1.9853e-05,0.0392072,2,5028
12,2.42361e-22,1,7437,118.57,-3.98485e-06,1.52539e-05,-1.44671e-08,1.57658e-05,94,73.1,-29.9,1.0833e+07,1e+06,-4.86173e-08,1.56652e-07,-2.89347e-08,4.10098e-05,0.0391426,2.58167e-05,0.0398284,2,5029
12,2.42361e-22,1,7438,118.57,-4.03076e-06,1.52974e-05,-1.56318e-08,1.58195e-05,94,73.1,-29.9,1.0833e+07,1e+06,-4.3075e-08,1.55604e-07,-3.12554e-08,0.000729347,0.0395332,2.44585e-05,0.0401918,2,5030
12,2.42361e-22,1,7439,118.57,-4.071e-06,1.5352e-05,-1.6649e-08,1.58826e-05,94,73.1,-29.9,1.0833e+07,1e+06,-3.76225e-08,1.53865e-07,-3.33532e-08,0.00144566,0.0396314,1.06774e-05,0.0401964,2,5031
12,2.42361e-22,1,7440,118.57,-4.10601e-06,1.54134e-05,-1.74512e-08,1.5951e-05,94,73.1,-29.9,1.0833e+07,1e+06,-3.29917e-08,1.52203e-07,-3.45557e-08,0.00221678,0.0395808,0.000165746,0.0397996,2,5032
12,2.42361e-22,1,7441,118.57,-4.13698e-06,1.54753e-05,-1.76424e-08,1.60188e-05,94,73.1,-29.9,1.0833e+07,1e+06,-2.91915e-08,1.50566e-07,-3.47741e-08,0.00307091,0.0393161,0.000540636,0.038871,2,5033
12,2.49465e-22,1,7442,118.57,-4.16439e-06,1.55321e-05,-1.93616e-08,1.60807e-05,93.5625,73.1,-29.9,1.01872e+07,968750,-2.7726e-08,1.53861e-07,-3.91332e-08,0.00371197,0.0384898,0.000459613,0.0376108,2,5034
12,2.63675e-22,1,7443,118.57,-4.19243e-06,1.55683e-05,-2.49182e-08,1.6123e-05,92.6875,73.1,-29.9,8.89556e+06,906250,-3.06666e-08,1.69605e-07,-5.03973e-08,0.00428883,0.0378034,-4.21054e-05,0.036712,2,5035
12,2.7078e-22,1,7444,118.57,-4.22572e-06,1.55555e-05,-3.01562e-08,1.61193e-05,92.25,73.1,-29.9,8.24975e+06,875000,-3.67989e-08,1.92634e-07,-6.0608e-08,0.00515599,0.0396037,-0.000410353,0.0381827,2,5036
12,2.94817e-22,1,7445,118.57,-4.26603e-06,1.54817e-05,-3.11401e-08,1.60588e-05,93.875,73.1,-29.9,8.89556e+06,906250,-4.38069e-08,2.24236e-07,-6.1805e-08,0.00693636,0.0492661,0.000262097,0.0467961,2,5037
12,3.42889e-22,1,7446,118.57,-4.31334e-06,1.54106e-05,-2.80328e-08,1.60029e-05,97.125,73.1,-29.9,1.01872e+07,968750,-5.08124e-08,2.38988e-07,-5.58014e-08,0.00667308,0.0571037,0.000983812,0.0541865,2,5038
12,3.35784e-22,1,7447,118.57,-4.36766e-06,1.53895e-05,-2.42898e-08,1.59973e-05,97.5625,73.1,-29.9,1.0833e+07,1e+06,-5.71468e-08,2.26429e-07,-4.94301e-08,0.00384763,0.0553014,0.000261067,0.0537025,2,5039
12,2.73502e-22,1,7448,118.57,-4.42763e-06,1.53699e-05,-2.40258e-08,1.59949e-05,95.1875,73.1,-29.9,1.0833e+07,1e+06,-5.95662e-08,2.25149e-07,-4.77629e-08,0.00342849,0.0551413,-0.000166698,0.0537677,2,5040
12,2.73502e-22,1,7449,118.57,-4.48679e-06,1.53304e-05,-2.45155e-08,1.59735e-05,95.1875,73.1,-29.9,1.0833e+07,1e+06,-5.90999e-08,2.39188e-07,-4.88018e-08,0.00487257,0.0592887,0.00091695,0.056676,2,5041
12,4.52951e-22,1,7450,118.57,-4.54583e-06,1.52999e-05,-2.94848e-08,1.59609e-05,95.875,73.1,-29.9,1.0833e+07,1e+06,-6.30861e-08,2.44415e-07,-5.9671e-08,0.00337323,0.0575976,-0.000665182,0.0576012,2,5042
12,6.86573e-22,1,7451,126.38,-4.61296e-06,1.52997e-05,-3.77439e-08,1.598e-05,94.375,117.57,-54.43,1.01872e+07,968750,-7.09789e-08,2.50931e-07,-7.34374e-08,0.00206976,0.0509114,-0.000883484,0.0526439,2,5043
12,6.44473e-22,1,7452,126.38,-4.68779e-06,1.53013e-05,-3.52584e-08,1.60033e-05,96.125,117.57,-54.43,6.95812e+06,812500,-8.45419e-08,2.40684e-07,-7.12847e-08,0.000907435,0.0381173,0.00108582,0.0395606,2,5044
12,4.215e-22,2,7453,105.68,-4.78204e-06,1.52463e-05,-3.87671e-08,1.59787e-05,100.938,-4.36,162.92,2.43744e+06,593750,-1.03082e-07,2.36221e-07,-7.95097e-08,-0.000971992,0.0243767,0.000123,0.0262071,3,2407
12,3.25941e-22,2,7454,105.68,-4.89395e-06,1.51507e-05,-4.85444e-08,1.59216e-05,103,-4.36,162.92,500000,500000,-1.12759e-07,2.5881e-07,-9.59855e-08,-0.000550951,0.0217723,-0.000293808,0.0224688,3,2408
12,3.25941e-22,2,7455,105.68,-5.00756e-06,1.50578e-05,-5.28123e-08,1.58687e-05,103,-4.36,162.92,500000,500000,-1.10745e-07,2.76433e-07,-1.05988e-07,0.000348056,0.024403,0.000203125,0.0243455,3,2409
12,3.25941e-22,2,7456,105.68,-5.11544e-06,1.49925e-05,-5.77222e-08,1.58413e-05,103,-4.36,162.92,500000,500000,-9.79038e-08,2.7905e-07,-1.15661e-07,0.00129328,0.0257892,0.000290149,0.0251296,3,2410
12,3.51858e-22,2,7457,105.68,-5.20337e-06,1.49682e-05,-5.95862e-08,1.5847e-05,103.625,-4.36,162.92,1.14581e+06,531250,-7.9379e-08,2.65252e-07,-1.18637e-07,0.00178034,0.02702,-0.000538392,0.0269058,3,2411
12,4.03693e-22,2,7458,105.68,-5.2742e-06,1.50068e-05,-5.58638e-08,1.59068e-05,104.875,-4.36,162.92,2.43744e+06,593750,-7.11002e-08,2.49256e-07,-1.10602e-07,0.00103275,0.0285172,-0.00109994,0.029468,3,2412
12,5.00791e-22,2,7459,105.68,-5.34557e-06,1.51106e-05,-4.9446e-08,1.60283e-05,108.875,-4.36,162.92,5.02069e+06,718750,-5.95968e-08,2.22746e-07,-9.81446e-08,-0.00140891,0.032159,-0.00156431,0.0349702,3,2413
12,6.43151e-22,1,7460,9.52003,-5.39339e-06,1.52399e-05,-4.24856e-08,1.61662e-05,115.625,63.66,-15.5,8.89556e+06,906250,-3.34414e-08,1.86755e-07,-8.59057e-08,-0.00289959,0.0367605,-0.000979842,0.0397965,2,5045
12,7.1214e-22,1,7461,9.52003,-5.41245e-06,1.53557e-05,-3.70229e-08,1.62817e-05,119.5,63.66,-15.5,1.0833e+07,1e+06,-1.67217e-08,1.58045e-07,-7.49188e-08,-0.00288096,0.0356557,0.000141901,0.0374227,2,5046
12,7.07758e-22,1,7462,9.52003,-5.42684e-06,1.54365e-05,-3.76054e-08,1.63627e-05,120.5,63.66,-15.5,1.0833e+07,1e+06,-1.07655e-08,1.45453e-07,-7.48201e-08,-0.0029215,0.0327342,-0.000136478,0.0344974,2,5047
12,7.05568e-22,1,7463,9.52003,-5.43398e-06,1.54968e-05,-3.90359e-08,1.64219e-05,121,63.66,-15.5,1.0833e+07,1e+06,-5.36083e-09,1.41716e-07,-7.798e-08,-0.00243236,0.0316762,-0.000307565,0.0331316,2,5048
12,7.05568e-22,1,7464,9.52003,-5.43756e-06,1.55455e-05,-3.92917e-08,1.64691e-05,121,63.66,-15.5,1.0833e+07,1e+06,-2.69691e-09,1.41662e-07,-7.87816e-08,-0.00173839,0.0317099,-0.000138884,0.0326987,2,5049
12,7.05568e-22,1,7465,9.52003,-5.43938e-06,1.55834e-05,-4.01172e-08,1.65055e-05,121,63.66,-15.5,1.0833e+07,1e+06,-1.30244e-09,1.43616e-07,-8.01944e-08,-0.00135484,0.0321734,-2.6255e-05,0.0328936,2,5050
12,7.05568e-22,1,7466,9.52003,-5.44016e-06,1.56126e-05,-4.12057e-08,1.65333e-05,121,63.66,-15.5,1.0833e+07,1e+06,-5.36571e-10,1.46898e-07,-8.2416e-08,-0.0011717,0.0328855,-1.60429e-05,0.0334991,2,5051
12,7.05568e-22,1,7467,9.52003,-5.44045e-06,1.56339e-05,-4.24255e-08,1.65535e-05,121,63.66,-15.5,1.0833e+07,1e+06,-1.97629e-10,1.50967e-07,-8.48477e-08,-0.00108425,0.0337699,-8.54071e-06,0.0343345,2,5052
12,7.05568e-22,1,7468,9.52003,-5.44056e-06,1.56476e-05,-4.3595e-08,1.65665e-05,121,63.66,-15.5,1.0833e+07,1e+06,-6.73058e-11,1.5517e-07,-8.71906e-08,-0.0010309,0.0346856,8.89223e-06,0.0352213,2,5053
12,7.05568e-22,1,7469,9.52003,-5.44058e-06,1.56538e-05,-4.45239e-08,1.65724e-05,121,63.66,-15.5,1.0833e+07,1e+06,1.33915e-10,1.58478e-07,-8.90635e-08,-0.000950139,0.035397,2.78723e-05,0.0358965,2,5054
12,7.05568e-22,1,7470,9.52003,-5.44029e-06,1.56536e-05,-4.50779e-08,1.65721e-05,121,63.66,-15.5,1.0833e+07,1e+06,7.45308e-10,1.59977e-07,-9.01885e-08,-0.000777495,0.0357007,4.00192e-05,0.0361238,2,5055
12,7.05568e-22,1,7471,9.52003,-5.43909e-06,1.565e-05,-4.53321e-08,1.65683e-05,121,63.66,-15.5,1.0833e+07,1e+06,2.1122e-09,1.5962e-07,-9.07292e-08,-0.000458824,0.0356046,4.99763e-05,0.0358682,2,5056
12,7.05568e-22,1,7472,9.52003,-5.43607e-06,1.56496e-05,-4.57764e-08,1.65669e-05,121,63.66,-15.5,1.0833e+07,1e+06,4.10942e-09,1.58682e-07,-9.16183e-08,-9.48297e-05,0.0353836,-8.63223e-06,0.0354798,2,5057
12,7.05568e-22,1,7473,9.52003,-5.43088e-06,1.56619e-05,-4.76273e-08,1.65769e-05,121,63.66,-15.5,1.0833e+07,1e+06,5.64663e-09,1.62211e-07,-9.51554e-08,3.76397e-05,0.0361613,-0.000160615,0.0362439,2,5058
12,7.05568e-22,1,7474,9.52003,-5.42477e-06,1.56877e-05,-5.12882e-08,1.65993e-05,121,63.66,-15.5,1.0833e+07,1e+06,6.07445e-09,1.76431e-07,-1.02493e-07,7.42157e-05,0.0395383,4.94947e-05,0.0394867,2,5059
12,5.74276e-22,1,7475,153.51,-3.39036e-08,1.54376e-05,-3.24557e-08,1.54376e-05,29,-89.16,129.77,1.0833e+07,1e+06,-6.67487e-08,1.9297e-07,-6.49771e-08,-0.0127421,0.0433286,-0.000227958,0.0510482,2,5060
12,5.74276e-22,1,7476,153.51,-9.95938e-08,1.5503e-05,-2.89408e-08,1.55033e-05,29,-89.16,129.77,1.0833e+07,1e+06,-6.26934e-08,1.80356e-07,-5.79628e-08,-0.0118962,0.0409765,0.000512815,0.0479928,2,5061
12,5.74276e-22,1,7477,153.51,-1.5929e-07,1.5542e-05,-2.53884e-08,1.55428e-05,29,-89.16,129.77,1.0833e+07,1e+06,-5.61222e-08,1.56275e-07,-5.06188e-08,-0.0109714,0.0354507,7.44251e-05,0.0421212,2,5062
12,5.74276e-22,1,7478,153.51,-2.11838e-07,1.55689e-05,-2.2217e-08,1.55703e-05,29,-89.16,129.77,1.0833e+07,1e+06,-5.02427e-08,1.35797e-07,-4.43682e-08,-0.0100116,0.0305309,-0.000103718,0.0366697,2,5063
12,5.74276e-22,1,7479,153.51,-2.59776e-07,1.55974e-05,-2.10768e-08,1.55996e-05,29,-89.16,129.77,1.0833e+07,1e+06,-4.69601e-08,1.27848e-07,-4.22256e-08,-0.00932558,0.0285839,-9.36066e-05,0.0342684,2,5064
12,5.74276e-22,1,7480,153.51,-3.05758e-07,1.56247e-05,-2.08944e-08,1.56277e-05,29,-89.16,129.77,1.0833e+07,1e+06,-4.52963e-08,1.26292e-07,-4.17933e-08,-0.00889772,0.0283667,-3.6265e-05,0.0337676,2,5065
12,5.74276e-22,1,7481,153.51,-3.50368e-07,1.564e-05,-2.06331e-08,1.56439e-05,29,-89.16,129.77,1.0833e+07,1e+06,-4.37254e-08,1.25377e-07,-4.12713e-08,-0.00850046,0.0285307,-1.39257e-05,0.0337474,2,5066
12,5.74276e-22,1,7482,153.51,-3.93209e-07,1.56355e-05,-2.0167e-08,1.56404e-05,29,-89.16,129.77,1.0833e+07,1e+06,-4.17858e-08,1.2362e-07,-4.03315e-08,-0.00803524,0.0286146,-6.49854e-06,0.0336987,2,5067
12,5.74276e-22,1,7483,153.51,-4.3394e-07,1.56092e-05,-1.97095e-08,1.56153e-05,29,-89.16,129.77,1.0833e+07,1e+06,-3.96926e-08,1.21668e-07,-3.94133e-08,-0.00753585,0.0286337,7.55443e-08,0.033623,2,5068
12,5.74276e-22,1,7484,153.51,-4.72594e-07,1.55643e-05,-1.94768e-08,1.55715e-05,29,-89.16,129.77,1.0833e+07,1e+06,-3.77604e-08,1.20344e-07,-3.89531e-08,-0.00706494,0.0286843,7.99514e-06,0.0335815,2,5069
12,5.74276e-22,1,7485,153.51,-5.09461e-07,1.55064e-05,-1.95486e-08,1.55147e-05,29,-89.16,129.77,1.0833e+07,1e+06,-3.61596e-08,1.1989e-07,-3.90983e-08,-0.00666522,0.0287755,1.3469e-05,0.0335394,2,5070
12,5.74276e-22,1,7486,153.51,-5.44913e-07,1.54418e-05,-1.99305e-08,1.54514e-05,29,-89.16,129.77,1.0833e+07,1e+06,-3.49399e-08,1.20333e-07,-3.98587e-08,-0.0063492,0.0289034,1.70588e-05,0.033461,2,5071
12,5.74276e-22,1,7487,153.51,-5.79341e-07,1.53771e-05,-2.06045e-08,1.5388e-05,29,-89.16,129.77,1.0833e+07,1e+06,-3.40814e-08,1.2167e-07,-4.12083e-08,-0.00611032,0.029081,1.98141e-05,0.0333618,2,5072
12,5.74276e-22,1,7488,153.51,-6.13076e-07,1.5318e-05,-2.15077e-08,1.53303e-05,29,-89.16,129.77,1.0833e+07,1e+06,-3.3496e-08,1.23691e-07,-4.30189e-08,-0.00593012,0.0292932,2.19125e-05,0.0332604,2,5073
12,5.74276e-22,1,7489,153.51,-6.46333e-07,1.52688e-05,-2.25474e-08,1.52825e-05,29,-89.16,129.77,1.0833e+07,1e+06,-3.30651e-08,1.26036e-07,-4.50987e-08,-0.0057873,0.0294974,1.97841e-05,0.0331611,2,5074
12,5.74276e-22,1,7490,153.51,-6.79207e-07,1.52318e-05,-2.36663e-08,1.5247e-05,29,-89.16,129.77,1.0833e+07,1e+06,-3.26812e-08,1.2858e-07,-4.73319e-08,-0.00565422,0.0297128,1.60027e-05,0.0331124,2,5075
12,5.74276e-22,1,7491,153.51,-7.11695e-07,1.52081e-05,-2.48253e-08,1.52248e-05,29,-89.16,129.77,1.0833e+07,1e+06,-3.22554e-08,1.31324e-07,-4.96533e-08,-0.00550588,0.0299864,1.4399e-05,0.0331703,2,5076
12,5.74276e-22,1,7492,153.51,-7.43717e-07,1.51969e-05,-2.60047e-08,1.52151e-05,29,-89.16,129.77,1.0833e+07,1e+06,-3.17393e-08,1.34242e-07,-5.20299e-08,-0.00533298,0.0303454,6.93559e-06,0.0333595,2,5077
12,5.74276e-22,1,7493,153.51,-7.75174e-07,1.51963e-05,-2.73529e-08,1.52161e-05,29,-89.16,129.77,1.0833e+07,1e+06,-3.10204e-08,1.37753e-07,-5.47224e-08,-0.00510072,0.0309034,-2.15029e-05,0.0337603,2,5078
12,5.74276e-22,1,7494,153.51,-8.05758e-07,1.52045e-05,-2.89924e-08,1.52259e-05,29,-89.16,129.77,1.0833e+07,1e+06,-3.10279e-08,1.42109e-07,-5.84392e-08,-0.00518195,0.0316483,-0.000371796,0.0346743,2,5079
12,5.62902e-22,1,7495,153.51,-8.37229e-07,1.52118e-05,-3.02783e-08,1.52349e-05,29.125,-89.16,129.77,1.01872e+07,968750,-3.9172e-08,1.52397e-07,-5.94464e-08,-0.00575847,0.0325225,-0.000375782,0.0363355,2,5080
12,5.0603e-22,1,7496,153.51,-8.84102e-07,1.52308e-05,-2.50031e-08,1.52565e-05,29.75,-89.16,129.77,6.95813e+06,812500,-7.79459e-08,1.7401e-07,-5.00714e-08,-0.00679126,0.0287691,0.000287792,0.0346374,2,5081
12,4.26411e-22,2,7497,58.62,-9.93121e-07,1.52917e-05,-2.14239e-08,1.5324e-05,30.625,158.52,96.68,2.43744e+06,593750,-1.35785e-07,2.11279e-07,-4.38587e-08,-0.00711966,0.0206131,0.000894632,0.027892,3,2414
12,4.19469e-22,2,7498,58.62,-1.15567e-06,1.53923e-05,-2.58275e-08,1.54356e-05,32.5,158.52,96.68,1.14581e+06,531250,-1.5826e-07,2.34643e-07,-5.17272e-08,-0.00771719,0.0178464,0.000276626,0.0256697,3,2415
12,5.55371e-22,2,7499,58.62,-1.30964e-06,1.5482e-05,-3.43806e-08,1.55374e-05,40,158.52,96.68,4.37488e+06,687500,-1.34982e-07,2.45779e-07,-6.83433e-08,-0.00740218,0.0282312,-0.00106678,0.0355208,3,2416
12,7.45634e-22,1,7500,130.6,-1.42564e-06,1.55495e-05,-3.54233e-08,1.56148e-05,50.5,117.2,-48.36,8.89556e+06,906250,-1.02306e-07,2.43627e-07,-7.02605e-08,-0.00524829,0.0403346,-0.000357379,0.0444972,2,5082
12,8.27175e-22,1,7501,130.6,-1.51425e-06,1.56109e-05,-3.07236e-08,1.56842e-05,55,117.2,-48.36,1.0833e+07,1e+06,-8.61679e-08,2.26746e-07,-6.19152e-08,-0.00404216,0.0426242,0.000410817,0.0448957,2,5083
12,8.27175e-22,1,7502,130.6,-1.59797e-06,1.56576e-05,-3.07853e-08,1.57389e-05,55,117.2,-48.36,1.0833e+07,1e+06,-8.20412e-08,2.20608e-07,-6.1541e-08,-0.00350521,0.0416745,1.23727e-05,0.0439392,2,5084
12,8.27175e-22,1,7503,130.6,-1.67833e-06,1.56937e-05,-2.98912e-08,1.57832e-05,55,117.2,-48.36,1.0833e+07,1e+06,-7.83246e-08,2.14413e-07,-5.98117e-08,-0.00302096,0.0408139,1.69357e-05,0.0429335,2,5085
12,8.27175e-22,1,7504,130.6,-1.75462e-06,1.57209e-05,-2.89312e-08,1.58185e-05,55,117.2,-48.36,1.0833e+07,1e+06,-7.38385e-08,2.06846e-07,-5.78694e-08,-0.00244283,0.0396675,2.10324e-05,0.0415555,2,5086
12,8.27175e-22,1,7505,130.6,-1.82601e-06,1.57415e-05,-2.78807e-08,1.58471e-05,55,117.2,-48.36,1.0833e+07,1e+06,-6.8698e-08,1.97997e-07,-5.57627e-08,-0.00178363,0.0382138,2.1634e-05,0.0397735,2,5087
12,8.27175e-22,1,7506,130.6,-1.89202e-06,1.57581e-05,-2.67849e-08,1.58713e-05,55,117.2,-48.36,1.0833e+07,1e+06,-6.32643e-08,1.88283e-07,-5.35671e-08,-0.00110542,0.0365012,2.28349e-05,0.0376547,2,5088
12,8.27175e-22,1,7507,130.6,-1.95254e-06,1.57738e-05,-2.57233e-08,1.58942e-05,55,117.2,-48.36,1.0833e+07,1e+06,-5.78971e-08,1.78359e-07,-5.14458e-08,-0.000451776,0.0346404,2.26744e-05,0.0353389,2,5089
12,8.27175e-22,1,7508,130.6,-2.00781e-06,1.57911e-05,-2.47864e-08,1.59183e-05,55,117.2,-48.36,1.0833e+07,1e+06,-5.29518e-08,1.68973e-07,-4.95836e-08,0.000139056,0.0327812,1.27859e-05,0.03303,2,5090
12,8.27175e-22,1,7509,130.6,-2.05844e-06,1.58125e-05,-2.41658e-08,1.5946e-05,55,117.2,-48.36,1.0833e+07,1e+06,-4.90197e-08,1.61158e-07,-4.82635e-08,0.000581411,0.0311157,-3.46068e-05,0.0310172,2,5091
12,8.27175e-22,1,7510,130.6,-2.10585e-06,1.58404e-05,-2.39519e-08,1.59798e-05,55,117.2,-48.36,1.0833e+07,1e+06,-4.68592e-08,1.56801e-07,-4.83994e-08,0.000765265,0.0299934,-0.000252386,0.0298057,2,5092
12,8.27175e-22,1,7511,130.6,-2.15216e-06,1.58793e-05,-2.65136e-08,1.60245e-05,55,117.2,-48.36,1.0833e+07,1e+06,-4.69988e-08,1.57851e-07,-5.2412e-08,0.000567049,0.0296074,-0.00120602,0.0299766,2,5093
12,7.19855e-22,1,7512,130.6,-2.19985e-06,1.59306e-05,-2.0701e-08,1.60818e-05,55.8125,117.2,-48.36,1.0833e+07,1e+06,-5.08592e-08,1.58686e-07,-4.12496e-08,0.000570171,0.0316866,0.00074523,0.0321133,2,5094
12,5.35092e-22,1,7513,61.61,-2.25388e-06,1.59905e-05,-1.92077e-08,1.61486e-05,57.5625,-113.29,-151.66,1.0833e+07,1e+06,-5.92074e-08,1.64661e-07,-3.95283e-08,-5.93655e-05,0.0322068,0.000531725,0.0332128,2,5095
12,4.87526e-22,1,7514,77.86,-2.31826e-06,1.60486e-05,-2.78919e-08,1.62152e-05,58.625,-129.75,-168.63,1.0833e+07,1e+06,-6.89201e-08,1.82355e-07,-5.53762e-08,-0.000858016,0.0309442,-0.00130691,0.0323177,2,5096
12,5.32342e-22,1,7515,77.86,-2.39172e-06,1.60943e-05,-3.14992e-08,1.6271e-05,58.8125,-129.75,-168.63,1.0833e+07,1e+06,-7.67923e-08,2.00453e-07,-6.27452e-08,-0.0011777,0.0317609,-0.000387633,0.0327168,2,5097
12,5.74563e-22,1,7516,77.86,-2.47185e-06,1.61217e-05,-3.56375e-08,1.63101e-05,60.3125,-129.75,-168.63,1.0833e+07,1e+06,-8.27242e-08,2.13608e-07,-7.10055e-08,-0.00171563,0.0319507,-0.000553712,0.0333223,2,5098
12,6.5122e-22,1,7517,77.86,-2.55717e-06,1.61291e-05,-3.91485e-08,1.63306e-05,67.25,-129.75,-168.63,1.0833e+07,1e+06,-8.72891e-08,2.18229e-07,-7.76321e-08,-0.00265226,0.0302051,-0.0011283,0.0326761,2,5099
12,7.37626e-22,1,7518,91.26,-2.64643e-06,1.61076e-05,-3.85728e-08,1.63236e-05,76.875,-49.63,-179.82,1.0833e+07,1e+06,-8.87173e-08,2.13451e-07,-7.76288e-08,-0.00322282,0.0274436,-0.000871148,0.0301011,2,5100
12,7.74657e-22,1,7519,91.26,-2.7346e-06,1.6069e-05,-3.64648e-08,1.63001e-05,81,-49.63,-179.82,1.0833e+07,1e+06,-8.59878e-08,2.05184e-07,-7.33707e-08,-0.00285735,0.0256054,-3.24964e-05,0.0273951,2,5101
12,7.74657e-22,1,7520,91.26,-2.8184e-06,1.60395e-05,-3.56587e-08,1.62853e-05,81,-49.63,-179.82,1.0833e+07,1e+06,-8.30753e-08,1.99009e-07,-7.11389e-08,-0.00265555,0.0248826,-2.20613e-05,0.0264789,2,5102
12,7.74657e-22,1,7521,91.26,-2.90075e-06,1.60237e-05,-3.50951e-08,1.62842e-05,81,-49.63,-179.82,1.0833e+07,1e+06,-8.27008e-08,1.9733e-07,-7.02807e-08,-0.00270524,0.0246611,2.75489e-05,0.0261873,2,5103
12,7.74657e-22,1,7522,91.26,-2.9838e-06,1.60242e-05,-3.51126e-08,1.62997e-05,81,-49.63,-179.82,1.0833e+07,1e+06,-8.44205e-08,1.98467e-07,-7.03537e-08,-0.00305389,0.0246778,3.47047e-05,0.0263819,2,5104
12,7.47894e-22,1,7523,91.26,-3.0696e-06,1.60427e-05,-3.53586e-08,1.63338e-05,80.5625,-49.63,-179.82,1.01872e+07,968750,-8.72202e-08,2.03896e-07,-7.07472e-08,-0.00343269,0.025878,0.000136173,0.0278083,2,5105
12,6.14081e-22,1,7524,91.26,-3.15824e-06,1.6065e-05,-3.37334e-08,1.63725e-05,78.375,-49.63,-179.82,6.95812e+06,812500,-8.43005e-08,1.99643e-07,-6.68712e-08,-0.00431591,0.0272368,-0.000372752,0.0300319,2,5106
12,4.26742e-22,2,7525,76.12,-3.2382e-06,1.60459e-05,-2.78904e-08,1.63694e-05,75.3125,38.14,139.31,2.43744e+06,593750,-7.55087e-08,1.85313e-07,-5.60921e-08,-0.00472767,0.0279519,-0.000191637,0.0308997,3,2417
12,3.46453e-22,2,7526,76.12,-3.30926e-06,1.59879e-05,-2.55243e-08,1.63268e-05,74,38.14,139.31,500000,500000,-7.09029e-08,1.80125e-07,-5.14086e-08,-0.00446622,0.0282253,0.000407192,0.0306201,3,2418
12,3.46453e-22,2,7527,76.12,-3.38e-06,1.59172e-05,-2.75701e-08,1.62722e-05,74,38.14,139.31,500000,500000,-6.95623e-08,1.79181e-07,-5.478e-08,-0.00457031,0.0274062,8.65925e-05,0.0299411,3,2419
12,3.46453e-22,2,7528,76.12,-3.44839e-06,1.58306e-05,-2.81361e-08,1.62019e-05,74,38.14,139.31,500000,500000,-6.66705e-08,1.75098e-07,-5.63966e-08,-0.00448226,0.0262379,-6.89174e-06,0.0287584,3,2420
12,3.46453e-22,2,7529,76.12,-3.51334e-06,1.57347e-05,-2.83244e-08,1.61222e-05,74,38.14,139.31,500000,500000,-6.30704e-08,1.69312e-07,-5.66158e-08,-0.00426388,0.0250218,-1.43423e-05,0.0274486,3,2421
12,3.46453e-22,2,7530,76.12,-3.57453e-06,1.56364e-05,-2.80293e-08,1.60398e-05,74,38.14,139.31,500000,500000,-5.94407e-08,1.63107e-07,-5.60344e-08,-0.00398686,0.0239368,-3.9715e-05,0.0262375,3,2422
12,3.46453e-22,2,7531,76.12,-3.63222e-06,1.55437e-05,-2.74534e-08,1.59625e-05,74,38.14,139.31,500000,500000,-5.64596e-08,1.57873e-07,-5.5342e-08,-0.00376045,0.0231999,-0.000181642,0.025418,3,2423
12,3.46453e-22,2,7532,76.12,-3.68745e-06,1.54657e-05,-2.8575e-08,1.58993e-05,74,38.14,139.31,500000,500000,-5.58447e-08,1.58434e-07,-5.69538e-08,-0.00371691,0.0234756,-0.000683163,0.0258323,3,2424
12,3.2043e-22,2,7533,76.12,-3.74391e-06,1.54042e-05,-2.31747e-08,1.58526e-05,79,38.14,139.31,3.08325e+06,625000,-5.98186e-08,1.61312e-07,-4.57417e-08,-0.00312611,0.0278489,-0.000218727,0.0297988,3,2425
12,2.68384e-22,1,7534,118.57,-3.80708e-06,1.53686e-05,-1.30724e-08,1.58331e-05,89,73.1,-29.9,8.24975e+06,875000,-6.40988e-08,1.57762e-07,-2.63784e-08,-0.00222741,0.0338534,0.000380637,0.0350316,2,5107
12,2.42361e-22,1,7535,118.57,-3.87211e-06,1.53586e-05,-1.04244e-08,1.58392e-05,94,73.1,-29.9,1.0833e+07,1e+06,-6.24495e-08,1.53353e-07,-2.10309e-08,-0.0016326,0.0361684,0.00010005,0.0370058,2,5108
12,2.42361e-22,1,7536,118.57,-3.93198e-06,1.53618e-05,-1.16736e-08,1.5857e-05,94,73.1,-29.9,1.0833e+07,1e+06,-5.74956e-08,1.52835e-07,-2.33304e-08,-0.00102571,0.0366892,3.1286e-05,0.0373335,2,5109
12,2.42361e-22,1,7537,118.57,-3.9871e-06,1.53786e-05,-1.29303e-08,1.5887e-05,94,73.1,-29.9,1.0833e+07,1e+06,-5.26981e-08,1.533e-07,-2.58584e-08,-0.00042052,0.0374553,1.51639e-05,0.0379623,2,5110
12,2.42361e-22,1,7538,118.57,-4.03738e-06,1.54088e-05,-1.41745e-08,1.5929e-05,94,73.1,-29.9,1.0833e+07,1e+06,-4.76297e-08,1.53513e-07,-2.83528e-08,0.000246742,0.0381652,1.98278e-05,0.0385609,2,5111
12,2.42361e-22,1,7539,118.57,-4.08236e-06,1.54517e-05,-1.54426e-08,1.59819e-05,94,73.1,-29.9,1.0833e+07,1e+06,-4.2265e-08,1.53278e-07,-3.0888e-08,0.000975676,0.0387316,1.03329e-05,0.0390241,2,5112
12,2.42361e-22,1,7540,118.57,-4.12191e-06,1.55054e-05,-1.66555e-08,1.6044e-05,94,73.1,-29.9,1.0833e+07,1e+06,-3.70987e-08,1.52921e-07,-3.3303e-08,0.00173525,0.0391734,-4.00377e-06,0.0393184,2,5113
12,2.42361e-22,1,7541,118.57,-4.15656e-06,1.5566e-05,-1.76747e-08,1.61114e-05,94,73.1,-29.9,1.0833e+07,1e+06,-3.2779e-08,1.52886e-07,-3.54041e-08,0.00247854,0.0395224,-1.41569e-05,0.039413,2,5114
12,2.42361e-22,1,7542,118.57,-4.18747e-06,1.56276e-05,-1.84808e-08,1.61789e-05,94,73.1,-29.9,1.0833e+07,1e+06,-2.9554e-08,1.53474e-07,-3.66661e-08,0.00328014,0.0398384,0.000133126,0.0392049,2,5115
12,2.42361e-22,1,7543,118.57,-4.21567e-06,1.56832e-05,-1.87052e-08,1.62399e-05,94,73.1,-29.9,1.0833e+07,1e+06,-2.73172e-08,1.53696e-07,-3.6788e-08,0.00419964,0.0397488,0.000461233,0.0382494,2,5116
12,2.42361e-22,1,7544,118.57,-4.2421e-06,1.57204e-05,-1.82097e-08,1.62827e-05,94,73.1,-29.9,1.0833e+07,1e+06,-2.81929e-08,1.56285e-07,-3.66273e-08,0.00496188,0.0396873,0.000689794,0.0374082,2,5117
12,2.42361e-22,1,7545,118.57,-4.27205e-06,1.57218e-05,-1.82904e-08,1.62919e-05,94,73.1,-29.9,1.0833e+07,1e+06,-3.70792e-08,1.70571e-07,-3.74977e-08,0.0049287,0.0419895,0.000665862,0.0395858,2,5118
12,2.42361e-22,1,7546,118.57,-4.31626e-06,1.56846e-05,-1.9968e-08,1.62676e-05,94,73.1,-29.9,1.0833e+07,1e+06,-5.17955e-08,2.01692e-07,-4.05144e-08,0.00460175,0.0489512,0.000667477,0.0465849,2,5119
12,2.42361e-22,1,7547,118.57,-4.37564e-06,1.56392e-05,-2.21632e-08,1.62398e-05,94,73.1,-29.9,1.0833e+07,1e+06,-5.98834e-08,2.24609e-07,-4.41428e-08,0.00451931,0.0547731,0.000479962,0.0524453,2,5120
12,2.42361e-22,1,7548,118.57,-4.43603e-06,1.5613e-05,-2.35398e-08,1.6231e-05,94,73.1,-29.9,1.0833e+07,1e+06,-5.76604e-08,2.24006e-07,-4.65732e-08,0.00455533,0.0548195,-4.21026e-06,0.0527139,2,5121
12,2.42361e-22,1,7549,118.57,-4.49096e-06,1.55944e-05,-2.47157e-08,1.62282e-05,94,73.1,-29.9,1.0833e+07,1e+06,-5.52718e-08,2.25909e-07,-4.92302e-08,0.00497857,0.0553909,-0.000188207,0.0531988,2,5122
12,2.42361e-22,1,7550,118.57,-4.54657e-06,1.55713e-05,-2.5555e-08,1.62215e-05,94,73.1,-29.9,1.0833e+07,1e+06,-5.59888e-08,2.39235e-07,-5.14973e-08,0.00578167,0.0590788,0.000446887,0.0561626,2,5123
12,3.53592e-22,1,7551,118.57,-4.60294e-06,1.55494e-05,-3.01495e-08,1.62164e-05,93.625,73.1,-29.9,1.0833e+07,1e+06,-5.85952e-08,2.52589e-07,-6.00499e-08,0.00591488,0.0609764,-0.000495907,0.0592721,2,5124
12,5.17571e-22,1,7552,126.38,-4.66376e-06,1.55622e-05,-3.38511e-08,1.6246e-05,94.8125,117.57,-54.43,8.89556e+06,906250,-7.52517e-08,2.66911e-07,-6.76684e-08,0.00519578,0.054319,0.00049236,0.0537943,2,5125
12,4.79983e-22,2,7553,105.68,-4.75345e-06,1.55521e-05,-3.95578e-08,1.62623e-05,99,-4.36,162.92,4.37488e+06,687500,-1.03118e-07,2.62949e-07,-7.86918e-08,0.00111865,0.0354971,0.000640625,0.0367862,3,2426
12,3.57794e-22,2,7554,105.68,-4.87e-06,1.54883e-05,-4.62668e-08,1.62359e-05,102.312,-4.36,162.92,1.14581e+06,531250,-1.19217e-07,2.56112e-07,-9.24647e-08,-0.00209912,0.0221493,-0.00128527,0.0247692,3,2427
12,3.25941e-22,2,7555,105.68,-4.99188e-06,1.54145e-05,-4.7186e-08,1.62027e-05,103,-4.36,162.92,500000,500000,-1.21544e-07,2.6559e-07,-9.51915e-08,-0.00103395,0.0218689,-0.000413975,0.022968,3,2428
12,3.25941e-22,2,7556,105.68,-5.11309e-06,1.53345e-05,-5.03714e-08,1.61646e-05,103,-4.36,162.92,500000,500000,-1.17485e-07,2.73761e-07,-1.00698e-07,-0.000141685,0.02333,4.36443e-05,0.0236926,3,2429
12,3.25941e-22,2,7557,105.68,-5.22685e-06,1.52749e-05,-5.50794e-08,1.61445e-05,103,-4.36,162.92,500000,500000,-1.10213e-07,2.78626e-07,-1.10011e-07,4.57967e-05,0.0245125,-0.000146297,0.0246997,3,2430
12,3.25941e-22,2,7558,105.68,-5.33351e-06,1.52511e-05,-5.8059e-08,1.61569e-05,103,-4.36,162.92,500000,500000,-1.03908e-07,2.80906e-07,-1.15709e-07,-4.83056e-05,0.0257844,-0.000117417,0.0261755,3,2431
12,3.49667e-22,2,7559,105.68,-5.43467e-06,1.52863e-05,-5.59198e-08,1.62237e-05,104.125,-4.36,162.92,1.14581e+06,531250,-8.96387e-08,2.70376e-07,-1.12545e-07,0.000313907,0.02819,0.000372728,0.0286835,3,2432
12,4.68301e-22,2,7560,105.68,-5.51279e-06,1.53592e-05,-5.45308e-08,1.63187e-05,109.75,-4.36,162.92,4.37488e+06,687500,-5.05936e-08,2.36042e-07,-1.09158e-07,0.000625535,0.0341511,-5.13662e-05,0.0352642,3,2433
12,6.34388e-22,1,7561,9.52004,-5.53585e-06,1.54329e-05,-5.31951e-08,1.63958e-05,117.625,63.66,-15.5,8.89556e+06,906250,-4.64394e-09,1.88475e-07,-1.05457e-07,0.00116266,0.0374292,-0.000404162,0.0379,2,5126
12,7.05568e-22,1,7562,9.52003,-5.52208e-06,1.55101e-05,-4.77215e-08,1.64638e-05,121,63.66,-15.5,1.0833e+07,1e+06,1.28943e-08,1.5506e-07,-9.51791e-08,0.00160232,0.0345625,-9.02136e-05,0.0338522,2,5127
12,7.05568e-22,1,7563,9.52003,-5.51006e-06,1.55815e-05,-4.36573e-08,1.65272e-05,121,63.66,-15.5,1.0833e+07,1e+06,9.86545e-09,1.45338e-07,-8.75742e-08,0.00104824,0.0325156,-4.04976e-05,0.0320472,2,5128
12,7.05568e-22,1,7564,9.52003,-5.50235e-06,1.56394e-05,-4.19046e-08,1.65792e-05,121,63.66,-15.5,1.0833e+07,1e+06,6.78307e-09,1.42625e-07,-8.41444e-08,0.000412889,0.0319328,5.17216e-06,0.0317367,2,5129
12,7.05568e-22,1,7565,9.52003,-5.4965e-06,1.56876e-05,-4.15635e-08,1.66227e-05,121,63.66,-15.5,1.0833e+07,1e+06,5.32053e-09,1.42352e-07,-8.31198e-08,0.000108654,0.0318768,1.33208e-05,0.0318247,2,5130
12,7.05568e-22,1,7566,9.52003,-5.49171e-06,1.57275e-05,-4.18342e-08,1.66588e-05,121,63.66,-15.5,1.0833e+07,1e+06,4.31298e-09,1.44337e-07,-8.36852e-08,-0.000114935,0.0323123,5.37297e-06,0.0323722,2,5131
12,7.05568e-22,1,7567,9.52003,-5.48787e-06,1.576e-05,-4.25178e-08,1.66882e-05,121,63.66,-15.5,1.0833e+07,1e+06,3.33764e-09,1.47694e-07,-8.50374e-08,-0.000335226,0.0330509,-2.5999e-06,0.033224,2,5132
12,7.05568e-22,1,7568,9.52003,-5.48503e-06,1.57854e-05,-4.34073e-08,1.67113e-05,121,63.66,-15.5,1.0833e+07,1e+06,2.28007e-09,1.51955e-07,-8.68174e-08,-0.000566618,0.0339893,-3.84106e-06,0.0342817,2,5133
12,7.05568e-22,1,7569,9.52003,-5.48331e-06,1.58034e-05,-4.43145e-08,1.67277e-05,121,63.66,-15.5,1.0833e+07,1e+06,1.12522e-09,1.5647e-07,-8.86289e-08,-0.000800032,0.0349803,5.95022e-06,0.0353941,2,5134
12,7.05568e-22,1,7570,9.52003,-5.48278e-06,1.58131e-05,-4.49729e-08,1.67366e-05,121,63.66,-15.5,1.0833e+07,1e+06,3.15545e-11,1.60135e-07,-8.99553e-08,-0.000994173,0.0357726,2.512e-05,0.0362943,2,5135
12,7.05568e-22,1,7571,9.52003,-5.48325e-06,1.58142e-05,-4.50599e-08,1.67379e-05,121,63.66,-15.5,1.0833e+07,1e+06,-7.25636e-10,1.61434e-07,-9.02204e-08,-0.00110534,0.0360197,2.6159e-05,0.0366252,2,5136
12,7.05568e-22,1,7572,9.52003,-5.48423e-06,1.58097e-05,-4.44617e-08,1.67339e-05,121,63.66,-15.5,1.0833e+07,1e+06,-9.08283e-10,1.59867e-07,-8.90236e-08,-0.00107287,0.035663,7.64962e-05,0.0362471,2,5137
12,7.05568e-22,1,7573,9.52003,-5.48507e-06,1.58071e-05,-4.34283e-08,1.67317e-05,121,63.66,-15.5,1.0833e+07,1e+06,5.70063e-10,1.56116e-07,-8.65341e-08,-0.000589155,0.0350016,0.00036151,0.0351837,2,5138
12,7.05568e-22,1,7574,9.52003,-5.48309e-06,1.58215e-05,-4.36975e-08,1.67447e-05,121,63.66,-15.5,1.0833e+07,1e+06,3.56854e-09,1.56815e-07,-8.74522e-08,0.00013637,0.0353912,0.000624259,0.0350382,2,5139
12,7.05568e-22,1,7575,9.52003,-5.47793e-06,1.58638e-05,-4.76177e-08,1.6783e-05,121,63.66,-15.5,1.0833e+07,1e+06,5.47696e-09,1.75982e-07,-9.53049e-08,0.000895118,0.0402863,0.00152478,0.0391079,2,5140
12,5.74276e-22,1,7576,153.51,-3.27982e-08,1.56324e-05,-3.42129e-08,1.56324e-05,29,-89.16,129.77,1.0833e+07,1e+06,-6.46208e-08,1.98253e-07,-6.81285e-08,-0.012076,0.0448586,-0.00031277,0.0522029,2,5141
12,5.74276e-22,1,7577,153.51,-9.64433e-08,1.5684e-05,-2.94958e-08,1.56844e-05,29,-89.16,129.77,1.0833e+07,1e+06,-5.96291e-08,1.84523e-07,-5.93899e-08,-0.0109189,0.0426268,0.00076207,0.0490371,2,5142
12,5.74276e-22,1,7578,153.51,-1.52056e-07,1.56958e-05,-2.40616e-08,1.56966e-05,29,-89.16,129.77,1.0833e+07,1e+06,-5.13487e-08,1.51283e-07,-4.84546e-08,-0.00978506,0.0350372,0.000266032,0.0410756,2,5143
12,5.74276e-22,1,7579,153.51,-1.99141e-07,1.57014e-05,-2.10042e-08,1.57027e-05,29,-89.16,129.77,1.0833e+07,1e+06,-4.56233e-08,1.27801e-07,-4.15838e-08,-0.00897322,0.0291409,-4.51781e-05,0.0347093,2,5144
12,5.74276e-22,1,7580,153.51,-2.43303e-07,1.57242e-05,-2.12529e-08,1.57261e-05,29,-89.16,129.77,1.0833e+07,1e+06,-4.37847e-08,1.26221e-07,-4.24664e-08,-0.00854209,0.0284515,-9.64697e-05,0.0336372,2,5145
12,5.74276e-22,1,7581,153.51,-2.8671e-07,1.57518e-05,-2.17741e-08,1.57544e-05,29,-89.16,129.77,1.0833e+07,1e+06,-4.28701e-08,1.2823e-07,-4.35653e-08,-0.00825109,0.0290285,-6.00453e-05,0.0340227,2,5146
12,5.74276e-22,1,7582,153.51,-3.29043e-07,1.57669e-05,-2.17979e-08,1.57704e-05,29,-89.16,129.77,1.0833e+07,1e+06,-4.131e-08,1.28805e-07,-4.36176e-08,-0.00782304,0.0295966,-2.38157e-05,0.0344274,2,5147
12,5.74276e-22,1,7583,153.51,-3.6933e-07,1.57607e-05,-2.13292e-08,1.57651e-05,29,-89.16,129.77,1.0833e+07,1e+06,-3.90144e-08,1.26819e-07,-4.26554e-08,-0.00727233,0.0296633,-1.04922e-05,0.0343647,2,5148
12,5.74276e-22,1,7584,153.51,-4.07072e-07,1.57321e-05,-2.07149e-08,1.57374e-05,29,-89.16,129.77,1.0833e+07,1e+06,-3.6539e-08,1.238e-07,-4.14217e-08,-0.00669983,0.0294281,-5.75228e-06,0.0340326,2,5149
12,5.74276e-22,1,7585,153.51,-4.42408e-07,1.56852e-05,-2.02648e-08,1.56915e-05,29,-89.16,129.77,1.0833e+07,1e+06,-3.43507e-08,1.21214e-07,-4.05327e-08,-0.00619037,0.0291545,1.8878e-06,0.0336589,2,5150
12,5.74276e-22,1,7586,153.51,-4.75773e-07,1.56261e-05,-2.00743e-08,1.56334e-05,29,-89.16,129.77,1.0833e+07,1e+06,-3.26299e-08,1.19424e-07,-4.01506e-08,-0.00578673,0.0288973,1.03608e-05,0.033258,2,5151
12,5.74276e-22,1,7587,153.51,-5.07668e-07,1.55613e-05,-2.01686e-08,1.55696e-05,29,-89.16,129.77,1.0833e+07,1e+06,-3.14217e-08,1.18512e-07,-4.03348e-08,-0.00550244,0.0286664,1.25749e-05,0.0328176,2,5152
12,5.74276e-22,1,7588,153.51,-5.38617e-07,1.54973e-05,-2.05889e-08,1.55067e-05,29,-89.16,129.77,1.0833e+07,1e+06,-3.07145e-08,1.18782e-07,-4.11757e-08,-0.00532411,0.0285546,1.34172e-05,0.0324359,2,5153
12,5.74276e-22,1,7589,153.51,-5.69097e-07,1.54399e-05,-2.12917e-08,1.54504e-05,29,-89.16,129.77,1.0833e+07,1e+06,-3.03989e-08,1.20152e-07,-4.25856e-08,-0.00522409,0.0285875,1.71346e-05,0.0321777,2,5154
12,5.74276e-22,1,7590,153.51,-5.99415e-07,1.53928e-05,-2.21667e-08,1.54045e-05,29,-89.16,129.77,1.0833e+07,1e+06,-3.03152e-08,1.22098e-07,-4.4333e-08,-0.00517673,0.0286811,1.63674e-05,0.0320082,2,5155
12,5.74276e-22,1,7591,153.51,-6.29727e-07,1.53584e-05,-2.31736e-08,1.53713e-05,29,-89.16,129.77,1.0833e+07,1e+06,-3.03921e-08,1.24623e-07,-4.63753e-08,-0.00516197,0.0288778,6.12111e-06,0.0320042,2,5156
12,5.74276e-22,1,7592,153.51,-6.60199e-07,1.53376e-05,-2.43109e-08,1.53518e-05,29,-89.16,129.77,1.0833e+07,1e+06,-3.05407e-08,1.27744e-07,-4.86248e-08,-0.00515132,0.0292307,1.02802e-06,0.0322195,2,5157
12,5.74276e-22,1,7593,153.51,-6.90809e-07,1.53295e-05,-2.55154e-08,1.53451e-05,29,-89.16,129.77,1.0833e+07,1e+06,-3.05831e-08,1.31199e-07,-5.10147e-08,-0.00510996,0.0297063,-8.92941e-06,0.0326007,2,5158
12,5.74276e-22,1,7594,153.51,-7.21365e-07,1.5333e-05,-2.69118e-08,1.535e-05,29,-89.16,129.77,1.0833e+07,1e+06,-3.04702e-08,1.35817e-07,-5.39407e-08,-0.00500902,0.0305413,-5.02091e-05,0.0333541,2,5159
12,5.74276e-22,1,7595,153.51,-7.51749e-07,1.53452e-05,-2.85478e-08,1.53637e-05,29,-89.16,129.77,1.0833e+07,1e+06,-3.128e-08,1.39994e-07,-5.65995e-08,-0.00521156,0.0311986,-0.000153929,0.0341701,2,5160
12,5.40153e-22,1,7596,153.51,-7.83925e-07,1.537e-05,-2.6236e-08,1.539e-05,29.375,-89.16,129.77,8.89556e+06,906250,-5.52487e-08,1.60456e-07,-5.28881e-08,-0.00594302,0.0312987,0.000406473,0.0357572,2,5161
12,4.60533e-22,2,7597,58.62,-8.62246e-07,1.54184e-05,-2.39942e-08,1.54425e-05,30.25,158.52,96.68,4.37488e+06,687500,-1.14413e-07,2.02797e-07,-4.79565e-08,-0.0072253,0.0255664,0.000603382,0.0324383,3,2434
12,4.03662e-22,2,7598,58.62,-1.01275e-06,1.55141e-05,-2.45319e-08,1.55471e-05,30.875,158.52,96.68,1.14581e+06,531250,-1.62154e-07,2.37563e-07,-4.85398e-08,-0.00786628,0.0186155,0.000639892,0.0266036,3,2435
12,4.73829e-22,2,7599,58.62,-1.18655e-06,1.56273e-05,-2.84018e-08,1.56723e-05,35.5,158.52,96.68,2.43744e+06,593750,-1.5539e-07,2.37149e-07,-5.72477e-08,-0.00901094,0.020656,-0.00069942,0.0297086,3,2436
12,6.64092e-22,1,7600,130.6,-1.32353e-06,1.57222e-05,-3.22367e-08,1.57778e-05,46,117.2,-48.36,6.95813e+06,812500,-1.17907e-07,2.34226e-07,-6.48926e-08,-0.00771672,0.033255,-0.000625481,0.0400109,2,5162
12,7.99995e-22,1,7601,130.6,-1.42237e-06,1.57923e-05,-3.16705e-08,1.58563e-05,53.5,117.2,-48.36,1.01872e+07,968750,-9.43801e-08,2.37896e-07,-6.3351e-08,-0.00483959,0.0432608,0.000934398,0.046244,2,5163
12,8.27175e-22,1,7602,130.6,-1.51229e-06,1.5839e-05,-3.14074e-08,1.59111e-05,55,117.2,-48.36,1.0833e+07,1e+06,-8.71248e-08,2.29017e-07,-6.23888e-08,-0.00415409,0.0432646,0.000299292,0.0457838,2,5164
12,8.27175e-22,1,7603,130.6,-1.59662e-06,1.58789e-05,-3.08852e-08,1.5959e-05,55,117.2,-48.36,1.0833e+07,1e+06,-8.18385e-08,2.21963e-07,-6.18268e-08,-0.00334844,0.0421683,-8.02421e-06,0.0444944,2,5165
12,8.27175e-22,1,7604,130.6,-1.67597e-06,1.5908e-05,-2.99181e-08,1.59961e-05,55,117.2,-48.36,1.0833e+07,1e+06,-7.69574e-08,2.14435e-07,-5.9833e-08,-0.00266328,0.0411507,7.4552e-07,0.0432507,2,5166
12,8.27175e-22,1,7605,130.6,-1.75053e-06,1.59271e-05,-2.87415e-08,1.6023e-05,55,117.2,-48.36,1.0833e+07,1e+06,-7.19921e-08,2.05668e-07,-5.74889e-08,-0.00205873,0.0398092,1.50304e-05,0.0416944,2,5167
12,8.27175e-22,1,7606,130.6,-1.81995e-06,1.59382e-05,-2.74469e-08,1.60418e-05,55,117.2,-48.36,1.0833e+07,1e+06,-6.66612e-08,1.9549e-07,-5.48922e-08,-0.00146427,0.0380912,2.30583e-05,0.0397002,2,5168
12,8.27175e-22,1,7607,130.6,-1.88386e-06,1.59445e-05,-2.61084e-08,1.60554e-05,55,117.2,-48.36,1.0833e+07,1e+06,-6.11341e-08,1.84415e-07,-5.22176e-08,-0.000879507,0.0360794,2.59495e-05,0.0373264,2,5169
12,8.27175e-22,1,7608,130.6,-1.94222e-06,1.59496e-05,-2.48604e-08,1.60675e-05,55,117.2,-48.36,1.0833e+07,1e+06,-5.5815e-08,1.73438e-07,-4.97269e-08,-0.000332254,0.033964,2.39164e-05,0.0347843,2,5170
12,8.27175e-22,1,7609,130.6,-1.99549e-06,1.59573e-05,-2.38197e-08,1.60816e-05,55,117.2,-48.36,1.0833e+07,1e+06,-5.11398e-08,1.6353e-07,-4.76641e-08,0.000134421,0.0319421,8.11063e-06,0.0323314,2,5171
12,8.27175e-22,1,7610,130.6,-2.0445e-06,1.5971e-05,-2.3186e-08,1.61014e-05,55,117.2,-48.36,1.0833e+07,1e+06,-4.75738e-08,1.55501e-07,-4.63097e-08,0.000446698,0.030151,-5.42267e-05,0.0302033,2,5172
12,8.27175e-22,1,7611,130.6,-2.09063e-06,1.59947e-05,-2.34605e-08,1.61308e-05,55,117.2,-48.36,1.0833e+07,1e+06,-4.58155e-08,1.50848e-07,-4.72174e-08,0.000420652,0.0287604,-0.000522419,0.0289098,2,5173
12,7.9661e-22,1,7612,130.6,-2.13613e-06,1.60345e-05,-2.32026e-08,1.61762e-05,55.1875,117.2,-48.36,1.0833e+07,1e+06,-4.70589e-08,1.49422e-07,-4.57179e-08,-1.34833e-05,0.0286913,-0.000598811,0.0293848,2,5174
12,6.43787e-22,1,7613,130.6,-2.18475e-06,1.60832e-05,-1.48944e-08,1.6231e-05,56.125,117.2,-48.36,1.0833e+07,1e+06,-5.24837e-08,1.47488e-07,-2.9466e-08,-0.000168242,0.0311203,0.00153528,0.0317304,2,5175
12,4.44773e-22,1,7614,61.61,-2.2411e-06,1.61431e-05,-1.07359e-08,1.6298e-05,57.5,-113.29,-151.66,1.0833e+07,1e+06,-5.97331e-08,1.48687e-07,-2.21892e-08,-0.00049547,0.0323548,0.00123553,0.0331232,2,5176
12,3.82956e-22,1,7615,61.61,-2.30422e-06,1.62157e-05,-1.46313e-08,1.63786e-05,58.1875,-113.29,-151.66,1.0833e+07,1e+06,-6.50433e-08,1.57891e-07,-2.97473e-08,-0.000714905,0.0322114,-0.000217879,0.0330358,2,5177
12,4.27772e-22,1,7616,61.61,-2.37119e-06,1.62823e-05,-1.88448e-08,1.64541e-05,58.375,-113.29,-151.66,1.0833e+07,1e+06,-7.10408e-08,1.74046e-07,-3.85693e-08,-0.00109812,0.0330466,-7.75629e-06,0.033901,2,5178
12,5.12213e-22,1,7617,77.86,-2.4463e-06,1.63344e-05,-2.78175e-08,1.65166e-05,61.375,-129.75,-168.63,1.0833e+07,1e+06,-8.03626e-08,1.9604e-07,-5.4767e-08,-0.00223259,0.0329593,-0.000533637,0.0348873,2,5179
12,6.31092e-22,1,7618,91.26,-2.53191e-06,1.63539e-05,-3.55176e-08,1.65488e-05,69.8125,-49.63,-179.82,1.0833e+07,1e+06,-8.8592e-08,2.13588e-07,-7.016e-08,-0.00328106,0.0315352,-0.00107199,0.0345631,2,5180
12,7.35031e-22,1,7619,91.26,-2.62348e-06,1.63241e-05,-3.78151e-08,1.65336e-05,78.1875,-49.63,-179.82,1.0833e+07,1e+06,-9.12019e-08,2.13326e-07,-7.5779e-08,-0.00393903,0.0279026,-0.000990516,0.0310573,2,5181
12,7.74657e-22,1,7620,91.26,-2.71431e-06,1.6274e-05,-3.63991e-08,1.64989e-05,81,-49.63,-179.82,1.0833e+07,1e+06,-9.02374e-08,2.02856e-07,-7.25437e-08,-0.0043305,0.0246163,-0.000420872,0.0274587,2,5182
12,7.74657e-22,1,7621,91.26,-2.80396e-06,1.62387e-05,-3.49499e-08,1.64791e-05,81,-49.63,-179.82,1.0833e+07,1e+06,-9.134e-08,1.99416e-07,-7.01753e-08,-0.00493235,0.0239993,-0.000279744,0.0270435,2,5183
12,7.74657e-22,1,7622,91.26,-2.89699e-06,1.62224e-05,-3.47702e-08,1.64791e-05,81,-49.63,-179.82,1.0833e+07,1e+06,-9.46063e-08,2.01852e-07,-6.97491e-08,-0.00553933,0.0241745,-4.84001e-05,0.0274335,2,5184
12,7.74657e-22,1,7623,91.26,-2.99317e-06,1.62234e-05,-3.43062e-08,1.64972e-05,81,-49.63,-179.82,1.0833e+07,1e+06,-9.58242e-08,2.02257e-07,-6.85721e-08,-0.00573696,0.0242583,0.00024597,0.0275665,2,5185
12,6.94369e-22,1,7624,91.26,-3.08864e-06,1.62442e-05,-3.28559e-08,1.65352e-05,79.6875,-49.63,-179.82,8.89556e+06,906250,-9.09393e-08,1.98151e-07,-6.53361e-08,-0.0054409,0.0253775,9.69584e-05,0.0286805,2,5186
12,5.0703e-22,2,7625,76.12,-3.17505e-06,1.62573e-05,-2.76565e-08,1.65645e-05,76.625,38.14,139.31,4.37487e+06,687500,-8.29554e-08,1.86726e-07,-5.59255e-08,-0.00549373,0.0269253,-0.000151941,0.0304145,3,2437
12,3.73216e-22,2,7626,76.12,-3.25455e-06,1.62288e-05,-2.4416e-08,1.6552e-05,74.4375,38.14,139.31,1.14581e+06,531250,-7.95817e-08,1.83267e-07,-4.91446e-08,-0.0056257,0.0284124,0.000252724,0.0316928,3,2438
12,3.46453e-22,2,7627,76.12,-3.33421e-06,1.61722e-05,-2.63361e-08,1.65124e-05,74,38.14,139.31,500000,500000,-7.86233e-08,1.87604e-07,-5.20974e-08,-0.00553193,0.0290388,0.000270374,0.0321205,3,2439
12,3.46453e-22,2,7628,76.12,-3.4118e-06,1.60996e-05,-2.7892e-08,1.64572e-05,74,38.14,139.31,500000,500000,-7.58433e-08,1.8598e-07,-5.59152e-08,-0.00543481,0.0281222,-2.283e-05,0.0312233,3,2440
12,3.46453e-22,2,7629,76.12,-3.4859e-06,1.60088e-05,-2.87196e-08,1.6384e-05,74,38.14,139.31,500000,500000,-7.20482e-08,1.81307e-07,-5.74095e-08,-0.0052117,0.0268895,-4.853e-06,0.0298644,3,2441
12,3.46453e-22,2,7630,76.12,-3.5559e-06,1.59063e-05,-2.87327e-08,1.6299e-05,74,38.14,139.31,500000,500000,-6.7852e-08,1.74048e-07,-5.74573e-08,-0.00498526,0.0253913,-3.32867e-05,0.0282946,3,2442
12,3.46453e-22,2,7631,76.12,-3.6216e-06,1.58011e-05,-2.82194e-08,1.62108e-05,74,38.14,139.31,500000,500000,-6.36872e-08,1.66218e-07,-5.63544e-08,-0.00469687,0.0240433,-4.46185e-05,0.0268221,3,2443
12,3.46453e-22,2,7632,76.12,-3.68327e-06,1.57018e-05,-2.72123e-08,1.6128e-05,74,38.14,139.31,500000,500000,-6.03635e-08,1.58493e-07,-5.47529e-08,-0.00452941,0.0229191,-0.000258209,0.0256695,3,2444
12,3.39948e-22,2,7633,76.12,-3.74233e-06,1.56227e-05,-2.50829e-08,1.60647e-05,75.25,38.14,139.31,1.14581e+06,531250,-5.95786e-08,1.5287e-07,-5.01591e-08,-0.00433233,0.0230188,-0.000490701,0.0258074,3,2445
12,3.07419e-22,2,7634,76.12,-3.80243e-06,1.55651e-05,-1.86091e-08,1.60228e-05,81.5,38.14,139.31,4.37488e+06,687500,-6.25454e-08,1.5479e-07,-3.67792e-08,-0.0031744,0.0279158,0.000122804,0.0299338,3,2446
12,2.61878e-22,1,7635,118.57,-3.86742e-06,1.55263e-05,-1.14253e-08,1.60007e-05,90.25,73.1,-29.9,8.89556e+06,906250,-6.50755e-08,1.54855e-07,-2.2936e-08,-0.00201336,0.0336175,0.000467685,0.0347008,2,5187
12,2.42361e-22,1,7636,118.57,-3.93258e-06,1.55104e-05,-9.89618e-09,1.60012e-05,94,73.1,-29.9,1.0833e+07,1e+06,-6.24961e-08,1.50396e-07,-1.98895e-08,-0.00157346,0.0351795,0.000106632,0.0359818,2,5188
12,2.42361e-22,1,7637,118.57,-3.99241e-06,1.55129e-05,-1.11811e-08,1.60184e-05,94,73.1,-29.9,1.0833e+07,1e+06,-5.75058e-08,1.4979e-07,-2.23536e-08,-0.00104034,0.0356929,1.19151e-05,0.0362958,2,5189
12,2.42361e-22,1,7638,118.57,-4.04759e-06,1.55303e-05,-1.24568e-08,1.60491e-05,94,73.1,-29.9,1.0833e+07,1e+06,-5.27381e-08,1.50531e-07,-2.4937e-08,-0.000402535,0.0365143,2.76701e-06,0.0369048,2,5190
12,2.42361e-22,1,7639,118.57,-4.09789e-06,1.55609e-05,-1.37714e-08,1.60915e-05,94,73.1,-29.9,1.0833e+07,1e+06,-4.76151e-08,1.51139e-07,-2.75493e-08,0.000339287,0.0373023,1.89579e-05,0.0374746,2,5191
12,2.42361e-22,1,7640,118.57,-4.14282e-06,1.56039e-05,-1.51462e-08,1.61445e-05,94,73.1,-29.9,1.0833e+07,1e+06,-4.21728e-08,1.5141e-07,-3.02902e-08,0.00114229,0.037982,9.26628e-06,0.0379564,2,5192
12,2.42361e-22,1,7641,118.57,-4.18223e-06,1.56579e-05,-1.65355e-08,1.62068e-05,94,73.1,-29.9,1.0833e+07,1e+06,-3.69585e-08,1.52042e-07,-3.30763e-08,0.00197782,0.0386851,-1.23708e-05,0.0384472,2,5193
12,2.42361e-22,1,7642,118.57,-4.21674e-06,1.57192e-05,-1.78168e-08,1.6275e-05,94,73.1,-29.9,1.0833e+07,1e+06,-3.26759e-08,1.53525e-07,-3.56308e-08,0.00280582,0.0394543,-1.78953e-05,0.0389251,2,5194
12,2.42361e-22,1,7643,118.57,-4.24759e-06,1.57823e-05,-1.88458e-08,1.63439e-05,94,73.1,-29.9,1.0833e+07,1e+06,-2.98401e-08,1.56004e-07,-3.77319e-08,0.00360052,0.0402393,-4.3459e-06,0.0392832,2,5195
12,2.42361e-22,1,7644,118.57,-4.27642e-06,1.58395e-05,-1.95476e-08,1.64066e-05,94,73.1,-29.9,1.0833e+07,1e+06,-2.93317e-08,1.59384e-07,-3.91671e-08,0.00421992,0.0408555,-2.41818e-05,0.0394114,2,5196
12,2.42361e-22,1,7645,118.57,-4.30625e-06,1.58809e-05,-1.99517e-08,1.64544e-05,94,73.1,-29.9,1.0833e+07,1e+06,-3.31405e-08,1.65565e-07,-3.98207e-08,0.00440808,0.0416107,-0.000115482,0.039862,2,5197
12,2.42361e-22,1,7646,118.57,-4.3427e-06,1.58967e-05,-2.01638e-08,1.64792e-05,94,73.1,-29.9,1.0833e+07,1e+06,-4.2379e-08,1.79348e-07,-4.01439e-08,0.00419556,0.0439385,-0.000137954,0.0421617,2,5198
12,2.42361e-22,1,7647,118.57,-4.39101e-06,1.58851e-05,-2.04888e-08,1.64809e-05,94,73.1,-29.9,1.0833e+07,1e+06,-5.34812e-08,2.00993e-07,-4.09907e-08,0.00404131,0.0486363,0.000124444,0.0467485,2,5199
12,2.42361e-22,1,7648,118.57,-4.44966e-06,1.58598e-05,-2.13131e-08,1.64722e-05,94,73.1,-29.9,1.0833e+07,1e+06,-6.01009e-08,2.18778e-07,-4.28104e-08,0.00407598,0.0530305,0.0003285,0.0509793,2,5200
12,2.42361e-22,1,7649,118.57,-4.51121e-06,1.58375e-05,-2.26046e-08,1.64675e-05,94,73.1,-29.9,1.0833e+07,1e+06,-6.06421e-08,2.24953e-07,-4.52664e-08,0.00419788,0.054687,0.000125143,0.0526747,2,5201
12,2.42361e-22,1,7650,118.57,-4.57095e-06,1.58217e-05,-2.40671e-08,1.64687e-05,94,73.1,-29.9,1.0833e+07,1e+06,-5.89304e-08,2.28853e-07,-4.82033e-08,0.00469462,0.0557543,-0.000113235,0.0536521,2,5202
12,2.42361e-22,1,7651,118.57,-4.62907e-06,1.58089e-05,-2.57121e-08,1.64727e-05,94,73.1,-29.9,1.0833e+07,1e+06,-5.86017e-08,2.38034e-07,-5.09166e-08,0.00528798,0.058302,0.000115057,0.055798,2,5203
12,2.79438e-22,1,7652,118.57,-4.68815e-06,1.5805e-05,-2.72894e-08,1.64857e-05,93.875,73.1,-29.9,1.0833e+07,1e+06,-6.4222e-08,2.5408e-07,-5.39089e-08,0.00499445,0.0621754,0.000219542,0.0600446,2,5204
12,3.3741e-22,1,7653,118.57,-4.75751e-06,1.58335e-05,-2.57845e-08,1.65328e-05,96,73.1,-29.9,8.24975e+06,875000,-8.80429e-08,2.66548e-07,-5.31763e-08,0.00375,0.0555091,0.00127622,0.0543688,2,5205
12,3.42123e-22,2,7654,105.68,-4.86424e-06,1.58272e-05,-3.93051e-08,1.65578e-05,100.625,-4.36,162.92,3.08325e+06,625000,-1.17283e-07,2.77334e-07,-7.89499e-08,0.000713044,0.0351962,0.000734838,0.0355838,3,2447
12,3.25941e-22,2,7655,105.68,-4.99208e-06,1.57585e-05,-5.22264e-08,1.65304e-05,103,-4.36,162.92,500000,500000,-1.24722e-07,2.78004e-07,-1.03189e-07,-0.00117612,0.022934,-0.000818879,0.0242815,3,2448
12,3.25941e-22,2,7656,105.68,-5.11368e-06,1.56819e-05,-4.78507e-08,1.64947e-05,103,-4.36,162.92,500000,500000,-1.21793e-07,2.68522e-07,-9.58782e-08,-0.00060049,0.0221106,-0.000254446,0.02303,3,2449
12,3.25941e-22,2,7657,105.68,-5.23566e-06,1.56053e-05,-4.69614e-08,1.64603e-05,103,-4.36,162.92,500000,500000,-1.20032e-07,2.66379e-07,-9.40462e-08,-0.000500561,0.0223238,3.86546e-05,0.022958,3,2450
12,3.25941e-22,2,7658,105.68,-5.35374e-06,1.55498e-05,-4.88343e-08,1.64457e-05,103,-4.36,162.92,500000,500000,-1.15354e-07,2.65624e-07,-9.79352e-08,-0.00080301,0.0228269,-0.000147848,0.0234831,3,2451
12,3.25941e-22,2,7659,105.68,-5.46637e-06,1.553e-05,-5.14797e-08,1.64641e-05,103,-4.36,162.92,500000,500000,-1.06902e-07,2.6699e-07,-1.02644e-07,-0.000520324,0.0243083,0.000223813,0.024671,3,2452
12,3.97121e-22,2,7660,105.68,-5.56755e-06,1.55476e-05,-5.27461e-08,1.65145e-05,106.375,-4.36,162.92,2.43744e+06,593750,-7.53694e-08,2.47504e-07,-1.05112e-07,0.000184459,0.0293298,-1.9798e-05,0.0302857,3,2453
12,5.63207e-22,1,7661,9.52004,-5.61711e-06,1.55827e-05,-5.25676e-08,1.65642e-05,114.25,63.66,-15.5,6.95812e+06,812500,-2.25468e-08,2.07098e-07,-1.0588e-07,0.00114722,0.0363006,-0.000238251,0.036999,2,5206
12,6.81841e-22,1,7662,9.52004,-5.61264e-06,1.56169e-05,-5.22698e-08,1.65949e-05,119.875,63.66,-15.5,1.01872e+07,968750,1.07996e-08,1.75992e-07,-1.04621e-07,0.00214916,0.0379925,9.67739e-05,0.037174,2,5207
12,7.05568e-22,1,7663,9.52003,-5.59551e-06,1.56658e-05,-4.96645e-08,1.66352e-05,121,63.66,-15.5,1.0833e+07,1e+06,1.70964e-08,1.564e-07,-9.88504e-08,0.00236784,0.0348372,-0.000203148,0.0338407,2,5208
12,7.05568e-22,1,7664,9.52003,-5.57845e-06,1.57272e-05,-4.59433e-08,1.66873e-05,121,63.66,-15.5,1.0833e+07,1e+06,1.57513e-08,1.46024e-07,-9.1892e-08,0.00217641,0.0326087,-0.000144366,0.0316958,2,5209
12,7.05568e-22,1,7665,9.52003,-5.56401e-06,1.5782e-05,-4.39193e-08,1.67342e-05,121,63.66,-15.5,1.0833e+07,1e+06,1.31112e-08,1.42801e-07,-8.78756e-08,0.00173457,0.0319736,1.74162e-05,0.0311589,2,5210
12,7.05568e-22,1,7666,9.52003,-5.55223e-06,1.58302e-05,-4.32112e-08,1.67757e-05,121,63.66,-15.5,1.0833e+07,1e+06,1.07154e-08,1.4271e-07,-8.64473e-08,0.00123107,0.0319569,1.30622e-05,0.0313705,2,5211
12,7.05568e-22,1,7667,9.52003,-5.54258e-06,1.58721e-05,-4.32143e-08,1.6812e-05,121,63.66,-15.5,1.0833e+07,1e+06,8.68505e-09,1.4469e-07,-8.64334e-08,0.000783749,0.0323961,2.71344e-06,0.032023,2,5212
12,7.05568e-22,1,7668,9.52003,-5.53486e-06,1.5908e-05,-4.36458e-08,1.68434e-05,121,63.66,-15.5,1.0833e+07,1e+06,6.75296e-09,1.48138e-07,-8.72957e-08,0.000349994,0.0331636,-6.96999e-06,0.0330028,2,5213
12,7.05568e-22,1,7669,9.52003,-5.52907e-06,1.59378e-05,-4.43437e-08,1.68697e-05,121,63.66,-15.5,1.0833e+07,1e+06,4.72211e-09,1.5265e-07,-8.86771e-08,-0.000102479,0.0341669,-1.23453e-05,0.0342308,2,5214
12,7.05568e-22,1,7670,9.52003,-5.52541e-06,1.59605e-05,-4.51049e-08,1.68899e-05,121,63.66,-15.5,1.0833e+07,1e+06,2.47571e-09,1.57693e-07,-9.02079e-08,-0.000586632,0.0352796,-1.3448e-05,0.0355897,2,5215
12,7.05568e-22,1,7671,9.52003,-5.52412e-06,1.59741e-05,-4.56099e-08,1.69024e-05,121,63.66,-15.5,1.0833e+07,1e+06,4.09997e-11,1.62032e-07,-9.12323e-08,-0.0010832,0.0362163,-1.75196e-05,0.0367945,2,5216
12,7.05568e-22,1,7672,9.52003,-5.52533e-06,1.59765e-05,-4.52702e-08,1.6905e-05,121,63.66,-15.5,1.0833e+07,1e+06,-2.53537e-09,1.6367e-07,-9.05763e-08,-0.00157152,0.0365443,2.77922e-06,0.0373937,2,5217
12,7.05568e-22,1,7673,9.52003,-5.52919e-06,1.59697e-05,-4.30555e-08,1.68999e-05,121,63.66,-15.5,1.0833e+07,1e+06,-5.22793e-09,1.59527e-07,-8.61494e-08,-0.00201815,0.0356435,0.000156292,0.0366405,2,5218
12,6.80802e-22,1,7674,9.52003,-5.53578e-06,1.59618e-05,-3.89788e-08,1.68946e-05,120.938,63.66,-15.5,1.01872e+07,968750,-1.06607e-08,1.55886e-07,-7.86513e-08,-0.00206045,0.0346397,0.000186102,0.035853,2,5219
12,6.3127e-22,1,7675,9.52003,-5.55051e-06,1.59755e-05,-3.86805e-08,1.69124e-05,120.812,63.66,-15.5,8.89556e+06,906250,-1.78899e-08,1.65022e-07,-7.75998e-08,-0.00146459,0.0353319,-0.000634797,0.0369756,2,5220
12,6.06504e-22,1,7676,9.52003,-5.57156e-06,1.60397e-05,-4.34168e-08,1.69799e-05,120.75,63.66,-15.5,8.24975e+06,875000,-2.08129e-08,1.91469e-07,-8.58528e-08,-0.000329057,0.0406567,-0.000410145,0.0418788,2,5221
12,5.74276e-22,1,7677,153.51,-2.91915e-08,1.58341e-05,-3.76445e-08,1.58341e-05,29,-89.16,129.77,1.0833e+07,1e+06,-5.79009e-08,2.05434e-07,-7.52628e-08,-0.0102998,0.0467426,-0.000618487,0.0531214,2,5222
12,5.62241e-22,1,7678,153.51,-8.66103e-08,1.5872e-05,-3.41036e-08,1.58723e-05,27.375,-89.16,129.77,1.01872e+07,968750,-5.61435e-08,1.97558e-07,-6.82534e-08,-0.00941336,0.0448201,0.00043812,0.0505595,2,5223
12,5.50206e-22,1,7679,153.51,-1.41479e-07,1.58445e-05,-2.59788e-08,1.58452e-05,25.75,-89.16,129.77,9.54138e+06,937500,-5.14412e-08,1.57367e-07,-5.19674e-08,-0.00896195,0.0348405,0.000222044,0.0407636,2,5224
12,5.62241e-22,1,7680,153.51,-1.89493e-07,1.58245e-05,-1.95755e-08,1.58256e-05,27.375,-89.16,129.77,1.01872e+07,968750,-4.56058e-08,1.22308e-07,-3.91999e-08,-0.00886804,0.0272726,-4.02303e-05,0.0330818,2,5225
12,5.74276e-22,1,7681,153.51,-2.3269e-07,1.58498e-05,-2.11498e-08,1.58515e-05,29,-89.16,129.77,1.0833e+07,1e+06,-4.29008e-08,1.24005e-07,-4.22949e-08,-0.00850762,0.0280688,-0.000323469,0.0333961,2,5226
12,5.74276e-22,1,7682,153.51,-2.75294e-07,1.58811e-05,-2.26268e-08,1.58835e-05,29,-89.16,129.77,1.0833e+07,1e+06,-4.13663e-08,1.30785e-07,-4.52327e-08,-0.00785146,0.029867,-0.00011284,0.0346844,2,5227
12,5.74276e-22,1,7683,153.51,-3.15423e-07,1.58976e-05,-2.30511e-08,1.59007e-05,29,-89.16,129.77,1.0833e+07,1e+06,-3.8609e-08,1.32464e-07,-4.60915e-08,-0.00707335,0.0307805,-3.08901e-05,0.0352492,2,5228
12,5.74276e-22,1,7684,153.51,-3.52512e-07,1.58891e-05,-2.25209e-08,1.5893e-05,29,-89.16,129.77,1.0833e+07,1e+06,-3.55122e-08,1.29605e-07,-4.50058e-08,-0.00633484,0.0306756,-8.64222e-06,0.0349576,2,5229
12,5.74276e-22,1,7685,153.51,-3.86447e-07,1.58568e-05,-2.17154e-08,1.58616e-05,29,-89.16,129.77,1.0833e+07,1e+06,-3.25855e-08,1.25233e-07,-4.34271e-08,-0.00567968,0.0300899,-1.18631e-05,0.034254,2,5230
12,5.74276e-22,1,7686,153.51,-4.17683e-07,1.58068e-05,-2.10788e-08,1.58123e-05,29,-89.16,129.77,1.0833e+07,1e+06,-3.02449e-08,1.2156e-07,-4.21646e-08,-0.00515027,0.0295125,1.52122e-06,0.0335552,2,5231
12,5.74276e-22,1,7687,153.51,-4.46937e-07,1.57452e-05,-2.06322e-08,1.57516e-05,29,-89.16,129.77,1.0833e+07,1e+06,-2.85712e-08,1.18527e-07,-4.1262e-08,-0.00478409,0.0289098,1.17996e-05,0.0328043,2,5232
12,5.74276e-22,1,7688,153.51,-4.74826e-07,1.56788e-05,-2.04293e-08,1.5686e-05,29,-89.16,129.77,1.0833e+07,1e+06,-2.75351e-08,1.16285e-07,-4.08507e-08,-0.00457367,0.0283067,1.02967e-05,0.0319951,2,5233
12,5.74276e-22,1,7689,153.51,-5.02007e-07,1.56146e-05,-2.06051e-08,1.56227e-05,29,-89.16,129.77,1.0833e+07,1e+06,-2.71734e-08,1.15692e-07,-4.12325e-08,-0.00450139,0.0279358,4.96128e-06,0.0313743,2,5234
12,5.74276e-22,1,7690,153.51,-5.29173e-07,1.55583e-05,-2.11329e-08,1.55673e-05,29,-89.16,129.77,1.0833e+07,1e+06,-2.73667e-08,1.16689e-07,-4.22958e-08,-0.00453638,0.0278418,5.49089e-06,0.0310404,2,5235
12,5.74276e-22,1,7691,153.51,-5.56741e-07,1.5513e-05,-2.18513e-08,1.5523e-05,29,-89.16,129.77,1.0833e+07,1e+06,-2.78904e-08,1.18188e-07,-4.3655e-08,-0.00465939,0.0277904,-1.02762e-05,0.0308174,2,5236
12,5.74276e-22,1,7692,153.51,-5.84953e-07,1.54811e-05,-2.27578e-08,1.54922e-05,29,-89.16,129.77,1.0833e+07,1e+06,-2.85154e-08,1.20951e-07,-4.54884e-08,-0.00476656,0.0280344,3.47254e-06,0.0309187,2,5237
12,5.74276e-22,1,7693,153.51,-6.13771e-07,1.54636e-05,-2.36603e-08,1.54758e-05,29,-89.16,129.77,1.0833e+07,1e+06,-2.92497e-08,1.24618e-07,-4.75072e-08,-0.00486376,0.028551,3.73128e-05,0.0313503,2,5238
12,5.74276e-22,1,7694,153.51,-6.43453e-07,1.54593e-05,-2.46523e-08,1.54727e-05,29,-89.16,129.77,1.0833e+07,1e+06,-3.05849e-08,1.27741e-07,-4.90689e-08,-0.00514443,0.0289271,5.41319e-05,0.0318217,2,5239
12,5.74276e-22,1,7695,153.51,-6.74941e-07,1.5468e-05,-2.59876e-08,1.54827e-05,29,-89.16,129.77,1.0833e+07,1e+06,-3.17213e-08,1.33334e-07,-5.15542e-08,-0.0053103,0.0299711,0.000153274,0.0328622,2,5240
12,5.62902e-22,1,7696,153.51,-7.06895e-07,1.54845e-05,-2.65742e-08,1.55007e-05,29.125,-89.16,129.77,1.01872e+07,968750,-4.02001e-08,1.46068e-07,-5.29776e-08,-0.00572306,0.0313548,0.00034466,0.0349349,2,5241
12,5.0603e-22,1,7697,153.51,-7.55341e-07,1.55327e-05,-2.35878e-08,1.55511e-05,29.75,-89.16,129.77,6.95812e+06,812500,-8.33134e-08,1.79722e-07,-4.81842e-08,-0.00686857,0.0293001,0.000819213,0.0351354,2,5242
12,4.26411e-22,2,7698,58.62,-8.73522e-07,1.56364e-05,-2.39737e-08,1.56608e-05,30.625,158.52,96.68,2.43744e+06,593750,-1.46409e-07,2.29951e-07,-4.85361e-08,-0.00738602,0.0223854,0.000882893,0.0297175,3,2454
12,3.92288e-22,2,7699,58.62,-1.04816e-06,1.57669e-05,-2.84782e-08,1.58017e-05,31,158.52,96.68,500000,500000,-1.70965e-07,2.5595e-07,-5.65884e-08,-0.00684698,0.018188,0.00052867,0.0249406,3,2455
12,5.0101e-22,2,7700,58.62,-1.21545e-06,1.58666e-05,-3.58567e-08,1.59131e-05,37,158.52,96.68,3.08325e+06,625000,-1.44857e-07,2.49168e-07,-7.0597e-08,-0.00714451,0.0243373,-0.00168994,0.0315364,3,2456
12,7.18453e-22,1,7701,130.6,-1.33787e-06,1.59505e-05,-3.54634e-08,1.60065e-05,49,117.2,-48.36,8.24975e+06,875000,-1.05457e-07,2.36568e-07,-7.08523e-08,-0.00595683,0.0370411,-0.0012748,0.0421568,2,5243
12,8.27175e-22,1,7702,130.6,-1.42637e-06,1.60253e-05,-3.04245e-08,1.60887e-05,55,117.2,-48.36,1.0833e+07,1e+06,-8.74997e-08,2.31681e-07,-6.17858e-08,-0.0039355,0.0439611,0.000817368,0.0461621,2,5244
12,8.27175e-22,1,7703,130.6,-1.51287e-06,1.60689e-05,-3.16538e-08,1.614e-05,55,117.2,-48.36,1.0833e+07,1e+06,-8.44249e-08,2.28994e-07,-6.30088e-08,-0.00344145,0.0436832,0.000187274,0.0460381,2,5245
12,8.27175e-22,1,7704,130.6,-1.59522e-06,1.61015e-05,-3.10107e-08,1.61804e-05,55,117.2,-48.36,1.0833e+07,1e+06,-7.98713e-08,2.2253e-07,-6.20217e-08,-0.00276218,0.0427105,2.34391e-05,0.0448842,2,5246
12,8.27175e-22,1,7705,130.6,-1.67261e-06,1.61225e-05,-2.99817e-08,1.62091e-05,55,117.2,-48.36,1.0833e+07,1e+06,-7.48524e-08,2.14396e-07,-5.99588e-08,-0.00209779,0.0415433,4.59203e-06,0.0435247,2,5247
12,8.27175e-22,1,7706,130.6,-1.74492e-06,1.61322e-05,-2.86243e-08,1.62263e-05,55,117.2,-48.36,1.0833e+07,1e+06,-6.96078e-08,2.04442e-07,-5.72496e-08,-0.00152247,0.0399673,1.37509e-05,0.0417759,2,5248
12,8.27175e-22,1,7707,130.6,-1.81183e-06,1.61325e-05,-2.70744e-08,1.62339e-05,55,117.2,-48.36,1.0833e+07,1e+06,-6.41625e-08,1.92723e-07,-5.41382e-08,-0.00103341,0.0379103,1.42371e-05,0.0395103,2,5249
12,8.27175e-22,1,7708,130.6,-1.87325e-06,1.6127e-05,-2.54943e-08,1.62354e-05,55,117.2,-48.36,1.0833e+07,1e+06,-5.88583e-08,1.80305e-07,-5.09663e-08,-0.000627604,0.035551,1.35357e-05,0.0368609,2,5250
12,8.27175e-22,1,7709,130.6,-1.92955e-06,1.61206e-05,-2.40548e-08,1.62357e-05,55,117.2,-48.36,1.0833e+07,1e+06,-5.40894e-08,1.6871e-07,-4.81307e-08,-0.000286764,0.0332238,2.1806e-05,0.0341686,2,5251
12,8.27175e-22,1,7710,130.6,-1.98142e-06,1.61182e-05,-2.28571e-08,1.62395e-05,55,117.2,-48.36,1.0833e+07,1e+06,-4.99786e-08,1.58556e-07,-4.5762e-08,1.8863e-06,0.0310977,3.79936e-05,0.0316457,2,5252
12,8.27175e-22,1,7711,130.6,-2.0295e-06,1.61235e-05,-2.19598e-08,1.62508e-05,55,117.2,-48.36,1.0833e+07,1e+06,-4.63706e-08,1.49484e-07,-4.40063e-08,0.000228434,0.0290706,5.52229e-08,0.029267,2,5253
12,8.27175e-22,1,7712,130.6,-2.07417e-06,1.61421e-05,-2.29709e-08,1.62748e-05,55,117.2,-48.36,1.0833e+07,1e+06,-4.39521e-08,1.42625e-07,-4.53368e-08,0.000112748,0.0270861,-0.000760232,0.0275572,2,5254
12,7.35481e-22,1,7713,130.6,-2.11741e-06,1.61781e-05,-1.7771e-08,1.63161e-05,55.5625,117.2,-48.36,1.0833e+07,1e+06,-4.62602e-08,1.37681e-07,-3.59467e-08,-0.000272229,0.0275653,0.000205488,0.0284669,2,5255
12,5.21528e-22,1,7714,61.61,-2.16669e-06,1.62256e-05,-1.03435e-08,1.63696e-05,56.875,-113.29,-151.66,1.0833e+07,1e+06,-5.44339e-08,1.38624e-07,-2.09437e-08,-0.000525544,0.0303944,0.00148209,0.0311967,2,5256
12,3.68705e-22,1,7715,61.61,-2.22628e-06,1.62879e-05,-9.47831e-09,1.64394e-05,57.8125,-113.29,-151.66,1.0833e+07,1e+06,-6.26818e-08,1.45212e-07,-1.8191e-08,-0.000738126,0.0320967,0.000533947,0.0327793,2,5257
12,3.3814e-22,1,7716,61.61,-2.29205e-06,1.63643e-05,-8.8037e-09,1.65241e-05,58,-113.29,-151.66,1.0833e+07,1e+06,-6.74234e-08,1.51231e-07,-1.79418e-08,-0.000865314,0.0331536,0.000361121,0.0336005,2,5258
12,3.53079e-22,1,7717,61.61,-2.36112e-06,1.64423e-05,-9.96401e-09,1.6611e-05,58.0625,-113.29,-151.66,1.0833e+07,1e+06,-7.04602e-08,1.58015e-07,-2.00155e-08,-0.00119843,0.0340131,0.000664322,0.0344827,2,5259
12,3.95299e-22,1,7718,61.61,-2.43297e-06,1.65138e-05,-1.30742e-08,1.6692e-05,59.5625,-113.29,-151.66,1.0833e+07,1e+06,-7.21791e-08,1.66016e-07,-2.64978e-08,-0.00141627,0.0339443,0.00085177,0.0346447,2,5260
12,4.89007e-22,1,7719,61.61,-2.50548e-06,1.65563e-05,-2.121e-08,1.67448e-05,65.4375,-113.29,-151.66,1.01872e+07,968750,-7.60701e-08,1.85201e-07,-4.299e-08,-0.00156454,0.033671,0.000462484,0.0351048,2,5261
12,6.09515e-22,1,7720,91.26,-2.58511e-06,1.65342e-05,-2.96288e-08,1.67351e-05,72.9375,-49.63,-179.82,8.89556e+06,906250,-8.72023e-08,2.01286e-07,-5.89553e-08,-0.00313245,0.0294745,0.000321932,0.0320171,2,5262
12,6.91362e-22,1,7721,91.26,-2.67989e-06,1.64748e-05,-3.09615e-08,1.66913e-05,77.25,-49.63,-179.82,8.89556e+06,906250,-9.91699e-08,1.99391e-07,-6.16573e-08,-0.00612154,0.0242014,0.00041723,0.0283381,2,5263
12,7.46892e-22,1,7722,91.26,-2.78345e-06,1.64383e-05,-3.29621e-08,1.66724e-05,79.75,-49.63,-179.82,1.01872e+07,968750,-1.05006e-07,2.00008e-07,-6.55302e-08,-0.00827774,0.0230175,-0.00030338,0.0284894,2,5264
12,7.74657e-22,1,7723,91.26,-2.8899e-06,1.64274e-05,-3.5056e-08,1.66797e-05,81,-49.63,-179.82,1.0833e+07,1e+06,-1.08159e-07,2.06875e-07,-6.99429e-08,-0.00882248,0.023485,-0.00039972,0.0290366,2,5265
12,7.74657e-22,1,7724,91.26,-2.99977e-06,1.64287e-05,-3.43313e-08,1.67004e-05,81,-49.63,-179.82,1.0833e+07,1e+06,-1.09734e-07,2.09389e-07,-6.87665e-08,-0.0088565,0.0240066,0.000161206,0.0294331,2,5266
12,6.94369e-22,1,7725,91.26,-3.10937e-06,1.6439e-05,-3.17278e-08,1.67305e-05,79.6875,-49.63,-179.82,8.89556e+06,906250,-1.0283e-07,1.98826e-07,-6.33413e-08,-0.00859939,0.0242143,-6.29718e-05,0.0296979,2,5267
12,5.0703e-22,2,7726,76.12,-3.20543e-06,1.64384e-05,-2.65036e-08,1.67481e-05,76.625,38.14,139.31,4.37487e+06,687500,-8.87591e-08,1.86161e-07,-5.35991e-08,-0.00707844,0.0262924,-1.61081e-05,0.0308157,3,2457
12,3.73216e-22,2,7727,76.12,-3.28688e-06,1.64125e-05,-2.4515e-08,1.67384e-05,74.4375,38.14,139.31,1.14581e+06,531250,-8.09874e-08,1.8737e-07,-4.93198e-08,-0.00559646,0.0291116,0.000556032,0.0322887,3,2458
12,3.46453e-22,2,7728,76.12,-3.3674e-06,1.63631e-05,-2.68696e-08,1.67061e-05,74,38.14,139.31,500000,500000,-8.09373e-08,1.92732e-07,-5.33371e-08,-0.00564393,0.0297913,0.000287848,0.0329301,3,2459
12,3.46453e-22,2,7729,76.12,-3.44876e-06,1.62892e-05,-2.86827e-08,1.66503e-05,74,38.14,139.31,500000,500000,-7.98163e-08,1.9266e-07,-5.7224e-08,-0.00581626,0.0290345,3.07314e-05,0.0323452,3,2460
12,3.46453e-22,2,7730,76.12,-3.52703e-06,1.61933e-05,-2.94689e-08,1.65729e-05,74,38.14,139.31,500000,500000,-7.62346e-08,1.87651e-07,-5.89779e-08,-0.00571287,0.0276458,-1.35392e-05,0.0309414,3,2461
12,3.46453e-22,2,7731,76.12,-3.60123e-06,1.60828e-05,-2.9241e-08,1.64811e-05,74,38.14,139.31,500000,500000,-7.18491e-08,1.78743e-07,-5.84932e-08,-0.00555124,0.0258183,-3.55548e-05,0.0291035,3,2462
12,3.46453e-22,2,7732,76.12,-3.67073e-06,1.59688e-05,-2.85089e-08,1.63853e-05,74,38.14,139.31,500000,500000,-6.70796e-08,1.69186e-07,-5.69437e-08,-0.0052531,0.0241778,-4.66242e-05,0.0273526,3,2463
12,3.46453e-22,2,7733,76.12,-3.73539e-06,1.58607e-05,-2.77452e-08,1.62947e-05,74,38.14,139.31,500000,500000,-6.28636e-08,1.60128e-07,-5.50832e-08,-0.00497372,0.0228432,-0.000237715,0.0259126,3,2464
12,3.26936e-22,2,7734,76.12,-3.79646e-06,1.57715e-05,-2.04123e-08,1.6222e-05,77.75,38.14,139.31,2.43744e+06,593750,-6.24911e-08,1.46689e-07,-4.12361e-08,-0.00457871,0.02311,-2.92857e-05,0.0260828,3,2465
12,2.81395e-22,1,7735,118.57,-3.86037e-06,1.57137e-05,-1.09661e-08,1.6181e-05,86.5,73.1,-29.9,6.95812e+06,812500,-6.65287e-08,1.43408e-07,-2.24756e-08,-0.00340122,0.0282267,0.000511586,0.0303594,2,5268
12,2.48866e-22,1,7736,118.57,-3.92952e-06,1.56783e-05,-8.31412e-09,1.61632e-05,92.75,73.1,-29.9,1.01872e+07,968750,-6.86534e-08,1.4917e-07,-1.62703e-08,-0.00236901,0.0333207,0.000489418,0.0345708,2,5269
12,2.42361e-22,1,7737,118.57,-3.99768e-06,1.56594e-05,-8.83399e-09,1.61616e-05,94,73.1,-29.9,1.0833e+07,1e+06,-6.53474e-08,1.4807e-07,-1.75109e-08,-0.00201565,0.0341838,0.00015722,0.0352415,2,5270
12,2.42361e-22,1,7738,118.57,-4.06021e-06,1.56614e-05,-1.03077e-08,1.61791e-05,94,73.1,-29.9,1.0833e+07,1e+06,-5.95915e-08,1.4718e-07,-2.06258e-08,-0.00140729,0.0346256,-2.5075e-05,0.0354135,2,5271
12,2.42361e-22,1,7739,118.57,-4.11686e-06,1.56797e-05,-1.18246e-08,1.62111e-05,94,73.1,-29.9,1.0833e+07,1e+06,-5.40814e-08,1.48571e-07,-2.36728e-08,-0.00055686,0.0356705,-9.88347e-06,0.0360563,2,5272
12,2.42361e-22,1,7740,118.57,-4.16837e-06,1.57111e-05,-1.32441e-08,1.62546e-05,94,73.1,-29.9,1.0833e+07,1e+06,-4.87454e-08,1.49741e-07,-2.64948e-08,0.000311002,0.0365929,2.60252e-05,0.0366207,2,5273
12,2.42361e-22,1,7741,118.57,-4.21435e-06,1.57545e-05,-1.47079e-08,1.63085e-05,94,73.1,-29.9,1.0833e+07,1e+06,-4.30053e-08,1.50052e-07,-2.93997e-08,0.00120349,0.0372713,1.43962e-05,0.0369985,2,5274
12,2.42361e-22,1,7742,118.57,-4.25438e-06,1.58095e-05,-1.62728e-08,1.63719e-05,94,73.1,-29.9,1.0833e+07,1e+06,-3.74602e-08,1.51128e-07,-3.25492e-08,0.00211973,0.0381139,-2.33076e-05,0.0375688,2,5275
12,2.42361e-22,1,7743,118.57,-4.28927e-06,1.5873e-05,-1.77734e-08,1.64424e-05,94,73.1,-29.9,1.0833e+07,1e+06,-3.32447e-08,1.53932e-07,-3.55562e-08,0.0029859,0.0392559,-4.28093e-05,0.0384176,2,5276
12,2.42361e-22,1,7744,118.57,-4.32087e-06,1.59396e-05,-1.90053e-08,1.65149e-05,94,73.1,-29.9,1.0833e+07,1e+06,-3.13401e-08,1.58474e-07,-3.8002e-08,0.00368102,0.040556,-5.47127e-05,0.0393898,2,5277
12,2.42361e-22,1,7745,118.57,-4.35195e-06,1.60019e-05,-1.98428e-08,1.65832e-05,94,73.1,-29.9,1.0833e+07,1e+06,-3.26178e-08,1.64962e-07,-3.96634e-08,0.00408504,0.0419465,-9.01103e-05,0.0404654,2,5278
12,2.42361e-22,1,7746,118.57,-4.38611e-06,1.60515e-05,-2.02293e-08,1.664e-05,94,73.1,-29.9,1.0833e+07,1e+06,-3.76685e-08,1.7418e-07,-4.04571e-08,0.00414555,0.0435983,-0.00012988,0.0419104,2,5279
12,2.42361e-22,1,7747,118.57,-4.42729e-06,1.60805e-05,-2.03167e-08,1.66788e-05,94,73.1,-29.9,1.0833e+07,1e+06,-4.5937e-08,1.87047e-07,-4.06588e-08,0.00395177,0.0459376,-9.58327e-05,0.0442002,2,5280
12,2.42361e-22,1,7748,118.57,-4.47798e-06,1.60865e-05,-2.05018e-08,1.66982e-05,94,73.1,-29.9,1.0833e+07,1e+06,-5.49952e-08,2.02788e-07,-4.10139e-08,0.00372678,0.0491574,4.58989e-05,0.0474223,2,5281
12,2.42361e-22,1,7749,118.57,-4.53728e-06,1.60768e-05,-2.10629e-08,1.67048e-05,94,73.1,-29.9,1.0833e+07,1e+06,-6.16001e-08,2.16945e-07,-4.21119e-08,0.00361644,0.0523596,0.000153258,0.0506147,2,5282
12,2.42361e-22,1,7750,118.57,-4.60118e-06,1.60629e-05,-2.19037e-08,1.67089e-05,94,73.1,-29.9,1.0833e+07,1e+06,-6.45179e-08,2.25652e-07,-4.38038e-08,0.00361854,0.0544478,9.41072e-05,0.0527255,2,5283
12,2.42361e-22,1,7751,118.57,-4.66631e-06,1.60521e-05,-2.28294e-08,1.67166e-05,94,73.1,-29.9,1.0833e+07,1e+06,-6.57542e-08,2.31264e-07,-4.56564e-08,0.00364884,0.0558234,-6.13132e-05,0.0541598,2,5284
12,2.42361e-22,1,7752,118.57,-4.73269e-06,1.60473e-05,-2.39033e-08,1.67307e-05,94,73.1,-29.9,1.0833e+07,1e+06,-6.79004e-08,2.38441e-07,-4.78246e-08,0.00342389,0.0576512,-0.0002453,0.0561656,2,5285
12,2.42361e-22,1,7753,118.57,-4.80211e-06,1.60575e-05,-2.51471e-08,1.67602e-05,94,73.1,-29.9,1.0833e+07,1e+06,-7.14161e-08,2.48194e-07,-5.07467e-08,0.00267997,0.0603852,-0.000591678,0.0594967,2,5286
12,2.63256e-22,1,7754,118.57,-4.87552e-06,1.60953e-05,-2.64791e-08,1.68175e-05,96.25,73.1,-29.9,8.24975e+06,875000,-8.78374e-08,2.59225e-07,-5.35781e-08,0.00229255,0.0548662,-0.000294603,0.0548519,2,5287
12,3.05046e-22,2,7755,105.68,-4.97779e-06,1.61067e-05,-4.29992e-08,1.68584e-05,100.75,-4.36,162.92,3.08325e+06,625000,-1.15679e-07,2.83614e-07,-8.45339e-08,0.000561425,0.0370919,-0.000132566,0.03799,3,2466
12,3.25941e-22,2,7756,105.68,-5.10688e-06,1.60443e-05,-5.46013e-08,1.68375e-05,103,-4.36,162.92,500000,500000,-1.27902e-07,2.89629e-07,-1.08452e-07,-0.00131567,0.0243868,-0.000802312,0.0259288,3,2467
12,3.25941e-22,2,7757,105.68,-5.23359e-06,1.59515e-05,-4.75093e-08,1.67882e-05,103,-4.36,162.92,500000,500000,-1.2491e-07,2.69711e-07,-9.60392e-08,-0.0010422,0.0219839,-0.000559175,0.0232991,3,2468
12,3.25941e-22,2,7758,105.68,-5.3567e-06,1.58673e-05,-4.37099e-08,1.67472e-05,103,-4.36,162.92,500000,500000,-1.20512e-07,2.57147e-07,-8.74968e-08,-0.000860285,0.0213672,3.29339e-05,0.0222109,3,2469
12,3.25941e-22,2,7759,105.68,-5.47462e-06,1.58061e-05,-4.29246e-08,1.67274e-05,103,-4.36,162.92,500000,500000,-1.12222e-07,2.46433e-07,-8.54377e-08,-0.000998039,0.0211789,0.000206635,0.021765,3,2470
12,3.49667e-22,2,7760,105.68,-5.58115e-06,1.57851e-05,-4.32801e-08,1.67428e-05,104.125,-4.36,162.92,1.14581e+06,531250,-9.19963e-08,2.35833e-07,-8.75421e-08,-0.00024223,0.0234301,0.000636679,0.0236446,3,2471
12,4.68301e-22,2,7761,105.68,-5.65861e-06,1.57813e-05,-4.8518e-08,1.67652e-05,109.75,-4.36,162.92,4.37488e+06,687500,-4.89517e-08,2.15223e-07,-9.71281e-08,0.000780956,0.0306944,4.81352e-05,0.0314423,3,2472
12,6.34388e-22,1,7762,9.52004,-5.67905e-06,1.57734e-05,-5.31544e-08,1.67647e-05,117.625,63.66,-15.5,8.89556e+06,906250,-2.36454e-09,1.84438e-07,-1.05217e-07,0.00152178,0.0365621,-0.000565379,0.0368499,2,5288
12,7.05568e-22,1,7763,9.52004,-5.66334e-06,1.57849e-05,-5.15375e-08,1.67702e-05,121,63.66,-15.5,1.0833e+07,1e+06,1.61195e-08,1.65644e-07,-1.03438e-07,0.00217021,0.0368129,-0.00015717,0.0358277,2,5289
12,7.05568e-22,1,7764,9.52003,-5.64681e-06,1.58229e-05,-4.87917e-08,1.68003e-05,121,63.66,-15.5,1.0833e+07,1e+06,1.6522e-08,1.55817e-07,-9.77396e-08,0.00227721,0.0348176,-0.00011613,0.0338385,2,5290
12,7.05568e-22,1,7765,9.52003,-5.63029e-06,1.58736e-05,-4.62334e-08,1.68426e-05,121,63.66,-15.5,1.0833e+07,1e+06,1.61502e-08,1.46638e-07,-9.24134e-08,0.00221529,0.0327908,-0.000121533,0.0318609,2,5291
12,7.05568e-22,1,7766,9.52003,-5.61451e-06,1.5925e-05,-4.47154e-08,1.68858e-05,121,63.66,-15.5,1.0833e+07,1e+06,1.49792e-08,1.43186e-07,-8.94079e-08,0.00204581,0.0320687,-3.16416e-05,0.0311634,2,5292
12,7.05568e-22,1,7767,9.52003,-5.60033e-06,1.5973e-05,-4.41215e-08,1.69264e-05,121,63.66,-15.5,1.0833e+07,1e+06,1.32988e-08,1.43006e-07,-8.82399e-08,0.00171119,0.0320393,-1.10927e-05,0.0312658,2,5293
12,7.05568e-22,1,7768,9.52003,-5.58791e-06,1.60169e-05,-4.41389e-08,1.69637e-05,121,63.66,-15.5,1.0833e+07,1e+06,1.15072e-08,1.44913e-07,-8.82758e-08,0.00132177,0.0324684,-1.12538e-05,0.0318682,2,5294
12,7.05568e-22,1,7769,9.52003,-5.57732e-06,1.60563e-05,-4.45624e-08,1.69974e-05,121,63.66,-15.5,1.0833e+07,1e+06,9.58739e-09,1.48335e-07,-8.91193e-08,0.000887605,0.0332357,-1.76452e-05,0.0328393,2,5295
12,7.05568e-22,1,7770,9.52003,-5.56874e-06,1.60907e-05,-4.52799e-08,1.70272e-05,121,63.66,-15.5,1.0833e+07,1e+06,7.4181e-09,1.53038e-07,-9.05528e-08,0.000391629,0.0342874,-2.80997e-05,0.0341322,2,5296
12,7.05568e-22,1,7771,9.52003,-5.56248e-06,1.61188e-05,-4.61888e-08,1.70516e-05,121,63.66,-15.5,1.0833e+07,1e+06,4.84839e-09,1.58729e-07,-9.23328e-08,-0.000185755,0.0355466,-4.53312e-05,0.0356806,2,5297
12,7.05568e-22,1,7772,9.52003,-5.55904e-06,1.61371e-05,-4.68496e-08,1.70679e-05,121,63.66,-15.5,1.0833e+07,1e+06,1.6456e-09,1.64135e-07,-9.39432e-08,-0.000919062,0.036674,-0.000145259,0.0372264,2,5298
12,7.05568e-22,1,7773,9.52003,-5.55919e-06,1.61415e-05,-4.62914e-08,1.70721e-05,121,63.66,-15.5,1.0833e+07,1e+06,-1.79807e-09,1.66011e-07,-9.28186e-08,-0.00158057,0.0370469,-7.6114e-05,0.0378972,2,5299
12,6.80802e-22,1,7774,9.52003,-5.56264e-06,1.61287e-05,-4.23817e-08,1.70611e-05,120.938,63.66,-15.5,1.01872e+07,968750,-8.55007e-09,1.60872e-07,-8.44833e-08,-0.00201866,0.0355554,-0.000190501,0.0368844,2,5300
12,5.81738e-22,1,7775,9.52002,-5.57629e-06,1.61188e-05,-3.48756e-08,1.70562e-05,120.688,63.66,-15.5,7.60394e+06,843750,-3.05579e-08,1.68262e-07,-6.92688e-08,-0.00183702,0.0347019,-0.000656371,0.0367245,2,5301
12,4.57907e-22,2,7776,130.08,-5.62375e-06,1.61515e-05,-2.8074e-08,1.71026e-05,120.375,-119.85,-177.55,4.37487e+06,687500,-6.3886e-08,1.95496e-07,-5.60768e-08,-0.00118814,0.0356507,-0.00122594,0.0378172,3,2473
12,4.08375e-22,2,7777,130.08,-5.70406e-06,1.62467e-05,-2.57805e-08,1.7219e-05,120.25,-119.85,-177.55,3.08325e+06,625000,-8.43195e-08,2.20953e-07,-5.19984e-08,-0.000894932,0.0381997,-0.00104921,0.040189,3,2474
12,5.74276e-22,1,7778,153.51,-2.06379e-08,1.60432e-05,-4.35793e-08,1.60433e-05,29,-89.16,129.77,1.0833e+07,1e+06,-4.19257e-08,2.12636e-07,-8.74316e-08,-0.00622038,0.0485993,-0.0010981,0.052774,2,5302
12,5.3362e-22,1,7779,153.51,-6.32134e-08,1.60792e-05,-4.14237e-08,1.60793e-05,24.25,-89.16,129.77,8.89556e+06,906250,-5.3297e-08,2.18471e-07,-8.16968e-08,-0.00607162,0.0462401,0.000279448,0.0502817,2,5303
12,4.76379e-22,2,7780,37.98,-1.27232e-07,1.60105e-05,-3.04476e-08,1.60111e-05,18,-35.34,-103.23,6.31231e+06,781250,-6.73932e-08,1.96005e-07,-6.11462e-08,-0.00584914,0.0353085,0.00150896,0.0395577,3,2475
12,5.0045e-22,1,7781,153.51,-1.98e-07,1.5946e-05,-2.04593e-08,1.59473e-05,21.25,-89.16,129.77,7.60394e+06,843750,-5.83377e-08,1.47863e-07,-4.23804e-08,-0.00652601,0.0269068,0.00117327,0.0314391,2,5304
12,5.5769e-22,1,7782,153.51,-2.43907e-07,1.59722e-05,-2.27288e-08,1.59741e-05,27.5,-89.16,129.77,1.01872e+07,968750,-4.03288e-08,1.2635e-07,-4.48764e-08,-0.00691926,0.0274657,-0.000424077,0.0320545,2,5305
12,5.74276e-22,1,7783,153.51,-2.78657e-07,1.60133e-05,-2.45688e-08,1.60158e-05,29,-89.16,129.77,1.0833e+07,1e+06,-3.44115e-08,1.32628e-07,-4.89769e-08,-0.00611931,0.0306748,-0.000147725,0.0345083,2,5306
12,5.74276e-22,1,7784,153.51,-3.1273e-07,1.60319e-05,-2.49683e-08,1.60349e-05,29,-89.16,129.77,1.0833e+07,1e+06,-3.25775e-08,1.36568e-07,-4.9945e-08,-0.00545566,0.0322185,2.75315e-05,0.0358485,2,5307
12,5.74276e-22,1,7785,153.51,-3.43812e-07,1.60199e-05,-2.4037e-08,1.60236e-05,29,-89.16,129.77,1.0833e+07,1e+06,-2.93626e-08,1.31272e-07,-4.79815e-08,-0.00475994,0.0314901,1.83323e-06,0.0350333,2,5308
12,5.74276e-22,1,7786,153.51,-3.71455e-07,1.59826e-05,-2.2989e-08,1.59869e-05,29,-89.16,129.77,1.0833e+07,1e+06,-2.6474e-08,1.25824e-07,-4.59866e-08,-0.00412856,0.0305804,2.28899e-08,0.0340167,2,5309
12,5.74276e-22,1,7787,153.51,-3.9676e-07,1.59284e-05,-2.21445e-08,1.59333e-05,29,-89.16,129.77,1.0833e+07,1e+06,-2.45784e-08,1.21434e-07,-4.43143e-08,-0.00372285,0.0297529,1.45573e-05,0.0331067,2,5310
12,5.74276e-22,1,7788,153.51,-4.20612e-07,1.58632e-05,-2.13641e-08,1.58688e-05,29,-89.16,129.77,1.0833e+07,1e+06,-2.3453e-08,1.17182e-07,-4.27467e-08,-0.00352648,0.0287863,1.17649e-05,0.0320538,2,5311
12,5.74276e-22,1,7789,153.51,-4.43666e-07,1.57938e-05,-2.08052e-08,1.58001e-05,29,-89.16,129.77,1.0833e+07,1e+06,-2.30747e-08,1.13415e-07,-4.15509e-08,-0.00352731,0.0277262,-1.4356e-05,0.0308532,2,5312
12,5.74276e-22,1,7790,153.51,-4.66762e-07,1.57287e-05,-2.07408e-08,1.57357e-05,29,-89.16,129.77,1.0833e+07,1e+06,-2.34532e-08,1.12403e-07,-4.14673e-08,-0.00364228,0.027185,-5.9496e-06,0.0301016,2,5313
12,5.74276e-22,1,7791,153.51,-4.90573e-07,1.56733e-05,-2.09189e-08,1.5681e-05,29,-89.16,129.77,1.0833e+07,1e+06,-2.42926e-08,1.1363e-07,-4.20138e-08,-0.00378862,0.0271697,7.69983e-05,0.029861,2,5314
12,5.74276e-22,1,7792,153.51,-5.15347e-07,1.56292e-05,-2.10661e-08,1.56377e-05,29,-89.16,129.77,1.0833e+07,1e+06,-2.55844e-08,1.13641e-07,-4.20997e-08,-0.0040972,0.0267787,9.89986e-05,0.0293999,2,5315
12,5.74276e-22,1,7793,153.51,-5.41742e-07,1.56003e-05,-2.18388e-08,1.56097e-05,29,-89.16,129.77,1.0833e+07,1e+06,-2.78638e-08,1.16274e-07,-4.32523e-08,-0.00462677,0.026914,9.7296e-05,0.0296434,2,5316
12,5.74276e-22,1,7794,153.51,-5.71074e-07,1.55868e-05,-2.26906e-08,1.55973e-05,29,-89.16,129.77,1.0833e+07,1e+06,-2.9575e-08,1.2279e-07,-4.46353e-08,-0.00475509,0.0282468,0.000589293,0.0307116,2,5317
12,5.74276e-22,1,7795,153.51,-6.00891e-07,1.5585e-05,-2.21613e-08,1.55966e-05,29,-89.16,129.77,1.0833e+07,1e+06,-2.90266e-08,1.24645e-07,-4.51466e-08,-0.00445401,0.028538,0.000934791,0.03065,2,5318
12,5.62902e-22,1,7796,153.51,-6.29127e-07,1.55997e-05,-2.4012e-08,1.56124e-05,29.125,-89.16,129.77,1.01872e+07,968750,-3.59191e-08,1.3874e-07,-4.88128e-08,-0.00451241,0.0300932,0.000893672,0.0326159,2,5319
12,5.17405e-22,1,7797,153.51,-6.7273e-07,1.56374e-05,-2.74933e-08,1.56519e-05,29.625,-89.16,129.77,7.60394e+06,843750,-7.24469e-08,1.80895e-07,-5.49965e-08,-0.00597755,0.0309912,0.000341416,0.035949,2,5320
12,4.49159e-22,2,7798,58.62,-7.74021e-07,1.57294e-05,-2.91427e-08,1.57485e-05,30.375,158.52,96.68,3.72906e+06,656250,-1.31553e-07,2.29654e-07,-5.79048e-08,-0.00770137,0.0259161,-0.000211017,0.0332608,3,2476
12,4.03662e-22,2,7799,58.62,-9.35836e-07,1.58783e-05,-2.93979e-08,1.59059e-05,30.875,158.52,96.68,1.14581e+06,531250,-1.67299e-07,2.54779e-07,-5.83291e-08,-0.0075898,0.0199478,-6.62173e-06,0.0273476,3,2477
12,4.19469e-22,2,7800,58.62,-1.10862e-06,1.6026e-05,-3.04021e-08,1.60643e-05,32.5,158.52,96.68,1.14581e+06,531250,-1.59977e-07,2.50364e-07,-6.16886e-08,-0.00687714,0.0191888,-0.00019756,0.0259644,3,2478
12,5.55371e-22,2,7801,58.62,-1.25579e-06,1.61256e-05,-3.67666e-08,1.61745e-05,40,158.52,96.68,4.37488e+06,687500,-1.2632e-07,2.49298e-07,-7.29856e-08,-0.00524465,0.0294093,-0.0010612,0.0350088,3,2479
12,7.45634e-22,1,7802,130.6,-1.36126e-06,1.61953e-05,-3.65541e-08,1.62525e-05,50.5,117.2,-48.36,8.89556e+06,906250,-9.25565e-08,2.43691e-07,-7.25539e-08,-0.00276146,0.041577,-0.000450167,0.0444803,2,5321
12,8.27175e-22,1,7803,130.6,-1.4409e-06,1.62557e-05,-3.2048e-08,1.63194e-05,55,117.2,-48.36,1.0833e+07,1e+06,-7.84851e-08,2.30588e-07,-6.45218e-08,-0.00158821,0.0446284,0.000373621,0.0458499,2,5322
12,8.27175e-22,1,7804,130.6,-1.51823e-06,1.6297e-05,-3.22815e-08,1.63676e-05,55,117.2,-48.36,1.0833e+07,1e+06,-7.67189e-08,2.27374e-07,-6.45812e-08,-0.00144495,0.0440841,2.73998e-05,0.0455452,2,5323
12,8.27175e-22,1,7805,130.6,-1.59434e-06,1.6324e-05,-3.14189e-08,1.64017e-05,55,117.2,-48.36,1.0833e+07,1e+06,-7.45334e-08,2.21903e-07,-6.28625e-08,-0.0013342,0.0432212,2.84915e-06,0.044798,2,5324
12,8.27175e-22,1,7806,130.6,-1.6673e-06,1.63368e-05,-3.02266e-08,1.64217e-05,55,117.2,-48.36,1.0833e+07,1e+06,-7.06985e-08,2.13867e-07,-6.04798e-08,-0.000995433,0.0419821,1.75443e-06,0.043564,2,5325
12,8.27175e-22,1,7807,130.6,-1.73574e-06,1.6336e-05,-2.86231e-08,1.64279e-05,55,117.2,-48.36,1.0833e+07,1e+06,-6.57324e-08,2.02846e-07,-5.7275e-08,-0.000593256,0.0401514,1.74908e-05,0.0416734,2,5326
12,8.27175e-22,1,7808,130.6,-1.79876e-06,1.63237e-05,-2.67448e-08,1.64225e-05,55,117.2,-48.36,1.0833e+07,1e+06,-6.0365e-08,1.89109e-07,-5.34649e-08,-0.000301448,0.0376067,1.01791e-05,0.0390075,2,5327
12,8.27175e-22,1,7809,130.6,-1.85647e-06,1.63051e-05,-2.49348e-08,1.64105e-05,55,117.2,-48.36,1.0833e+07,1e+06,-5.5826e-08,1.75175e-07,-4.98111e-08,-0.000242227,0.0347415,-2.9469e-05,0.0359706,2,5328
12,8.27175e-22,1,7810,130.6,-1.91041e-06,1.62871e-05,-2.34941e-08,1.63987e-05,55,117.2,-48.36,1.0833e+07,1e+06,-5.27552e-08,1.64184e-07,-4.693e-08,-0.000320406,0.0323157,-2.33181e-05,0.0333206,2,5329
12,8.27175e-22,1,7811,130.6,-1.96198e-06,1.62744e-05,-2.21602e-08,1.63923e-05,55,117.2,-48.36,1.0833e+07,1e+06,-5.01577e-08,1.55344e-07,-4.43837e-08,-0.000333406,0.0303962,7.67529e-05,0.0311124,2,5330
12,8.27175e-22,1,7812,130.6,-2.01073e-06,1.627e-05,-2.06373e-08,1.63938e-05,55,117.2,-48.36,1.0833e+07,1e+06,-4.64557e-08,1.44543e-07,-4.14258e-08,-0.00021053,0.0281084,0.000188909,0.0284711,2,5331
12,8.27175e-22,1,7813,130.6,-2.05489e-06,1.628e-05,-2.13293e-08,1.64092e-05,55,117.2,-48.36,1.0833e+07,1e+06,-4.28359e-08,1.33022e-07,-4.25699e-08,-0.00048067,0.0250201,-0.000936185,0.0258908,2,5332
12,7.04916e-22,1,7814,130.6,-2.0964e-06,1.63099e-05,-1.49718e-08,1.64441e-05,55.75,117.2,-48.36,1.0833e+07,1e+06,-4.58876e-08,1.27158e-07,-3.02829e-08,-0.00071875,0.0256491,0.000344229,0.0268535,2,5333
12,4.60399e-22,1,7815,61.61,-2.14667e-06,1.63605e-05,-8.97136e-09,1.65007e-05,57.25,-113.29,-151.66,1.0833e+07,1e+06,-5.69456e-08,1.33559e-07,-1.76798e-08,-0.000908945,0.0291565,0.000965519,0.0302336,2,5334
12,3.3814e-22,1,7816,61.61,-2.21029e-06,1.64336e-05,-9.89126e-09,1.65815e-05,58,-113.29,-151.66,1.0833e+07,1e+06,-6.72124e-08,1.47592e-07,-1.93767e-08,-0.00122617,0.0319175,-0.000452428,0.0330187,2,5335
12,3.3814e-22,1,7817,61.61,-2.28109e-06,1.65181e-05,-9.26314e-09,1.66749e-05,58,-113.29,-151.66,1.0833e+07,1e+06,-7.13509e-08,1.56503e-07,-1.8587e-08,-0.00123765,0.0341626,7.12988e-05,0.0349361,2,5336
12,3.3814e-22,1,7818,61.61,-2.35299e-06,1.65984e-05,-9.31138e-09,1.67643e-05,58,-113.29,-151.66,1.0833e+07,1e+06,-7.0161e-08,1.56244e-07,-1.7969e-08,-0.00110411,0.0345076,0.000360425,0.0349738,2,5337
12,3.3814e-22,1,7819,61.61,-2.42141e-06,1.66664e-05,-7.80064e-09,1.68414e-05,58,-113.29,-151.66,1.0833e+07,1e+06,-6.63126e-08,1.53926e-07,-1.65045e-08,-0.000343041,0.0345724,0.00101909,0.034301,2,5338
12,3.63974e-22,1,7820,61.61,-2.48562e-06,1.67243e-05,-1.48183e-08,1.69081e-05,60,-113.29,-151.66,8.89556e+06,906250,-6.87473e-08,1.64346e-07,-3.00229e-08,-0.0011185,0.0330994,-2.7793e-05,0.0343023,2,5339
12,4.15642e-22,2,7821,110.23,-2.55891e-06,1.67266e-05,-2.32445e-08,1.69213e-05,64,164.69,-25.3,5.02069e+06,718750,-8.55651e-08,1.86592e-07,-4.58846e-08,-0.0032123,0.0284412,1.54192e-06,0.0313506,3,2480
12,4.97006e-22,2,7822,110.23,-2.65675e-06,1.66728e-05,-2.36298e-08,1.68832e-05,68.5,164.69,-25.3,4.37488e+06,687500,-1.05282e-07,2.0123e-07,-4.79415e-08,-0.0056978,0.0253907,0.00151318,0.0293452,3,2481
12,6.35832e-22,1,7823,91.26,-2.76947e-06,1.66387e-05,-2.75098e-08,1.68677e-05,74.75,-49.63,-179.82,7.60394e+06,843750,-1.13761e-07,2.02134e-07,-5.48785e-08,-0.00901496,0.0238022,0.000634698,0.0300603,2,5340
12,7.46892e-22,1,7824,91.26,-2.88427e-06,1.66362e-05,-3.34585e-08,1.68844e-05,79.75,-49.63,-179.82,1.01872e+07,968750,-1.15577e-07,2.07639e-07,-6.6527e-08,-0.0103987,0.0232296,-0.000314221,0.0301208,2,5341
12,7.74657e-22,1,7825,91.26,-3.00062e-06,1.66421e-05,-3.5407e-08,1.69105e-05,81,-49.63,-179.82,1.0833e+07,1e+06,-1.16205e-07,2.15074e-07,-7.08649e-08,-0.0101445,0.0241618,-0.000136028,0.0305871,2,5342
12,7.47894e-22,1,7826,91.26,-3.11668e-06,1.66418e-05,-3.37525e-08,1.69312e-05,80.5625,-49.63,-179.82,1.01872e+07,968750,-1.13344e-07,2.09095e-07,-6.76992e-08,-0.0100824,0.0239927,-0.000101732,0.0304651,2,5343
12,6.40844e-22,1,7827,91.26,-3.22731e-06,1.66296e-05,-3.15197e-08,1.69399e-05,78.8125,-49.63,-179.82,7.60394e+06,843750,-1.03451e-07,2.00426e-07,-6.27115e-08,-0.00896891,0.0252207,-0.000306689,0.0311856,2,5344
12,4.80267e-22,2,7828,76.12,-3.32358e-06,1.66036e-05,-2.90636e-08,1.6933e-05,76.1875,38.14,139.31,3.72906e+06,656250,-8.93491e-08,1.97112e-07,-5.79984e-08,-0.0066518,0.0283645,-1.83462e-05,0.032647,3,2482
12,3.73216e-22,2,7829,76.12,-3.40601e-06,1.65577e-05,-2.78144e-08,1.69044e-05,74.4375,38.14,139.31,1.14581e+06,531250,-8.16187e-08,1.97497e-07,-5.6169e-08,-0.00542674,0.0303133,0.000293527,0.0334207,3,2483
12,3.46453e-22,2,7830,76.12,-3.48682e-06,1.64849e-05,-2.90636e-08,1.68497e-05,74,38.14,139.31,500000,500000,-8.11567e-08,1.9812e-07,-5.79818e-08,-0.00567182,0.0301127,0.000213369,0.0332672,3,2484
12,3.46453e-22,2,7831,76.12,-3.56832e-06,1.63841e-05,-3.01189e-08,1.67682e-05,74,38.14,139.31,500000,500000,-7.97485e-08,1.93801e-07,-6.00939e-08,-0.00602764,0.0285673,1.49723e-05,0.0320454,3,2485
12,3.46453e-22,2,7832,76.12,-3.64632e-06,1.62638e-05,-2.96394e-08,1.66676e-05,74,38.14,139.31,500000,500000,-7.57044e-08,1.83556e-07,-5.93684e-08,-0.00605406,0.0263628,-4.25059e-05,0.0299794,3,2486
12,3.46453e-22,2,7833,76.12,-3.71973e-06,1.61395e-05,-2.85877e-08,1.65626e-05,74,38.14,139.31,500000,500000,-7.11355e-08,1.71671e-07,-5.70915e-08,-0.00595523,0.0242213,-0.000106267,0.0279079,3,2487
12,3.46453e-22,2,7834,76.12,-3.78859e-06,1.6022e-05,-2.8559e-08,1.64639e-05,74,38.14,139.31,500000,500000,-6.67142e-08,1.63613e-07,-5.68505e-08,-0.0056986,0.0228889,-0.000450234,0.0265185,3,2488
12,3.2043e-22,2,7835,76.12,-3.85316e-06,1.59161e-05,-1.97719e-08,1.63758e-05,79,38.14,139.31,3.08325e+06,625000,-6.6494e-08,1.47609e-07,-3.93361e-08,-0.00517828,0.0233356,7.74274e-05,0.026805,3,2489
12,2.68384e-22,1,7836,118.57,-3.92158e-06,1.58519e-05,-7.81087e-09,1.63298e-05,89,73.1,-29.9,8.24975e+06,875000,-7.24939e-08,1.40519e-07,-1.62843e-08,-0.00427304,0.0283704,0.000582537,0.0311401,2,5345
12,2.42361e-22,1,7837,118.57,-3.99815e-06,1.58247e-05,-5.80088e-09,1.63219e-05,94,73.1,-29.9,1.0833e+07,1e+06,-7.5501e-08,1.47465e-07,-1.1927e-08,-0.00346496,0.0328905,0.00033448,0.0348505,2,5346
12,2.42361e-22,1,7838,118.57,-4.07258e-06,1.58066e-05,-7.34351e-09,1.63228e-05,94,73.1,-29.9,1.0833e+07,1e+06,-7.00643e-08,1.4583e-07,-1.42706e-08,-0.00276326,0.0330317,0.000214324,0.0345742,2,5347
12,2.42361e-22,1,7839,118.57,-4.13828e-06,1.58073e-05,-9.23605e-09,1.634e-05,94,73.1,-29.9,1.0833e+07,1e+06,-6.22197e-08,1.44236e-07,-1.83859e-08,-0.00181965,0.0333972,-3.60434e-05,0.0344446,2,5348
12,2.42361e-22,1,7840,118.57,-4.19702e-06,1.58274e-05,-1.11412e-08,1.63745e-05,94,73.1,-29.9,1.0833e+07,1e+06,-5.63769e-08,1.47306e-07,-2.2217e-08,-0.000820056,0.0349227,-4.20858e-05,0.0354082,2,5349
12,2.42361e-22,1,7841,118.57,-4.25103e-06,1.58604e-05,-1.26246e-08,1.64202e-05,94,73.1,-29.9,1.0833e+07,1e+06,-5.11758e-08,1.49774e-07,-2.52972e-08,0.000168612,0.0361365,2.9944e-05,0.0361181,2,5350
12,2.42361e-22,1,7842,118.57,-4.29937e-06,1.5904e-05,-1.40836e-08,1.64749e-05,94,73.1,-29.9,1.0833e+07,1e+06,-4.47855e-08,1.49048e-07,-2.82031e-08,0.00114991,0.0365372,1.50842e-05,0.0361201,2,5351
12,2.42361e-22,1,7843,118.57,-4.3406e-06,1.59601e-05,-1.586e-08,1.65399e-05,94,73.1,-29.9,1.0833e+07,1e+06,-3.83178e-08,1.49647e-07,-3.17071e-08,0.00216982,0.0373439,-4.5109e-05,0.0365882,2,5352
12,2.42361e-22,1,7844,118.57,-4.37601e-06,1.60271e-05,-1.75876e-08,1.66138e-05,94,73.1,-29.9,1.0833e+07,1e+06,-3.40714e-08,1.53798e-07,-3.51754e-08,0.00306714,0.0389092,-6.48383e-05,0.0378577,2,5353
12,2.42361e-22,1,7845,118.57,-4.40875e-06,1.60992e-05,-1.89551e-08,1.6692e-05,94,73.1,-29.9,1.0833e+07,1e+06,-3.29973e-08,1.6032e-07,-3.7899e-08,0.00366077,0.0407419,-7.58284e-05,0.0394508,2,5354
12,2.42361e-22,1,7846,118.57,-4.442e-06,1.61694e-05,-1.99296e-08,1.67685e-05,94,73.1,-29.9,1.0833e+07,1e+06,-3.52008e-08,1.69004e-07,-3.98431e-08,0.00393877,0.0427429,-0.000105876,0.0412593,2,5355
12,2.42361e-22,1,7847,118.57,-4.47915e-06,1.62293e-05,-2.04768e-08,1.68361e-05,94,73.1,-29.9,1.0833e+07,1e+06,-4.06646e-08,1.80209e-07,-4.09701e-08,0.00394755,0.0450265,-0.000111338,0.043401,2,5356
12,2.42361e-22,1,7848,118.57,-4.52333e-06,1.62707e-05,-2.06294e-08,1.68878e-05,94,73.1,-29.9,1.0833e+07,1e+06,-4.85071e-08,1.92999e-07,-4.12726e-08,0.0037503,0.0474744,-5.9222e-05,0.0458004,2,5357
12,2.42361e-22,1,7849,118.57,-4.57616e-06,1.62907e-05,-2.06619e-08,1.69213e-05,94,73.1,-29.9,1.0833e+07,1e+06,-5.68035e-08,2.0603e-07,-4.13154e-08,0.00346922,0.0500001,2.20718e-05,0.0483768,2,5358
12,2.42361e-22,1,7850,118.57,-4.63694e-06,1.62937e-05,-2.08657e-08,1.69407e-05,94,73.1,-29.9,1.0833e+07,1e+06,-6.351e-08,2.17514e-07,-4.17233e-08,0.00321072,0.0523768,6.95603e-05,0.050852,2,5359
12,2.42361e-22,1,7851,118.57,-4.70318e-06,1.62888e-05,-2.12733e-08,1.69542e-05,94,73.1,-29.9,1.0833e+07,1e+06,-6.78632e-08,2.25838e-07,-4.25365e-08,0.00296936,0.0542179,3.53394e-05,0.0528206,2,5360
12,2.42361e-22,1,7852,118.57,-4.77266e-06,1.62842e-05,-2.17085e-08,1.69692e-05,94,73.1,-29.9,1.0833e+07,1e+06,-7.07117e-08,2.31655e-07,-4.34252e-08,0.00268948,0.0556033,-3.95153e-05,0.0543583,2,5361
12,2.42361e-22,1,7853,118.57,-4.8446e-06,1.62857e-05,-2.22766e-08,1.69911e-05,94,73.1,-29.9,1.0833e+07,1e+06,-7.23591e-08,2.36763e-07,-4.46144e-08,0.00244419,0.0570459,-0.000110692,0.0559435,2,5362
12,2.42361e-22,1,7854,118.57,-4.91738e-06,1.63014e-05,-2.31076e-08,1.7027e-05,94,73.1,-29.9,1.0833e+07,1e+06,-7.26269e-08,2.40217e-07,-4.62598e-08,0.00186133,0.0585,-0.000218348,0.057891,2,5363
12,2.58032e-22,1,7855,118.57,-4.98986e-06,1.63519e-05,-2.35778e-08,1.70964e-05,95.6875,73.1,-29.9,8.89556e+06,906250,-8.29646e-08,2.45232e-07,-4.75345e-08,0.00129379,0.0541193,7.03798e-05,0.0544107,2,5364
12,2.94598e-22,2,7856,105.68,-5.08331e-06,1.63944e-05,-3.44398e-08,1.71644e-05,99.625,-4.36,162.92,4.37488e+06,687500,-1.08009e-07,2.67926e-07,-6.82913e-08,0.000511257,0.0402675,0.000653286,0.0411247,3,2490
12,3.20717e-22,2,7857,105.68,-5.20588e-06,1.63377e-05,-4.77815e-08,1.71472e-05,102.438,-4.36,162.92,1.14581e+06,531250,-1.25701e-07,2.84147e-07,-9.52124e-08,-0.00066864,0.0273613,6.68431e-05,0.0285679,3,2491
12,3.25941e-22,2,7858,105.68,-5.33471e-06,1.62213e-05,-4.70338e-08,1.70761e-05,103,-4.36,162.92,500000,500000,-1.26694e-07,2.71197e-07,-9.45411e-08,-0.00110058,0.0223892,-0.000404538,0.0236351,3,2492
12,3.25941e-22,2,7859,105.68,-5.45926e-06,1.61196e-05,-4.12194e-08,1.70191e-05,103,-4.36,162.92,500000,500000,-1.20041e-07,2.48976e-07,-8.24406e-08,-0.00115796,0.0205751,1.78998e-05,0.0215393,3,2493
12,3.25941e-22,2,7860,105.68,-5.57479e-06,1.60426e-05,-3.80551e-08,1.69837e-05,103,-4.36,162.92,500000,500000,-1.05664e-07,2.2712e-07,-7.61222e-08,-0.000858199,0.0194022,0.000405554,0.0198107,3,2494
12,3.97121e-22,2,7861,105.68,-5.67059e-06,1.60017e-05,-3.96915e-08,1.69768e-05,106.375,-4.36,162.92,2.43744e+06,593750,-7.10893e-08,2.02816e-07,-7.89609e-08,-3.1011e-05,0.023139,0.000152139,0.023868,3,2495
12,5.63207e-22,1,7862,9.52003,-5.71697e-06,1.5978e-05,-4.46167e-08,1.69701e-05,114.25,63.66,-15.5,6.95812e+06,812500,-2.30059e-08,1.81248e-07,-8.97302e-08,0.000822291,0.0316819,-8.53302e-05,0.032417,2,5365
12,6.81841e-22,1,7863,9.52003,-5.7166e-06,1.59515e-05,-4.90462e-08,1.6945e-05,119.875,63.66,-15.5,1.01872e+07,968750,6.67479e-09,1.69664e-07,-9.84277e-08,0.00149694,0.0365346,0.000138362,0.0360867,2,5366
12,7.05568e-22,1,7864,9.52003,-5.70362e-06,1.59482e-05,-4.98191e-08,1.69375e-05,121,63.66,-15.5,1.0833e+07,1e+06,1.42054e-08,1.61477e-07,-9.91892e-08,0.00193006,0.0359997,-1.21409e-05,0.0351117,2,5367
12,7.05568e-22,1,7865,9.52003,-5.68819e-06,1.59775e-05,-4.77391e-08,1.69599e-05,121,63.66,-15.5,1.0833e+07,1e+06,1.55669e-08,1.53276e-07,-9.54948e-08,0.00212651,0.0342879,-5.60355e-05,0.0333438,2,5368
12,7.05568e-22,1,7866,9.52003,-5.67249e-06,1.60205e-05,-4.59001e-08,1.69951e-05,121,63.66,-15.5,1.0833e+07,1e+06,1.56235e-08,1.4665e-07,-9.18059e-08,0.00212826,0.0328488,-4.66217e-05,0.031924,2,5369
12,7.05568e-22,1,7867,9.52003,-5.65695e-06,1.60684e-05,-4.48719e-08,1.70351e-05,121,63.66,-15.5,1.0833e+07,1e+06,1.52458e-08,1.43446e-07,-8.97334e-08,0.00206642,0.0321503,-3.41692e-05,0.0312543,2,5370
12,7.05568e-22,1,7868,9.52003,-5.642e-06,1.61162e-05,-4.45589e-08,1.70753e-05,121,63.66,-15.5,1.0833e+07,1e+06,1.4507e-08,1.43242e-07,-8.91135e-08,0.00192411,0.0321147,-1.66425e-05,0.0312693,2,5371
12,7.05568e-22,1,7869,9.52003,-5.62793e-06,1.61619e-05,-4.47822e-08,1.71138e-05,121,63.66,-15.5,1.0833e+07,1e+06,1.3555e-08,1.45042e-07,-8.95585e-08,0.00171416,0.0325211,-1.29891e-05,0.0317637,2,5372
12,7.05568e-22,1,7870,9.52003,-5.61489e-06,1.62047e-05,-4.54058e-08,1.71499e-05,121,63.66,-15.5,1.0833e+07,1e+06,1.24432e-08,1.48348e-07,-9.07926e-08,0.00144985,0.0332645,-1.65017e-05,0.032628,2,5373
12,7.05568e-22,1,7871,9.52003,-5.60305e-06,1.62439e-05,-4.63954e-08,1.71831e-05,121,63.66,-15.5,1.0833e+07,1e+06,1.10145e-08,1.53021e-07,-9.27669e-08,0.00108353,0.0342989,-5.47681e-05,0.033854,2,5374
12,7.05568e-22,1,7872,9.52003,-5.59286e-06,1.6278e-05,-4.77608e-08,1.7212e-05,121,63.66,-15.5,1.0833e+07,1e+06,9.10407e-09,1.59537e-07,-9.58139e-08,0.000566536,0.0356982,-0.000164365,0.0355537,2,5375
12,7.05568e-22,1,7873,9.52003,-5.58484e-06,1.63024e-05,-4.92445e-08,1.72325e-05,121,63.66,-15.5,1.0833e+07,1e+06,6.78233e-09,1.65878e-07,-9.88332e-08,-3.62038e-05,0.036982,-0.00035004,0.0371975,2,5376
12,6.84061e-22,1,7874,9.52003,-5.57929e-06,1.63085e-05,-4.71824e-08,1.72365e-05,120.625,63.66,-15.5,1.01872e+07,968750,5.32669e-10,1.6951e-07,-9.36934e-08,-0.000155297,0.0376244,-2.16677e-05,0.0378458,2,5377
12,5.88256e-22,1,7875,9.52003,-5.58377e-06,1.62915e-05,-3.84059e-08,1.72218e-05,120.062,63.66,-15.5,7.60394e+06,843750,-2.18359e-08,1.73095e-07,-7.62199e-08,-0.000453669,0.0362473,-0.000350335,0.0372899,2,5378
12,4.36401e-22,2,7876,130.08,-5.62297e-06,1.62984e-05,-2.65396e-08,1.72411e-05,120,-119.85,-177.55,3.72906e+06,656250,-6.27818e-08,1.9466e-07,-5.27617e-08,0.000163586,0.0352369,-0.000524098,0.0363423,3,2496
12,3.34077e-22,2,7877,130.08,-5.70934e-06,1.63665e-05,-1.61636e-08,1.73338e-05,120.062,-119.85,-177.55,1.14581e+06,531250,-1.0151e-07,2.22917e-07,-3.23708e-08,0.00128373,0.0357107,0.000613019,0.0352908,3,2497
12,3.09311e-22,2,7878,130.08,-5.82599e-06,1.64816e-05,-1.03392e-08,1.7481e-05,120,-119.85,-177.55,500000,500000,-1.21208e-07,2.32023e-07,-2.16415e-08,0.00077553,0.0352906,0.00120849,0.0345448,3,2498
12,5.74276e-22,1,7879,153.51,-1.01671e-08,1.62593e-05,-5.0663e-08,1.62594e-05,29,-89.16,129.77,1.0833e+07,1e+06,-2.16301e-08,2.1997e-07,-1.01314e-07,-0.000952251,0.0505291,-0.00148121,0.0520979,2,5379
12,5.12485e-22,1,7880,153.51,-3.30931e-08,1.6309e-05,-4.77089e-08,1.63091e-05,22.875,-89.16,129.77,8.24975e+06,875000,-4.70696e-08,2.36726e-07,-9.53695e-08,-0.00125603,0.0468918,0.000332773,0.0483109,2,5380
12,4.00938e-22,2,7881,71.79,-1.04306e-07,1.62366e-05,-4.09033e-08,1.62369e-05,12.25,-78.66,171.44,3.72906e+06,656250,-8.8351e-08,2.47643e-07,-8.1546e-08,-0.000684095,0.0341696,0.00169393,0.0354227,3,2499
12,3.96387e-22,2,7882,71.79,-2.09795e-07,1.61202e-05,-3.23441e-08,1.61216e-05,12.375,-78.66,171.44,3.72906e+06,656250,-8.4357e-08,2.11423e-07,-6.45228e-08,-0.00097419,0.0264073,0.00170932,0.0277372,3,2500
12,4.91349e-22,1,7883,153.51,-2.7302e-07,1.61025e-05,-2.86285e-08,1.61049e-05,21.5,-89.16,129.77,7.60394e+06,843750,-4.52108e-08,1.56404e-07,-5.79559e-08,-0.00254184,0.0273788,-8.61848e-05,0.0298155,2,5381
12,5.5769e-22,1,7884,153.51,-3.00217e-07,1.61464e-05,-2.88003e-08,1.61492e-05,27.5,-89.16,129.77,1.01872e+07,968750,-2.43177e-08,1.40414e-07,-5.77335e-08,-0.00268429,0.031461,-0.000215163,0.0335916,2,5382
12,5.74276e-22,1,7885,153.51,-3.21656e-07,1.61707e-05,-2.84297e-08,1.61739e-05,29,-89.16,129.77,1.0833e+07,1e+06,-2.04719e-08,1.40194e-07,-5.65261e-08,-0.0023228,0.0335434,0.00010564,0.0355194,2,5383
12,5.74276e-22,1,7886,153.51,-3.41161e-07,1.61516e-05,-2.62851e-08,1.61553e-05,29,-89.16,129.77,1.0833e+07,1e+06,-1.85864e-08,1.31642e-07,-5.25782e-08,-0.00204743,0.0320018,2.41699e-05,0.0341881,2,5384
12,5.74276e-22,1,7887,153.51,-3.58828e-07,1.61085e-05,-2.49231e-08,1.61125e-05,29,-89.16,129.77,1.0833e+07,1e+06,-1.74123e-08,1.25891e-07,-4.98479e-08,-0.0018427,0.0308827,2.28575e-05,0.033143,2,5385
12,5.74276e-22,1,7888,153.51,-3.75985e-07,1.60496e-05,-2.37304e-08,1.60541e-05,29,-89.16,129.77,1.0833e+07,1e+06,-1.70472e-08,1.21301e-07,-4.75026e-08,-0.00182478,0.0299158,4.05164e-05,0.0322595,2,5386
12,5.74276e-22,1,7889,153.51,-3.92923e-07,1.59796e-05,-2.22738e-08,1.59844e-05,29,-89.16,129.77,1.0833e+07,1e+06,-1.69146e-08,1.15698e-07,-4.46659e-08,-0.00187814,0.0286117,9.2214e-05,0.0309554,2,5387
12,5.74276e-22,1,7890,153.51,-4.09814e-07,1.59056e-05,-2.08691e-08,1.59109e-05,29,-89.16,129.77,1.0833e+07,1e+06,-1.7589e-08,1.09146e-07,-4.16688e-08,-0.00217522,0.0268251,7.95192e-05,0.0291195,2,5388
12,5.74276e-22,1,7891,153.51,-4.28101e-07,1.58394e-05,-2.05511e-08,1.58452e-05,29,-89.16,129.77,1.0833e+07,1e+06,-2.00986e-08,1.07765e-07,-4.06776e-08,-0.0028327,0.0260438,8.08399e-05,0.028331,2,5389
12,5.74276e-22,1,7892,153.51,-4.50012e-07,1.57856e-05,-2.04808e-08,1.5792e-05,29,-89.16,129.77,1.0833e+07,1e+06,-2.30245e-08,1.11741e-07,-4.02508e-08,-0.00330503,0.026758,0.000571222,0.0287941,2,5390
12,5.74276e-22,1,7893,153.51,-4.7415e-07,1.57402e-05,-1.87503e-08,1.57474e-05,29,-89.16,129.77,1.0833e+07,1e+06,-2.408e-08,1.10971e-07,-3.77314e-08,-0.00331477,0.0264838,0.00119934,0.028113,2,5391
12,5.74276e-22,1,7894,153.51,-4.98172e-07,1.57136e-05,-1.83427e-08,1.57215e-05,29,-89.16,129.77,1.0833e+07,1e+06,-2.45686e-08,1.12616e-07,-3.781e-08,-0.00324449,0.0266195,0.00152751,0.0279085,2,5392
12,5.62902e-22,1,7895,153.51,-5.23287e-07,1.57092e-05,-2.15002e-08,1.57179e-05,29.125,-89.16,129.77,1.01872e+07,968750,-2.95244e-08,1.29623e-07,-4.34517e-08,-0.00302894,0.0291649,0.00161908,0.0305042,2,5393
12,5.40153e-22,1,7896,153.51,-5.57221e-07,1.57086e-05,-2.77721e-08,1.57185e-05,29.375,-89.16,129.77,8.89556e+06,906250,-4.15456e-08,1.51908e-07,-5.5088e-08,-0.0033012,0.0289406,0.000158201,0.0315378,2,5394
12,5.0603e-22,1,7897,153.51,-6.06378e-07,1.57454e-05,-3.18685e-08,1.57571e-05,29.75,-89.16,129.77,6.95812e+06,812500,-7.2486e-08,1.8684e-07,-6.37279e-08,-0.00495823,0.0288291,-0.000955208,0.0335425,2,5395
12,4.49159e-22,2,7898,58.62,-7.02192e-07,1.58463e-05,-3.36648e-08,1.58619e-05,30.375,158.52,96.68,3.72906e+06,656250,-1.26649e-07,2.4077e-07,-6.7344e-08,-0.00625578,0.0275752,-0.000458696,0.03349,3,2501
12,4.03662e-22,2,7899,58.62,-8.59676e-07,1.5992e-05,-3.52917e-08,1.60152e-05,30.875,158.52,96.68,1.14581e+06,531250,-1.65069e-07,2.73666e-07,-6.99447e-08,-0.00599286,0.0224508,-9.30229e-05,0.0279942,3,2502
12,3.92288e-22,2,7900,58.62,-1.03233e-06,1.6146e-05,-3.38029e-08,1.6179e-05,31,158.52,96.68,500000,500000,-1.6192e-07,2.6615e-07,-6.75213e-08,-0.00483756,0.0197687,0.000413096,0.024176,3,2503
12,4.73829e-22,2,7901,58.62,-1.18352e-06,1.62676e-05,-3.34268e-08,1.63106e-05,35.5,158.52,96.68,2.43744e+06,593750,-1.31119e-07,2.36578e-07,-6.69955e-08,-0.00473363,0.0221404,-0.000537601,0.0270613,3,2504
12,6.64092e-22,1,7902,130.6,-1.29457e-06,1.63652e-05,-3.38221e-08,1.64163e-05,46,117.2,-48.36,6.95813e+06,812500,-9.61238e-08,2.2964e-07,-6.82639e-08,-0.0030039,0.0345008,-0.000326995,0.0379886,2,5396
12,7.99995e-22,1,7903,130.6,-1.37576e-06,1.64379e-05,-3.32158e-08,1.64954e-05,53.5,117.2,-48.36,1.01872e+07,968750,-7.82925e-08,2.36826e-07,-6.64642e-08,-0.000535894,0.0448242,0.000889803,0.0455554,2,5397
12,8.27175e-22,1,7904,130.6,-1.45115e-06,1.64865e-05,-3.31017e-08,1.65503e-05,55,117.2,-48.36,1.0833e+07,1e+06,-7.35604e-08,2.30472e-07,-6.5715e-08,-0.000229965,0.045163,0.000273022,0.0458393,2,5398
12,8.27175e-22,1,7905,130.6,-1.52288e-06,1.65237e-05,-3.27931e-08,1.65937e-05,55,117.2,-48.36,1.0833e+07,1e+06,-7.02734e-08,2.25758e-07,-6.56607e-08,0.000218245,0.0443562,-4.91851e-05,0.0450956,2,5399
12,8.27175e-22,1,7906,130.6,-1.5917e-06,1.65453e-05,-3.20188e-08,1.66217e-05,55,117.2,-48.36,1.0833e+07,1e+06,-6.7515e-08,2.20446e-07,-6.40365e-08,0.000498014,0.0436176,-5.07695e-05,0.0443993,2,5400
12,8.27175e-22,1,7907,130.6,-1.65791e-06,1.65503e-05,-3.07737e-08,1.66331e-05,55,117.2,-48.36,1.0833e+07,1e+06,-6.43326e-08,2.12708e-07,-6.15426e-08,0.000676611,0.0424074,-4.09922e-05,0.0433048,2,5401
12,8.27175e-22,1,7908,130.6,-1.72037e-06,1.65379e-05,-2.8822e-08,1.66271e-05,55,117.2,-48.36,1.0833e+07,1e+06,-5.97438e-08,2.00777e-07,-5.77542e-08,0.000896775,0.0403738,1.06394e-05,0.0413123,2,5402
12,8.27175e-22,1,7909,130.6,-1.7774e-06,1.65107e-05,-2.62824e-08,1.66061e-05,55,117.2,-48.36,1.0833e+07,1e+06,-5.43085e-08,1.83858e-07,-5.25211e-08,0.000964916,0.0371,0.000117957,0.0379193,2,5403
12,8.27175e-22,1,7910,130.6,-1.82898e-06,1.64773e-05,-2.41068e-08,1.65785e-05,55,117.2,-48.36,1.0833e+07,1e+06,-5.04587e-08,1.67622e-07,-4.80981e-08,0.000651043,0.0334887,9.58583e-05,0.034152,2,5404
12,8.27175e-22,1,7911,130.6,-1.87832e-06,1.6449e-05,-2.29969e-08,1.65559e-05,55,117.2,-48.36,1.0833e+07,1e+06,-5.05601e-08,1.58827e-07,-4.60985e-08,-0.000170978,0.0310638,-7.59639e-05,0.0318382,2,5405
12,8.27175e-22,1,7912,130.6,-1.9301e-06,1.64289e-05,-2.23249e-08,1.65419e-05,55,117.2,-48.36,1.0833e+07,1e+06,-5.24979e-08,1.54805e-07,-4.47271e-08,-0.00110158,0.0297816,-0.00013759,0.0308448,2,5406
12,8.27175e-22,1,7913,130.6,-1.98332e-06,1.64126e-05,-2.04687e-08,1.6532e-05,55,117.2,-48.36,1.0833e+07,1e+06,-5.08293e-08,1.43564e-07,-4.08185e-08,-0.00159631,0.0273586,-2.75918e-05,0.028511,2,5407
12,8.27175e-22,1,7914,130.6,-2.03176e-06,1.64081e-05,-1.99248e-08,1.65335e-05,55,117.2,-48.36,1.0833e+07,1e+06,-4.65175e-08,1.2628e-07,-3.90136e-08,-0.00206918,0.0231619,-0.000893502,0.024889,2,5408
12,7.04916e-22,1,7915,130.6,-2.07635e-06,1.64325e-05,-1.2203e-08,1.65631e-05,55.75,117.2,-48.36,1.0833e+07,1e+06,-4.91019e-08,1.20789e-07,-2.39369e-08,-0.00178564,0.0241618,0.0012936,0.0255915,2,5409
12,4.60399e-22,1,7916,61.61,-2.12997e-06,1.64927e-05,-4.70842e-09,1.66297e-05,57.25,-113.29,-151.66,1.0833e+07,1e+06,-6.12726e-08,1.3145e-07,-1.03636e-08,-0.00143916,0.0286533,0.00243555,0.0294321,2,5410
12,3.3814e-22,1,7917,61.61,-2.1989e-06,1.65831e-05,-6.59552e-09,1.67282e-05,58,-113.29,-151.66,1.0833e+07,1e+06,-7.25048e-08,1.5267e-07,-1.4315e-08,-0.00127055,0.0331089,0.000803612,0.0336163,2,5411
12,3.3814e-22,1,7918,61.61,-2.27498e-06,1.66774e-05,-8.44258e-09,1.68318e-05,58,-113.29,-151.66,1.0833e+07,1e+06,-7.4012e-08,1.63267e-07,-1.69089e-08,-0.000878602,0.0359149,0.000825557,0.0360435,2,5412
12,3.3814e-22,1,7919,61.61,-2.34692e-06,1.67548e-05,-9.32194e-09,1.69184e-05,58,-113.29,-151.66,1.0833e+07,1e+06,-6.86165e-08,1.56879e-07,-1.80424e-08,-0.00059352,0.0348504,0.000551165,0.0348943,2,5413
12,3.37657e-22,1,7920,61.61,-2.41221e-06,1.68216e-05,-1.03636e-08,1.69937e-05,58.1875,-113.29,-151.66,1.01872e+07,968750,-6.57297e-08,1.59414e-07,-2.061e-08,-0.000215643,0.0351739,0.000882468,0.0351032,2,5414
12,3.35243e-22,1,7921,61.61,-2.47838e-06,1.6885e-05,-1.62111e-08,1.70659e-05,59.125,-113.29,-151.66,6.95812e+06,812500,-7.46118e-08,1.67004e-07,-3.23941e-08,-0.00268217,0.0315187,-0.000462494,0.0341921,2,5415
12,3.31864e-22,2,7922,110.23,-2.56143e-06,1.69074e-05,-2.15025e-08,1.71004e-05,60.4375,164.69,-25.3,2.43744e+06,593750,-9.46665e-08,1.84658e-07,-4.27854e-08,-0.00487784,0.026103,-0.000784152,0.0305717,3,2505
12,3.58181e-22,2,7923,110.23,-2.66771e-06,1.68772e-05,-2.26329e-08,1.70868e-05,62.25,164.69,-25.3,1.14581e+06,531250,-1.10558e-07,2.08572e-07,-4.5241e-08,-0.00486085,0.0262814,0.000866525,0.0300137,3,2506
12,4.97006e-22,2,7924,110.23,-2.78255e-06,1.68426e-05,-2.46291e-08,1.70709e-05,68.5,164.69,-25.3,4.37488e+06,687500,-1.12956e-07,2.07772e-07,-4.98437e-08,-0.00658793,0.0256449,0.000856317,0.0304505,3,2507
12,6.91362e-22,1,7925,91.26,-2.89362e-06,1.68427e-05,-3.17983e-08,1.70895e-05,77.25,-49.63,-179.82,8.89556e+06,906250,-1.10001e-07,2.07144e-07,-6.368e-08,-0.00815104,0.0243253,-6.78258e-05,0.0298766,2,5416
12,7.74657e-22,1,7926,91.26,-3.00255e-06,1.68589e-05,-3.69053e-08,1.71242e-05,81,-49.63,-179.82,1.0833e+07,1e+06,-1.09663e-07,2.15975e-07,-7.34733e-08,-0.00828665,0.0248894,-0.00032464,0.0300803,2,5417
12,7.74657e-22,1,7927,91.26,-3.11295e-06,1.68572e-05,-3.62784e-08,1.71423e-05,81,-49.63,-179.82,1.0833e+07,1e+06,-1.11214e-07,2.16856e-07,-7.25443e-08,-0.00858134,0.0250141,-2.62974e-05,0.0303231,2,5418
12,7.47894e-22,1,7928,91.26,-3.22498e-06,1.68393e-05,-3.55618e-08,1.71454e-05,80.5625,-49.63,-179.82,1.01872e+07,968750,-1.11453e-07,2.14386e-07,-7.09519e-08,-0.00908731,0.0250248,-0.000231777,0.030918,2,5419
12,6.40844e-22,1,7929,91.26,-3.33586e-06,1.68067e-05,-3.37867e-08,1.71346e-05,78.8125,-49.63,-179.82,7.60394e+06,843750,-1.04395e-07,2.09569e-07,-6.73104e-08,-0.00849343,0.0265908,-0.000476221,0.0323413,2,5420
12,4.80267e-22,2,7930,76.12,-3.43377e-06,1.67581e-05,-3.1113e-08,1.71063e-05,76.1875,38.14,139.31,3.72906e+06,656250,-9.1028e-08,2.05599e-07,-6.23429e-08,-0.00658643,0.0295077,-0.000150654,0.0337695,3,2508
12,3.73216e-22,2,7931,76.12,-3.51791e-06,1.66854e-05,-2.96563e-08,1.70523e-05,74.4375,38.14,139.31,1.14581e+06,531250,-8.34212e-08,2.0415e-07,-5.9888e-08,-0.00560342,0.031037,0.000228777,0.0342481,3,2509
12,3.46453e-22,2,7932,76.12,-3.60061e-06,1.65809e-05,-3.00023e-08,1.69673e-05,74,38.14,139.31,500000,500000,-8.30625e-08,1.99315e-07,-5.98581e-08,-0.00622647,0.0297098,8.9599e-05,0.033284,3,2510
12,3.46453e-22,2,7933,76.12,-3.68404e-06,1.64499e-05,-2.94432e-08,1.68574e-05,74,38.14,139.31,500000,500000,-8.16812e-08,1.87711e-07,-5.8819e-08,-0.00694936,0.0268965,-0.000213032,0.0311141,3,2511
12,3.46453e-22,2,7934,76.12,-3.76397e-06,1.63121e-05,-2.75273e-08,1.67408e-05,74,38.14,139.31,500000,500000,-7.78085e-08,1.72163e-07,-5.49692e-08,-0.00721316,0.0240104,-0.000334232,0.0285782,3,2512
12,3.46453e-22,2,7935,76.12,-3.83965e-06,1.61879e-05,-2.83603e-08,1.66371e-05,74,38.14,139.31,500000,500000,-7.6496e-08,1.66225e-07,-5.58782e-08,-0.00763925,0.0226711,-0.000882005,0.0277603,3,2513
12,3.27576e-22,2,7936,76.12,-3.91697e-06,1.60667e-05,-2.03854e-08,1.65373e-05,78.3125,38.14,139.31,2.43744e+06,593750,-8.10508e-08,1.60973e-07,-4.08629e-08,-0.00743884,0.0239703,0.000239714,0.0293073,3,2514
12,2.82675e-22,1,7937,118.57,-4.00176e-06,1.59948e-05,-9.83718e-09,1.64878e-05,87.625,73.1,-29.9,6.95812e+06,812500,-8.39292e-08,1.56744e-07,-2.04347e-08,-0.00567899,0.0292076,0.000806649,0.0336435,2,5421
12,2.49506e-22,1,7938,118.57,-4.08482e-06,1.59732e-05,-7.09619e-09,1.64873e-05,93.3125,73.1,-29.9,1.01872e+07,968750,-7.91305e-08,1.53428e-07,-1.41753e-08,-0.00367158,0.032909,0.00029161,0.0354856,2,5422
12,2.42361e-22,1,7939,118.57,-4.16002e-06,1.59511e-05,-5.68646e-09,1.64846e-05,94,73.1,-29.9,1.0833e+07,1e+06,-7.19249e-08,1.44801e-07,-1.12408e-08,-0.00258208,0.0324042,0.000730452,0.0337386,2,5423
12,2.42361e-22,1,7940,118.57,-4.22867e-06,1.59498e-05,-7.35415e-09,1.65009e-05,94,73.1,-29.9,1.0833e+07,1e+06,-6.53171e-08,1.42342e-07,-1.48104e-08,-0.00197613,0.0323965,0.000419127,0.0334432,2,5424
12,2.42361e-22,1,7941,118.57,-4.29065e-06,1.59743e-05,-9.6933e-09,1.65405e-05,94,73.1,-29.9,1.0833e+07,1e+06,-6.00089e-08,1.47537e-07,-1.97464e-08,-0.00104737,0.0344237,0.000223052,0.0349572,2,5425
12,2.42361e-22,1,7942,118.57,-4.34869e-06,1.60106e-05,-1.18095e-08,1.65907e-05,94,73.1,-29.9,1.0833e+07,1e+06,-5.45676e-08,1.51492e-07,-2.36765e-08,6.08239e-05,0.0360525,0.000195494,0.0359542,2,5426
12,2.42361e-22,1,7943,118.57,-4.39979e-06,1.60526e-05,-1.34478e-08,1.66447e-05,94,73.1,-29.9,1.0833e+07,1e+06,-4.63305e-08,1.47464e-07,-2.65299e-08,0.00117936,0.0356901,0.000111187,0.0351105,2,5427
12,2.42361e-22,1,7944,118.57,-4.44135e-06,1.61088e-05,-1.53324e-08,1.67099e-05,94,73.1,-29.9,1.0833e+07,1e+06,-3.87536e-08,1.46928e-07,-3.05462e-08,0.00223608,0.0362971,-5.30968e-05,0.0353884,2,5428
12,2.42361e-22,1,7945,118.57,-4.47729e-06,1.61806e-05,-1.72874e-08,1.67887e-05,94,73.1,-29.9,1.0833e+07,1e+06,-3.50722e-08,1.53113e-07,-3.45178e-08,0.00306011,0.0384335,-9.13905e-05,0.0372631,2,5429
12,2.42361e-22,1,7946,118.57,-4.5115e-06,1.62602e-05,-1.87893e-08,1.68745e-05,94,73.1,-29.9,1.0833e+07,1e+06,-3.44783e-08,1.61521e-07,-3.76117e-08,0.00362678,0.040783,-7.92195e-05,0.0393977,2,5430
12,2.42361e-22,1,7947,118.57,-4.54625e-06,1.63399e-05,-1.99887e-08,1.69606e-05,94,73.1,-29.9,1.0833e+07,1e+06,-3.64062e-08,1.7085e-07,-3.99997e-08,0.00388946,0.0430533,-0.000127376,0.0415526,2,5431
12,2.42361e-22,1,7948,118.57,-4.58431e-06,1.64119e-05,-2.09139e-08,1.70402e-05,94,73.1,-29.9,1.0833e+07,1e+06,-4.15755e-08,1.83873e-07,-4.18613e-08,0.00394428,0.045977,-0.000135266,0.044376,2,5432
12,2.42361e-22,1,7949,118.57,-4.6294e-06,1.64665e-05,-2.12164e-08,1.71049e-05,94,73.1,-29.9,1.0833e+07,1e+06,-4.95519e-08,1.98113e-07,-4.24394e-08,0.00376297,0.0488899,-4.87098e-05,0.0472218,2,5433
12,2.42361e-22,1,7950,118.57,-4.68341e-06,1.64986e-05,-2.10706e-08,1.71505e-05,94,73.1,-29.9,1.0833e+07,1e+06,-5.78765e-08,2.09964e-07,-4.21178e-08,0.00340291,0.0510833,2.55593e-05,0.0494836,2,5434
12,2.42361e-22,1,7951,118.57,-4.74515e-06,1.65118e-05,-2.09584e-08,1.71801e-05,94,73.1,-29.9,1.0833e+07,1e+06,-6.43464e-08,2.18792e-07,-4.19147e-08,0.00303298,0.0527105,3.75887e-05,0.0512712,2,5435
12,2.42361e-22,1,7952,118.57,-4.81211e-06,1.65146e-05,-2.10394e-08,1.72014e-05,94,73.1,-29.9,1.0833e+07,1e+06,-6.85824e-08,2.25028e-07,-4.20836e-08,0.00268366,0.0539977,7.66568e-06,0.0527337,2,5436
12,2.42361e-22,1,7953,118.57,-4.88232e-06,1.65154e-05,-2.11715e-08,1.7222e-05,94,73.1,-29.9,1.0833e+07,1e+06,-7.13956e-08,2.29421e-07,-4.23529e-08,0.0022865,0.055077,-2.52004e-05,0.0540005,2,5437
12,2.42361e-22,1,7954,118.57,-4.9549e-06,1.65209e-05,-2.13556e-08,1.72479e-05,94,73.1,-29.9,1.0833e+07,1e+06,-7.34344e-08,2.32447e-07,-4.26772e-08,0.0017585,0.0560113,-0.000102675,0.0552344,2,5438
12,2.42361e-22,1,7955,118.57,-5.02919e-06,1.6538e-05,-2.14059e-08,1.72858e-05,94,73.1,-29.9,1.0833e+07,1e+06,-7.28896e-08,2.32824e-07,-4.25822e-08,0.00132275,0.056786,6.23837e-05,0.0563093,2,5439
12,2.47584e-22,1,7956,118.57,-5.10068e-06,1.65857e-05,-2.02891e-08,1.73523e-05,94.5625,73.1,-29.9,1.01872e+07,968750,-7.18269e-08,2.23336e-07,-4.00394e-08,0.000930908,0.0532954,0.000337151,0.0533105,2,5440
12,2.73703e-22,1,7957,118.57,-5.17284e-06,1.66426e-05,-2.17364e-08,1.7428e-05,97.375,73.1,-29.9,6.95812e+06,812500,-8.74849e-08,2.2698e-07,-4.55012e-08,0.000668764,0.0429611,0.000497326,0.0436498,2,5441
12,3.10269e-22,2,7958,105.68,-5.27565e-06,1.66126e-05,-3.7767e-08,1.74302e-05,101.312,-4.36,162.92,2.43744e+06,593750,-1.17255e-07,2.62212e-07,-7.50636e-08,-0.000288435,0.0306208,0.00034668,0.0316858,3,2515
12,3.25941e-22,2,7959,105.68,-5.40735e-06,1.64939e-05,-4.71182e-08,1.73577e-05,103,-4.36,162.92,500000,500000,-1.30428e-07,2.73404e-07,-9.25286e-08,-0.00159219,0.0229922,-0.00031305,0.0244273,3,2516
12,3.25941e-22,2,7960,105.68,-5.5365e-06,1.63652e-05,-3.92554e-08,1.72764e-05,103,-4.36,162.92,500000,500000,-1.21025e-07,2.44427e-07,-7.91386e-08,-0.00146264,0.0200232,-5.80467e-05,0.0211295,3,2517
12,3.29729e-22,2,7961,105.68,-5.6494e-06,1.62604e-05,-3.36649e-08,1.72138e-05,102.812,-4.36,162.92,500000,500000,-9.70234e-08,2.08099e-07,-6.85258e-08,-0.000643444,0.0182312,0.000198213,0.0190692,3,2518
12,4.28424e-22,2,7962,105.68,-5.73055e-06,1.61907e-05,-3.6439e-08,1.7175e-05,107.125,-4.36,162.92,3.08325e+06,625000,-5.35206e-08,1.78709e-07,-7.25302e-08,0.000658109,0.0233118,-5.30034e-05,0.02432,3,2519
12,6.14449e-22,1,7963,9.52003,-5.75644e-06,1.61438e-05,-4.42856e-08,1.71395e-05,116.312,63.66,-15.5,8.24975e+06,875000,-7.99859e-09,1.62293e-07,-8.71964e-08,0.00127098,0.0316049,-0.000208741,0.0319537,2,5442
12,7.05568e-22,1,7964,9.52003,-5.74655e-06,1.61128e-05,-4.77681e-08,1.71069e-05,121,63.66,-15.5,1.0833e+07,1e+06,1.0467e-08,1.58265e-07,-9.63421e-08,0.00115708,0.0349708,-0.000244517,0.0345823,2,5443
12,7.05568e-22,1,7965,9.52003,-5.73551e-06,1.61078e-05,-4.75085e-08,1.70986e-05,121,63.66,-15.5,1.0833e+07,1e+06,1.15928e-08,1.57002e-07,-9.51181e-08,0.00141541,0.0350351,-2.83006e-05,0.0343963,2,5444
12,7.05568e-22,1,7966,9.52003,-5.72336e-06,1.61294e-05,-4.62637e-08,1.71148e-05,121,63.66,-15.5,1.0833e+07,1e+06,1.28461e-08,1.50797e-07,-9.24927e-08,0.00157932,0.0337369,-4.71338e-05,0.0330308,2,5445
12,7.05568e-22,1,7967,9.52003,-5.70981e-06,1.61669e-05,-4.5181e-08,1.71456e-05,121,63.66,-15.5,1.0833e+07,1e+06,1.39245e-08,1.45963e-07,-9.03444e-08,0.00178872,0.0327104,-2.66896e-05,0.0319223,2,5446
12,7.05568e-22,1,7968,9.52003,-5.69551e-06,1.62119e-05,-4.46337e-08,1.71833e-05,121,63.66,-15.5,1.0833e+07,1e+06,1.45044e-08,1.43461e-07,-8.9264e-08,0.00191094,0.0321667,-2.28118e-05,0.031335,2,5447
12,7.05568e-22,1,7969,9.52003,-5.68081e-06,1.62595e-05,-4.46756e-08,1.72234e-05,121,63.66,-15.5,1.0833e+07,1e+06,1.48232e-08,1.43402e-07,-8.93522e-08,0.0019865,0.0321619,-8.25605e-06,0.0312896,2,5448
12,7.05568e-22,1,7970,9.52003,-5.66587e-06,1.6307e-05,-4.52129e-08,1.72633e-05,121,63.66,-15.5,1.0833e+07,1e+06,1.50689e-08,1.45149e-07,-9.04278e-08,0.00203707,0.0325553,2.54046e-06,0.0316513,2,5449
12,7.05568e-22,1,7971,9.52003,-5.65067e-06,1.6353e-05,-4.61923e-08,1.73018e-05,121,63.66,-15.5,1.0833e+07,1e+06,1.543e-08,1.48304e-07,-9.23788e-08,0.0020973,0.0332637,9.46895e-06,0.0323276,2,5450
12,7.05568e-22,1,7972,9.52003,-5.63501e-06,1.63968e-05,-4.77621e-08,1.73381e-05,121,63.66,-15.5,1.0833e+07,1e+06,1.59461e-08,1.52778e-07,-9.54996e-08,0.00212625,0.0342301,-5.90897e-05,0.0333241,2,5451
12,7.05568e-22,1,7973,9.52003,-5.61878e-06,1.64379e-05,-5.00837e-08,1.73717e-05,121,63.66,-15.5,1.0833e+07,1e+06,1.57962e-08,1.59616e-07,-1.00628e-07,0.00185334,0.0355801,-0.000362853,0.0349672,2,5452
12,6.84061e-22,1,7974,9.52003,-5.60341e-06,1.64689e-05,-5.05518e-08,1.73961e-05,120.625,63.66,-15.5,1.01872e+07,968750,1.05297e-08,1.68639e-07,-1.00678e-07,0.00160863,0.0373535,-0.000451812,0.0369974,2,5453
12,5.98035e-22,1,7975,9.52003,-5.59772e-06,1.64805e-05,-4.23933e-08,1.74053e-05,119.125,63.66,-15.5,7.60394e+06,843750,-9.20957e-09,1.81019e-07,-8.39006e-08,0.00214872,0.0388748,0.000295391,0.0381313,2,5454
12,4.55957e-22,2,7976,138.26,-5.62183e-06,1.64749e-05,-2.95288e-08,1.74077e-05,118.125,133.4,6.21,3.72906e+06,656250,-4.80181e-08,1.96228e-07,-5.94816e-08,0.00136908,0.0378114,0.000147424,0.0378077,3,2520
12,3.43856e-22,2,7977,130.08,-5.69375e-06,1.65082e-05,-1.88163e-08,1.74625e-05,119.125,-119.85,-177.55,1.14581e+06,531250,-9.0276e-08,2.165e-07,-3.86119e-08,0.00113041,0.0358332,9.60797e-05,0.0358139,3,2521
12,3.09311e-22,2,7978,130.08,-5.80238e-06,1.65974e-05,-1.29198e-08,1.75824e-05,120,-119.85,-177.55,500000,500000,-1.14621e-07,2.30486e-07,-2.59087e-08,0.00162104,0.0351958,0.000784883,0.0342235,3,2522
12,3.09311e-22,2,7979,130.08,-5.92299e-06,1.67108e-05,-1.12694e-08,1.77294e-05,120,-119.85,-177.55,500000,500000,-1.2151e-07,2.25952e-07,-2.19478e-08,0.000476163,0.0335839,0.000422788,0.0332197,3,2523
12,5.74276e-22,1,7980,153.51,-3.34142e-09,1.64832e-05,-5.61636e-08,1.64833e-05,29,-89.16,129.77,1.0833e+07,1e+06,-8.35456e-09,2.27947e-07,-1.12301e-07,0.00252145,0.0523919,-0.00172943,0.0524419,2,5455
12,5.07934e-22,1,7981,153.51,-1.33677e-08,1.65526e-05,-5.25087e-08,1.65527e-05,23,-89.16,129.77,8.24975e+06,875000,-3.85017e-08,2.47664e-07,-1.05754e-07,0.00206518,0.0481301,0.000344507,0.0476762,2,5456
12,3.75252e-22,2,7982,71.79,-8.03448e-08,1.65058e-05,-5.03583e-08,1.65061e-05,11,-78.66,171.44,3.08325e+06,625000,-9.34486e-08,2.71263e-07,-1.00337e-07,0.00190916,0.032869,0.000464786,0.0327222,3,2524
12,3.25496e-22,2,7983,71.79,-2.00265e-07,1.63689e-05,-4.57978e-08,1.63701e-05,6.5,-78.66,171.44,1.14581e+06,531250,-1.06451e-07,2.61811e-07,-9.05422e-08,0.00221118,0.024451,0.000717387,0.0239034,3,2525
12,4.08422e-22,2,7984,71.79,-2.93246e-07,1.6285e-05,-3.99901e-08,1.62877e-05,14,-78.66,171.44,4.37488e+06,687500,-6.41376e-08,2.06839e-07,-8.04361e-08,0.00120819,0.0272095,-0.000303634,0.027833,3,2526
12,5.2452e-22,1,7985,153.51,-3.2854e-07,1.62942e-05,-3.67945e-08,1.62975e-05,24.5,-89.16,129.77,8.89556e+06,906250,-1.93431e-08,1.59737e-07,-7.37511e-08,0.00111551,0.0323472,-0.000870942,0.0330978,2,5457
12,5.74276e-22,1,7986,153.51,-3.31932e-07,1.63123e-05,-3.28911e-08,1.63157e-05,29,-89.16,129.77,1.0833e+07,1e+06,-3.4861e-09,1.42168e-07,-6.57553e-08,0.00191922,0.0342682,-3.79044e-05,0.034256,2,5458
12,5.74276e-22,1,7987,153.51,-3.35512e-07,1.62832e-05,-2.94371e-08,1.62867e-05,29,-89.16,129.77,1.0833e+07,1e+06,-4.41808e-09,1.31678e-07,-5.89906e-08,0.00152428,0.0322682,4.82417e-05,0.0326572,2,5459
12,5.74276e-22,1,7988,153.51,-3.40768e-07,1.62344e-05,-2.76005e-08,1.6238e-05,29,-89.16,129.77,1.0833e+07,1e+06,-6.29712e-09,1.26056e-07,-5.52517e-08,0.00094963,0.0310181,8.03078e-06,0.0317966,2,5460
12,5.74276e-22,1,7989,153.51,-3.48106e-07,1.6171e-05,-2.58842e-08,1.61747e-05,29,-89.16,129.77,1.0833e+07,1e+06,-8.68006e-09,1.2143e-07,-5.1615e-08,0.00027494,0.0299713,5.83262e-05,0.0311037,2,5461
12,5.74276e-22,1,7990,153.51,-3.58128e-07,1.60946e-05,-2.32415e-08,1.60986e-05,29,-89.16,129.77,1.0833e+07,1e+06,-1.07694e-08,1.14666e-07,-4.57226e-08,-0.000204128,0.0285099,0.000531049,0.0295813,2,5462
12,5.74276e-22,1,7991,153.51,-3.69645e-07,1.60121e-05,-1.95344e-08,1.60164e-05,29,-89.16,129.77,1.0833e+07,1e+06,-1.1748e-08,1.05354e-07,-3.91681e-08,-0.000372534,0.0262628,0.00109431,0.0269198,2,5463
12,5.74276e-22,1,7992,153.51,-3.81624e-07,1.59443e-05,-1.80607e-08,1.59488e-05,29,-89.16,129.77,1.0833e+07,1e+06,-1.32472e-08,1.03818e-07,-3.71356e-08,-0.000577934,0.0255902,0.00147519,0.0257781,2,5464
12,5.62902e-22,1,7993,153.51,-3.9614e-07,1.58968e-05,-2.02368e-08,1.59017e-05,29.125,-89.16,129.77,1.01872e+07,968750,-1.93881e-08,1.17745e-07,-4.07774e-08,-0.000878572,0.0274645,0.00161256,0.0278209,2,5465
12,5.40153e-22,1,7994,153.51,-4.20401e-07,1.58511e-05,-2.48106e-08,1.58567e-05,29.375,-89.16,129.77,8.89556e+06,906250,-2.95098e-08,1.35221e-07,-4.93873e-08,-0.00123282,0.02707,0.000576213,0.028579,2,5466
12,5.28779e-22,1,7995,153.51,-4.55159e-07,1.58255e-05,-2.95574e-08,1.58321e-05,29.5,-89.16,129.77,8.24975e+06,875000,-3.72944e-08,1.49462e-07,-5.90081e-08,-0.00170551,0.0263716,-0.00066718,0.0287694,2,5467
12,5.0603e-22,1,7996,153.51,-4.9499e-07,1.5846e-05,-3.23583e-08,1.58538e-05,29.75,-89.16,129.77,6.95813e+06,812500,-5.52211e-08,1.756e-07,-6.55443e-08,-0.00228927,0.0281189,-0.00090289,0.0311238,2,5468
12,4.60533e-22,2,7997,58.62,-5.65602e-07,1.58888e-05,-3.9158e-08,1.58989e-05,30.25,158.52,96.68,4.37488e+06,687500,-9.0909e-08,2.2194e-07,-7.77306e-08,-0.00268955,0.0270727,-0.00136824,0.0305183,3,2527
12,4.26411e-22,2,7998,58.62,-6.76808e-07,1.59734e-05,-4.28766e-08,1.59877e-05,30.625,158.52,96.68,2.43744e+06,593750,-1.26366e-07,2.61374e-07,-8.47271e-08,-0.0034057,0.0255541,-0.00133471,0.0293062,3,2528
12,4.03662e-22,2,7999,58.62,-8.18334e-07,1.61189e-05,-4.04371e-08,1.61397e-05,30.875,158.52,96.68,1.14581e+06,531250,-1.48426e-07,2.78884e-07,-8.12494e-08,-0.0031642,0.0241381,-0.000244079,0.0272906,3,2529
12,3.92288e-22,2,8000,58.62,-9.7366e-07,1.62767e-05,-3.93763e-08,1.63059e-05,31,158.52,96.68,500000,500000,-1.49949e-07,2.76513e-07,-7.86804e-08,-0.00209434,0.0218235,0.000286327,0.0240945,3,2530
12,3.92288e-22,2,8001,58.62,-1.11823e-06,1.64106e-05,-3.85879e-08,1.64487e-05,31,158.52,96.68,500000,500000,-1.34622e-07,2.60909e-07,-7.73507e-08,-0.00109937,0.0211009,0.000454199,0.0227303,3,2531
12,5.0101e-22,2,8002,58.62,-1.2429e-06,1.64991e-05,-3.99522e-08,1.65459e-05,37,158.52,96.68,3.08325e+06,625000,-1.06482e-07,2.39129e-07,-7.99375e-08,-0.00101801,0.0257188,-0.00116062,0.0281478,3,2532
12,7.18453e-22,1,8003,130.6,-1.3312e-06,1.65849e-05,-3.6364e-08,1.66383e-05,49,117.2,-48.36,8.24975e+06,875000,-7.75567e-08,2.27186e-07,-7.2812e-08,5.26732e-05,0.0381138,-0.000701595,0.0394636,2,5469
12,8.27175e-22,1,8004,130.6,-1.39802e-06,1.6669e-05,-3.23921e-08,1.67275e-05,55,117.2,-48.36,1.0833e+07,1e+06,-6.65336e-08,2.29077e-07,-6.49725e-08,0.00175526,0.0456831,0.000927504,0.0450445,2,5470
12,8.27175e-22,1,8005,130.6,-1.46426e-06,1.67166e-05,-3.34369e-08,1.67806e-05,55,117.2,-48.36,1.0833e+07,1e+06,-6.43597e-08,2.26914e-07,-6.67045e-08,0.00201819,0.0453277,0.00016629,0.0451628,2,5471
12,8.27175e-22,1,8006,130.6,-1.52674e-06,1.67485e-05,-3.3261e-08,1.6818e-05,55,117.2,-48.36,1.0833e+07,1e+06,-6.08708e-08,2.22954e-07,-6.653e-08,0.00262625,0.0447399,-4.3883e-07,0.0444584,2,5472
12,8.27175e-22,1,8007,130.6,-1.58601e-06,1.67649e-05,-3.26535e-08,1.68397e-05,55,117.2,-48.36,1.0833e+07,1e+06,-5.76991e-08,2.17978e-07,-6.52829e-08,0.00304812,0.044072,-3.09888e-05,0.0437721,2,5473
12,8.27175e-22,1,8008,130.6,-1.64214e-06,1.67622e-05,-3.14419e-08,1.68425e-05,55,117.2,-48.36,1.0833e+07,1e+06,-5.44527e-08,2.09985e-07,-6.27775e-08,0.00321977,0.0428036,-4.52821e-05,0.0426531,2,5474
12,8.27175e-22,1,8009,130.6,-1.69491e-06,1.67375e-05,-2.9266e-08,1.68231e-05,55,117.2,-48.36,1.0833e+07,1e+06,-5.02897e-08,1.97177e-07,-5.77186e-08,0.00333825,0.0405707,0.000291623,0.0402948,2,5475
12,8.27175e-22,1,8010,130.6,-1.74271e-06,1.66914e-05,-2.53067e-08,1.67822e-05,55,117.2,-48.36,1.0833e+07,1e+06,-4.51397e-08,1.76205e-07,-5.08592e-08,0.00305533,0.0361621,0.000540354,0.035729,2,5476
12,8.27175e-22,1,8011,130.6,-1.78519e-06,1.66404e-05,-2.23566e-08,1.67359e-05,55,117.2,-48.36,1.0833e+07,1e+06,-4.2371e-08,1.59387e-07,-4.57342e-08,0.00246771,0.0321253,0.000741282,0.0314129,2,5477
12,8.27175e-22,1,8012,130.6,-1.82746e-06,1.66047e-05,-2.20922e-08,1.6705e-05,55,117.2,-48.36,1.0833e+07,1e+06,-4.43577e-08,1.55058e-07,-4.42641e-08,0.00157998,0.0304922,0.000860197,0.0296843,2,5478
12,7.99741e-22,1,8013,130.6,-1.87391e-06,1.6584e-05,-2.17594e-08,1.66896e-05,54.4375,117.2,-48.36,1.01872e+07,968750,-5.13331e-08,1.58616e-07,-4.33064e-08,0.000334244,0.0301747,0.000862711,0.0299727,2,5479
12,7.44873e-22,1,8014,130.6,-1.93012e-06,1.65571e-05,-1.86289e-08,1.66692e-05,53.3125,117.2,-48.36,8.89556e+06,906250,-6.15955e-08,1.57992e-07,-3.6938e-08,-0.0013711,0.0280536,0.00143808,0.0287007,2,5480
12,7.13425e-22,1,8015,130.6,-1.9971e-06,1.65326e-05,-1.6859e-08,1.66527e-05,53.1875,117.2,-48.36,8.24975e+06,875000,-6.8462e-08,1.42429e-07,-3.31825e-08,-0.00411331,0.0223666,0.000353653,0.0252416,2,5481
12,6.13701e-22,1,8016,130.6,-2.06705e-06,1.65514e-05,-1.44717e-08,1.668e-05,54.625,117.2,-48.36,8.24975e+06,875000,-6.98157e-08,1.4051e-07,-2.93366e-08,-0.00426288,0.0224788,0.000775006,0.0259699,2,5482
12,4.26298e-22,1,8017,61.61,-2.13673e-06,1.66234e-05,-1.59352e-08,1.67602e-05,56.1875,-113.29,-151.66,8.24975e+06,875000,-6.94315e-08,1.58586e-07,-3.25823e-08,-0.00186214,0.0273803,0.000515605,0.0298838,2,5483
12,3.36556e-22,1,8018,61.61,-2.20591e-06,1.67389e-05,-2.16677e-08,1.68836e-05,56.9375,-113.29,-151.66,8.24975e+06,875000,-6.80708e-08,1.87249e-07,-4.27491e-08,0.00101242,0.0347044,-0.00054469,0.0359314,2,5484
12,3.40462e-22,1,8019,61.61,-2.27287e-06,1.68447e-05,-1.98765e-08,1.69973e-05,57.3125,-113.29,-151.66,8.24975e+06,875000,-6.7188e-08,1.95751e-07,-3.94368e-08,0.00174219,0.0385257,0.000946505,0.038265,2,5485
12,3.42414e-22,1,8020,61.61,-2.34029e-06,1.69121e-05,-1.52838e-08,1.70733e-05,57.5,-113.29,-151.66,8.24975e+06,875000,-7.04375e-08,1.81239e-07,-3.17058e-08,-0.000166664,0.0355438,0.00128178,0.0356767,2,5486
12,3.39897e-22,1,8021,61.61,-2.41374e-06,1.69853e-05,-1.73867e-08,1.71559e-05,58.1875,-113.29,-151.66,6.95812e+06,812500,-7.91354e-08,1.83025e-07,-3.44341e-08,-0.00224546,0.0339215,0.00040785,0.0361171,2,5487
12,3.34381e-22,2,8022,110.23,-2.49856e-06,1.70584e-05,-2.15108e-08,1.72404e-05,59.75,164.69,-25.3,3.72906e+06,656250,-9.1709e-08,1.87599e-07,-4.23436e-08,-0.00471268,0.0292004,-0.000605049,0.0337892,3,2533
12,3.30898e-22,2,8023,110.23,-2.59716e-06,1.7096e-05,-2.33386e-08,1.72921e-05,60.8125,164.69,-25.3,1.14581e+06,531250,-1.0303e-07,1.96138e-07,-4.74305e-08,-0.00542217,0.0251469,-0.000461505,0.0299673,3,2534
12,3.30416e-22,2,8024,110.23,-2.70462e-06,1.709e-05,-2.66415e-08,1.73027e-05,61,164.69,-25.3,500000,500000,-1.07765e-07,2.1234e-07,-5.29548e-08,-0.00460705,0.0261495,3.50044e-05,0.0299239,3,2535
12,4.41476e-22,2,8025,110.23,-2.81269e-06,1.70543e-05,-2.83797e-08,1.72847e-05,66,164.69,-25.3,3.08325e+06,625000,-1.04252e-07,2.14246e-07,-5.67101e-08,-0.00413633,0.0270393,0.000478373,0.0302648,3,2536
12,6.63597e-22,1,8026,91.26,-2.91312e-06,1.70505e-05,-3.37118e-08,1.72976e-05,76,-49.63,-179.82,8.24975e+06,875000,-9.8127e-08,2.11205e-07,-6.75845e-08,-0.00447691,0.0262453,-0.000102755,0.0294348,2,5488
12,7.74657e-22,1,8027,91.26,-3.00895e-06,1.70741e-05,-3.82521e-08,1.73372e-05,81,-49.63,-179.82,1.0833e+07,1e+06,-9.7249e-08,2.14459e-07,-7.63437e-08,-0.00504804,0.0258127,-0.00050703,0.0289592,2,5489
12,7.74657e-22,1,8028,91.26,-3.10762e-06,1.70755e-05,-3.76263e-08,1.7356e-05,81,-49.63,-179.82,1.0833e+07,1e+06,-1.00229e-07,2.16724e-07,-7.52607e-08,-0.00557945,0.0260848,-6.59372e-05,0.0293697,2,5490
12,7.74657e-22,1,8029,91.26,-3.20941e-06,1.70584e-05,-3.7499e-08,1.73577e-05,81,-49.63,-179.82,1.0833e+07,1e+06,-1.04196e-07,2.18142e-07,-7.49979e-08,-0.00653445,0.025919,-7.77525e-05,0.0298834,2,5491
12,7.47894e-22,1,8030,91.26,-3.31601e-06,1.70227e-05,-3.68513e-08,1.73427e-05,80.5625,-49.63,-179.82,1.01872e+07,968750,-1.076e-07,2.17856e-07,-7.36741e-08,-0.00770856,0.0259778,-0.000301962,0.0309412,2,5492
12,6.40844e-22,1,8031,91.26,-3.4246e-06,1.69689e-05,-3.53034e-08,1.73111e-05,78.8125,-49.63,-179.82,7.60394e+06,843750,-1.03644e-07,2.14735e-07,-7.03739e-08,-0.00788925,0.027507,-0.000641593,0.0328254,2,5493
12,4.80267e-22,2,8032,76.12,-3.5233e-06,1.68932e-05,-3.2756e-08,1.72568e-05,76.1875,38.14,139.31,3.72906e+06,656250,-9.32668e-08,2.12375e-07,-6.53572e-08,-0.0066873,0.0304191,-0.000271999,0.0346769,3,2537
12,3.73216e-22,2,8033,76.12,-3.61114e-06,1.67827e-05,-2.94052e-08,1.71669e-05,74.4375,38.14,139.31,1.14581e+06,531250,-8.65945e-08,2.04706e-07,-5.92523e-08,-0.00618414,0.0307898,0.000252006,0.0343225,3,2538
12,3.46453e-22,2,8034,76.12,-3.69649e-06,1.66393e-05,-2.69501e-08,1.70449e-05,74,38.14,139.31,500000,500000,-8.55528e-08,1.87275e-07,-5.35969e-08,-0.00732044,0.0274218,1.49332e-05,0.0317932,3,2539
12,3.47093e-22,2,8035,76.12,-3.78224e-06,1.64838e-05,-2.28922e-08,1.69122e-05,74.5625,38.14,139.31,500000,500000,-8.77589e-08,1.71501e-07,-4.5655e-08,-0.00846054,0.0241444,0.000236512,0.0296602,3,2540
12,3.48372e-22,2,8036,76.12,-3.872e-06,1.63545e-05,-2.3993e-08,1.68066e-05,75.6875,38.14,139.31,500000,500000,-9.09204e-08,1.73768e-07,-4.82657e-08,-0.00873007,0.023419,-0.000233597,0.0298246,3,2541
12,3.43786e-22,2,8037,76.12,-3.96408e-06,1.6238e-05,-2.29761e-08,1.67149e-05,78.625,38.14,139.31,1.14581e+06,531250,-9.63676e-08,1.9115e-07,-4.63354e-08,-0.00696696,0.0262833,0.000985325,0.0320316,3,2542
12,3.19042e-22,2,8038,70.27,-4.06474e-06,1.61654e-05,-1.92496e-08,1.66686e-05,84.75,157.22,-160.07,3.72906e+06,656250,-1.00512e-07,1.95329e-07,-3.77001e-08,-0.005589,0.0297688,0.000708425,0.0352699,3,2543
12,2.85233e-22,1,8039,118.57,-4.16511e-06,1.61315e-05,-1.51042e-08,1.66606e-05,89.875,73.1,-29.9,6.95812e+06,812500,-9.48011e-08,1.82554e-07,-2.97943e-08,-0.00475767,0.0315108,-0.000207604,0.0360184,2,5494
12,2.70942e-22,1,8040,118.57,-4.25434e-06,1.60962e-05,-1.02057e-08,1.66489e-05,91.25,73.1,-29.9,8.24975e+06,875000,-8.63527e-08,1.74056e-07,-2.15276e-08,-0.00322074,0.0323117,0.00131814,0.0346508,2,5495
12,2.70942e-22,1,8041,118.57,-4.33781e-06,1.6092e-05,-1.21694e-08,1.66664e-05,91.25,73.1,-29.9,8.24975e+06,875000,-7.67753e-08,1.71003e-07,-2.45421e-08,-0.00183401,0.0324071,0.00139568,0.0337058,2,5496
12,2.63797e-22,1,8042,118.57,-4.40789e-06,1.61225e-05,-1.46466e-08,1.67142e-05,91.9375,73.1,-29.9,8.89556e+06,906250,-6.27931e-08,1.68319e-07,-2.92281e-08,3.8019e-05,0.0350387,0.000912018,0.0352821,2,5497
12,2.49506e-22,1,8043,118.57,-4.4634e-06,1.61634e-05,-1.42216e-08,1.67683e-05,93.3125,73.1,-29.9,1.01872e+07,968750,-5.20154e-08,1.58645e-07,-2.79763e-08,0.00128105,0.0367112,0.000525361,0.0360569,2,5498
12,2.42361e-22,1,8044,118.57,-4.51192e-06,1.6199e-05,-1.2405e-08,1.68156e-05,94,73.1,-29.9,1.0833e+07,1e+06,-4.61683e-08,1.47431e-07,-2.4744e-08,0.00181859,0.0354707,0.000640641,0.0342577,2,5499
12,2.42361e-22,1,8045,118.57,-4.55574e-06,1.6254e-05,-1.36897e-08,1.68804e-05,94,73.1,-29.9,1.0833e+07,1e+06,-4.1315e-08,1.45674e-07,-2.75908e-08,0.00218475,0.0354839,0.000385301,0.034323,2,5500
12,2.42361e-22,1,8046,118.57,-4.59455e-06,1.63333e-05,-1.61129e-08,1.69672e-05,94,73.1,-29.9,1.0833e+07,1e+06,-3.78535e-08,1.536e-07,-3.26097e-08,0.00295837,0.0380729,0.000179487,0.0367353,2,5501
12,2.42361e-22,1,8047,118.57,-4.63144e-06,1.64223e-05,-1.84454e-08,1.70629e-05,94,73.1,-29.9,1.0833e+07,1e+06,-3.56457e-08,1.6255e-07,-3.69207e-08,0.00375765,0.0407658,8.10578e-05,0.0391244,2,5502
12,2.42361e-22,1,8048,118.57,-4.66584e-06,1.65111e-05,-2.03001e-08,1.71577e-05,94,73.1,-29.9,1.0833e+07,1e+06,-3.45768e-08,1.68858e-07,-4.01338e-08,0.00420999,0.0425631,-0.000104485,0.0408525,2,5503
12,2.42361e-22,1,8049,118.57,-4.7006e-06,1.6597e-05,-2.18553e-08,1.72498e-05,94,73.1,-29.9,1.0833e+07,1e+06,-3.89458e-08,1.84754e-07,-4.35829e-08,0.00439761,0.0464672,-0.000192137,0.0447334,2,5504
12,2.42361e-22,1,8050,118.57,-4.74374e-06,1.6667e-05,-2.22907e-08,1.73289e-05,94,73.1,-29.9,1.0833e+07,1e+06,-4.84306e-08,2.03085e-07,-4.46619e-08,0.00414785,0.0504321,-5.71145e-05,0.048644,2,5505
12,2.42361e-22,1,8051,118.57,-4.79746e-06,1.67106e-05,-2.18963e-08,1.73857e-05,94,73.1,-29.9,1.0833e+07,1e+06,-5.72234e-08,2.14226e-07,-4.38534e-08,0.00369257,0.0523584,3.66545e-05,0.0506331,2,5506
12,2.42361e-22,1,8052,118.57,-4.85818e-06,1.67313e-05,-2.15848e-08,1.74223e-05,94,73.1,-29.9,1.0833e+07,1e+06,-6.24449e-08,2.1963e-07,-4.31673e-08,0.00335489,0.0531306,3.27614e-05,0.0515386,2,5507
12,2.42361e-22,1,8053,118.57,-4.92235e-06,1.67389e-05,-2.14738e-08,1.74476e-05,94,73.1,-29.9,1.0833e+07,1e+06,-6.5198e-08,2.2256e-07,-4.29439e-08,0.00304669,0.0536706,-5.34417e-07,0.0522307,2,5508
12,2.42361e-22,1,8054,118.57,-4.98858e-06,1.67431e-05,-2.13996e-08,1.74704e-05,94,73.1,-29.9,1.0833e+07,1e+06,-6.72048e-08,2.24544e-07,-4.27774e-08,0.00257795,0.0542426,-3.24941e-05,0.0530305,2,5509
12,2.42361e-22,1,8055,118.57,-5.05676e-06,1.67506e-05,-2.12178e-08,1.74973e-05,94,73.1,-29.9,1.0833e+07,1e+06,-6.90258e-08,2.25926e-07,-4.24082e-08,0.00195056,0.0548454,-4.26891e-05,0.0539777,2,5510
12,2.42361e-22,1,8056,118.57,-5.12663e-06,1.67671e-05,-2.07784e-08,1.75333e-05,94,73.1,-29.9,1.0833e+07,1e+06,-6.83161e-08,2.24614e-07,-4.17325e-08,0.0015939,0.0550861,0.000109616,0.0544542,2,5511
12,2.42361e-22,1,8057,118.57,-5.19339e-06,1.67986e-05,-2.0203e-08,1.75831e-05,94,73.1,-29.9,1.0833e+07,1e+06,-6.3554e-08,2.1144e-07,-4.00548e-08,0.00110804,0.0523379,5.80961e-06,0.0522011,2,5512
12,2.58032e-22,1,8058,118.57,-5.25374e-06,1.68483e-05,-1.86747e-08,1.76485e-05,95.6875,73.1,-29.9,8.89556e+06,906250,-7.08889e-08,2.00087e-07,-3.8014e-08,0.000347849,0.0442014,-0.000245245,0.0450728,2,5513
12,2.94598e-22,2,8059,105.68,-5.33517e-06,1.68622e-05,-2.76071e-08,1.76861e-05,99.625,-4.36,162.92,4.37487e+06,687500,-1.00137e-07,2.28468e-07,-5.58217e-08,-0.000423851,0.0330372,0.000230252,0.0343596,3,2544
12,3.20717e-22,2,8060,105.68,-5.45401e-06,1.67681e-05,-4.10339e-08,1.76329e-05,102.438,-4.36,162.92,1.14581e+06,531250,-1.2344e-07,2.59249e-07,-8.02071e-08,-0.0012187,0.0245264,0.000200219,0.025871,3,2545
12,3.25941e-22,2,8061,105.68,-5.58205e-06,1.66085e-05,-3.87624e-08,1.75215e-05,103,-4.36,162.92,500000,500000,-1.18116e-07,2.41575e-07,-7.71583e-08,-0.00098368,0.0201012,0.000236104,0.0210645,3,2546
12,3.37305e-22,2,8062,105.68,-5.69024e-06,1.64588e-05,-3.33633e-08,1.74147e-05,102.438,-4.36,162.92,500000,500000,-8.83703e-08,1.95862e-07,-6.74324e-08,-0.000525241,0.0180505,-0.000780373,0.0202484,3,2547
12,4.43576e-22,2,8063,44.9,-5.75879e-06,1.63591e-05,-3.03249e-08,1.73432e-05,106.375,-43.66,-95.15,3.08325e+06,625000,-4.49786e-08,1.61896e-07,-6.17765e-08,0.000902459,0.0236521,0.000371748,0.0248447,3,2548
12,6.22025e-22,1,8064,9.52002,-5.7802e-06,1.63026e-05,-3.69257e-08,1.7297e-05,115.938,63.66,-15.5,8.24975e+06,875000,-8.12749e-09,1.53536e-07,-7.39995e-08,0.00123884,0.0317349,0.00138239,0.0311286,2,5514
12,7.05568e-22,1,8065,9.52003,-5.77504e-06,1.62681e-05,-4.62925e-08,1.72628e-05,121,63.66,-15.5,1.0833e+07,1e+06,6.9427e-09,1.53555e-07,-9.15374e-08,0.0004521,0.0339734,-0.000241947,0.0339983,2,5515
12,7.05568e-22,1,8066,9.52003,-5.76632e-06,1.62622e-05,-4.53843e-08,1.72543e-05,121,63.66,-15.5,1.0833e+07,1e+06,8.92948e-09,1.52071e-07,-9.09645e-08,0.000875303,0.0339114,-6.99154e-05,0.0335475,2,5516
12,7.05568e-22,1,8067,9.52003,-5.75718e-06,1.62791e-05,-4.45498e-08,1.72672e-05,121,63.66,-15.5,1.0833e+07,1e+06,9.81059e-09,1.48455e-07,-8.91585e-08,0.00101043,0.0332345,1.11318e-05,0.032756,2,5517
12,7.05568e-22,1,8068,9.52003,-5.74669e-06,1.63124e-05,-4.40765e-08,1.72951e-05,121,63.66,-15.5,1.0833e+07,1e+06,1.12308e-08,1.44953e-07,-8.81429e-08,0.00125768,0.0324833,-1.30225e-05,0.0319177,2,5518
12,7.05568e-22,1,8069,9.52003,-5.73472e-06,1.63553e-05,-4.40036e-08,1.73316e-05,121,63.66,-15.5,1.0833e+07,1e+06,1.26149e-08,1.43272e-07,-8.80051e-08,0.00153896,0.0321216,-1.17158e-05,0.0314381,2,5519
12,7.05568e-22,1,8070,9.52003,-5.72146e-06,1.6403e-05,-4.44214e-08,1.73723e-05,121,63.66,-15.5,1.0833e+07,1e+06,1.38867e-08,1.43582e-07,-8.88494e-08,0.00181528,0.0321957,3.408e-06,0.0313804,2,5520
12,7.05568e-22,1,8071,9.52003,-5.70695e-06,1.64522e-05,-4.52862e-08,1.7414e-05,121,63.66,-15.5,1.0833e+07,1e+06,1.52705e-08,1.45411e-07,-9.0586e-08,0.00212001,0.0326028,2.35316e-05,0.0316354,2,5521
12,7.05568e-22,1,8072,9.52003,-5.69092e-06,1.65013e-05,-4.66195e-08,1.74551e-05,121,63.66,-15.5,1.0833e+07,1e+06,1.71096e-08,1.48457e-07,-9.32788e-08,0.00251571,0.0332764,4.08497e-05,0.0321201,2,5522
12,7.05568e-22,1,8073,9.52003,-5.67273e-06,1.65494e-05,-4.88141e-08,1.74947e-05,121,63.66,-15.5,1.0833e+07,1e+06,1.99686e-08,1.52888e-07,-9.7736e-08,0.00306299,0.0342092,-3.49523e-05,0.0328625,2,5523
12,7.05568e-22,1,8074,9.52004,-5.65099e-06,1.65972e-05,-5.23327e-08,1.75329e-05,121,63.66,-15.5,1.0833e+07,1e+06,2.17557e-08,1.59074e-07,-1.03946e-07,0.00317927,0.0353557,-0.000423674,0.0342,2,5524
12,6.41048e-22,1,8075,9.52003,-5.62922e-06,1.66396e-05,-4.83433e-08,1.75661e-05,119.875,63.66,-15.5,8.89556e+06,906250,6.9298e-09,1.72783e-07,-9.62923e-08,0.00309104,0.0376258,-0.000308038,0.0366355,2,5525
12,4.90502e-22,2,8076,138.26,-5.63713e-06,1.66705e-05,-3.40507e-08,1.75979e-05,117.25,133.4,6.21,4.37488e+06,687500,-2.88797e-08,1.96521e-07,-6.94065e-08,0.00383326,0.039875,0.000432706,0.0382399,3,2549
12,3.69931e-22,2,8077,138.26,-5.68698e-06,1.66839e-05,-2.41493e-08,1.76266e-05,116.625,133.4,6.21,1.14581e+06,531250,-6.66423e-08,2.15338e-07,-4.86707e-08,0.00271333,0.0392545,0.000378195,0.0382382,3,2550
12,3.22349e-22,2,8078,130.08,-5.77041e-06,1.67314e-05,-1.82492e-08,1.76985e-05,118.75,-119.85,-177.55,500000,500000,-9.75559e-08,2.25611e-07,-3.58106e-08,0.00165008,0.0366555,0.000252706,0.0361129,3,2551
12,3.09311e-22,2,8079,130.08,-5.88209e-06,1.68275e-05,-1.26564e-08,1.78259e-05,120,-119.85,-177.55,500000,500000,-1.16405e-07,2.29262e-07,-2.52416e-08,0.00155141,0.034606,0.000466003,0.0337245,3,2552
12,3.09311e-22,2,8080,130.08,-6.00322e-06,1.69335e-05,-1.04519e-08,1.79661e-05,120,-119.85,-177.55,500000,500000,-1.21294e-07,2.2007e-07,-2.09272e-08,9.71545e-05,0.0323095,0.000133955,0.0322332,3,2553
12,5.74276e-22,1,8081,153.51,1.7357e-12,1.67152e-05,-5.99289e-08,1.67153e-05,29,-89.16,129.77,1.0833e+07,1e+06,-2.24299e-09,2.35082e-07,-1.19753e-07,0.00413026,0.0538106,-0.00188459,0.0532387,2,5526
12,5.07934e-22,1,8082,153.51,-4.48772e-09,1.68043e-05,-5.57834e-08,1.68044e-05,23,-89.16,129.77,8.24975e+06,875000,-3.23477e-08,2.54125e-07,-1.11351e-07,0.00359739,0.0495294,0.000651625,0.0480862,2,5527
12,3.75252e-22,2,8083,71.79,-6.46936e-08,1.67791e-05,-5.26087e-08,1.67793e-05,11,-78.66,171.44,3.08325e+06,625000,-8.82863e-08,2.7559e-07,-1.05798e-07,0.00277541,0.0336024,0.000616014,0.0328097,3,2554
12,3.0891e-22,2,8084,71.79,-1.8106e-07,1.66438e-05,-4.94018e-08,1.66449e-05,5,-78.66,171.44,500000,500000,-1.1136e-07,2.76895e-07,-9.9215e-08,0.00301045,0.0239287,0.000782338,0.022574,3,2555
12,3.75252e-22,2,8085,71.79,-2.87415e-07,1.65162e-05,-4.72842e-08,1.65188e-05,11,-78.66,171.44,3.08325e+06,625000,-7.46304e-08,2.35917e-07,-9.39373e-08,0.0028903,0.027794,-0.000327421,0.0274503,3,2556
12,5.07934e-22,1,8086,153.51,-3.30321e-07,1.64659e-05,-4.28562e-08,1.64692e-05,23,-89.16,129.77,8.24975e+06,875000,-1.75876e-08,1.76221e-07,-8.54138e-08,0.0034463,0.0337967,-0.00127203,0.0338119,2,5528
12,5.74276e-22,1,8087,153.51,-3.2259e-07,1.64551e-05,-3.62581e-08,1.64583e-05,29,-89.16,129.77,1.0833e+07,1e+06,8.16249e-09,1.43376e-07,-7.26217e-08,0.00479107,0.0345952,-0.00026761,0.0333745,2,5529
12,5.74276e-22,1,8088,153.51,-3.13996e-07,1.6415e-05,-3.25476e-08,1.6418e-05,29,-89.16,129.77,1.0833e+07,1e+06,7.23632e-09,1.32129e-07,-6.52176e-08,0.00444364,0.0323343,-2.31595e-05,0.0313183,2,5530
12,5.74276e-22,1,8089,153.51,-3.08117e-07,1.63606e-05,-3.03582e-08,1.63635e-05,29,-89.16,129.77,1.0833e+07,1e+06,4.35123e-09,1.26491e-07,-6.05626e-08,0.00365846,0.0311124,6.63269e-05,0.030447,2,5531
12,5.74276e-22,1,8090,153.51,-3.05294e-07,1.62925e-05,-2.78348e-08,1.62954e-05,29,-89.16,129.77,1.0833e+07,1e+06,1.99237e-09,1.21016e-07,-5.51615e-08,0.00309724,0.0300239,0.000510241,0.0293524,2,5532
12,5.62902e-22,1,8091,153.51,-3.04132e-07,1.62089e-05,-2.49503e-08,1.62118e-05,29.125,-89.16,129.77,1.01872e+07,968750,-1.96599e-09,1.17866e-07,-5.03649e-08,0.00283128,0.0284961,0.000814064,0.0281294,2,5533
12,5.40153e-22,1,8092,153.51,-3.09226e-07,1.61163e-05,-2.59684e-08,1.61193e-05,29.375,-89.16,129.77,8.89556e+06,906250,-1.05135e-08,1.24166e-07,-5.24437e-08,0.00249313,0.0260838,0.000245154,0.0265393,2,5534
12,5.28779e-22,1,8093,153.51,-3.25159e-07,1.60471e-05,-2.95724e-08,1.60504e-05,29.5,-89.16,129.77,8.24975e+06,875000,-1.98004e-08,1.37044e-07,-5.90271e-08,0.00170344,0.0252919,-0.00049578,0.0262617,2,5535
12,5.0603e-22,1,8094,153.51,-3.48826e-07,1.60211e-05,-3.21154e-08,1.60249e-05,29.75,-89.16,129.77,6.95812e+06,812500,-3.6255e-08,1.60108e-07,-6.50259e-08,0.000823856,0.0266589,-0.000706573,0.0281973,2,5536
12,4.60533e-22,2,8095,58.62,-3.97669e-07,1.60107e-05,-3.86835e-08,1.60157e-05,30.25,158.52,96.68,4.37488e+06,687500,-6.28885e-08,1.97993e-07,-7.74024e-08,0.000740958,0.0254899,-0.00114262,0.0272067,3,2557
12,4.37785e-22,2,8096,58.62,-4.74603e-07,1.60126e-05,-4.61459e-08,1.60197e-05,30.5,158.52,96.68,3.08325e+06,625000,-8.26815e-08,2.30499e-07,-9.11333e-08,0.000561323,0.0246308,-0.00191897,0.0264942,3,2558
12,4.26411e-22,2,8097,58.62,-5.63032e-07,1.60604e-05,-4.70052e-08,1.60703e-05,30.625,158.52,96.68,2.43744e+06,593750,-1.01064e-07,2.50846e-07,-9.33471e-08,-0.000298433,0.0254173,-0.00167895,0.0275358,3,2559
12,4.03662e-22,2,8098,58.62,-6.76732e-07,1.61524e-05,-4.61255e-08,1.61667e-05,30.875,158.52,96.68,1.14581e+06,531250,-1.26253e-07,2.76604e-07,-9.28914e-08,-0.000156666,0.0246785,-0.000375289,0.0255776,3,2560
12,3.92288e-22,2,8099,58.62,-8.15539e-07,1.62682e-05,-4.59424e-08,1.62887e-05,31,158.52,96.68,500000,500000,-1.38553e-07,2.90408e-07,-9.2232e-08,0.000449193,0.0239989,0.000474325,0.0238427,3,2561
12,3.92288e-22,2,8100,58.62,-9.53838e-07,1.64041e-05,-4.3953e-08,1.64319e-05,31,158.52,96.68,500000,500000,-1.32956e-07,2.777e-07,-8.74226e-08,0.000552362,0.0230661,0.000342053,0.0232916,3,2562
12,3.92288e-22,2,8101,58.62,-1.08145e-06,1.65451e-05,-4.18896e-08,1.65804e-05,31,158.52,96.68,500000,500000,-1.22572e-07,2.62112e-07,-8.46444e-08,0.000965259,0.0219791,1.99208e-06,0.0225408,3,2563
12,3.92288e-22,2,8102,58.62,-1.19898e-06,1.66678e-05,-4.40641e-08,1.67109e-05,31,158.52,96.68,500000,500000,-1.11585e-07,2.56657e-07,-8.84373e-08,0.00193255,0.0219514,-0.000210548,0.0221483,3,2564
12,5.0101e-22,2,8103,58.62,-1.30462e-06,1.67458e-05,-4.80323e-08,1.67967e-05,37,158.52,96.68,3.08325e+06,625000,-9.17771e-08,2.53013e-07,-9.44668e-08,0.00247504,0.0290679,-0.00173593,0.0301224,3,2565
12,7.18453e-22,1,8104,130.6,-1.38254e-06,1.68195e-05,-4.10595e-08,1.68763e-05,49,117.2,-48.36,8.24975e+06,875000,-6.53873e-08,2.37573e-07,-8.20279e-08,0.00385028,0.0410457,-0.00122615,0.0411692,2,5537
12,8.27175e-22,1,8105,130.6,-1.4354e-06,1.6896e-05,-3.36489e-08,1.69569e-05,55,117.2,-48.36,1.0833e+07,1e+06,-5.08108e-08,2.23359e-07,-6.81391e-08,0.00560713,0.0457795,0.000368491,0.0439345,2,5538
12,8.27175e-22,1,8106,130.6,-1.48416e-06,1.69403e-05,-3.42729e-08,1.70052e-05,55,117.2,-48.36,1.0833e+07,1e+06,-4.86517e-08,2.20867e-07,-6.85612e-08,0.00591119,0.0454271,4.26307e-05,0.0437674,2,5539
12,8.27175e-22,1,8107,130.6,-1.5327e-06,1.69696e-05,-3.40044e-08,1.70387e-05,55,117.2,-48.36,1.0833e+07,1e+06,-4.76783e-08,2.19373e-07,-6.80019e-08,0.00604068,0.0452943,6.54168e-05,0.0436698,2,5540
12,8.27175e-22,1,8108,130.6,-1.57951e-06,1.69813e-05,-3.32737e-08,1.70546e-05,55,117.2,-48.36,1.0833e+07,1e+06,-4.46722e-08,2.14832e-07,-6.65016e-08,0.00646582,0.0448033,0.000113734,0.0432249,2,5541
12,8.27175e-22,1,8109,130.6,-1.62204e-06,1.69702e-05,-3.19979e-08,1.70476e-05,55,117.2,-48.36,1.0833e+07,1e+06,-3.84194e-08,2.05316e-07,-6.32669e-08,0.00743478,0.0435673,0.000366716,0.0417867,2,5542
12,7.95511e-22,1,8110,130.6,-1.65635e-06,1.69322e-05,-3.03497e-08,1.70131e-05,54.5625,117.2,-48.36,1.01872e+07,968750,-2.98081e-08,1.93349e-07,-6.0551e-08,0.00862973,0.0408557,0.000944367,0.0387399,2,5543
12,7.32182e-22,1,8111,130.6,-1.68166e-06,1.68631e-05,-3.22305e-08,1.69468e-05,53.6875,117.2,-48.36,8.89556e+06,906250,-2.72689e-08,1.84056e-07,-6.51545e-08,0.00771346,0.0352127,0.000507672,0.0336301,2,5544
12,7.00518e-22,1,8112,130.6,-1.71089e-06,1.67961e-05,-3.37989e-08,1.6883e-05,53.25,117.2,-48.36,8.24975e+06,875000,-3.6349e-08,1.82077e-07,-6.79144e-08,0.0049124,0.0310495,-4.27344e-06,0.0301043,2,5545
12,7.00518e-22,1,8113,130.6,-1.75436e-06,1.67591e-05,-3.15048e-08,1.68507e-05,53.25,117.2,-48.36,8.24975e+06,875000,-4.97665e-08,1.83078e-07,-6.32617e-08,0.00214015,0.0299444,0.000263294,0.0295592,2,5546
12,6.49881e-22,1,8114,130.6,-1.81042e-06,1.67461e-05,-2.79989e-08,1.68437e-05,52,117.2,-48.36,6.95812e+06,812500,-6.76355e-08,1.85445e-07,-5.63585e-08,-0.000456109,0.0290413,-0.00019918,0.030561,2,5547
12,5.48606e-22,2,8115,112.33,-1.88963e-06,1.67286e-05,-2.17808e-08,1.6835e-05,49.5,149.47,-20.61,4.37488e+06,687500,-8.85013e-08,1.92306e-07,-4.31753e-08,-0.00146847,0.0272781,0.00108044,0.0287559,3,2566
12,4.85924e-22,2,8116,112.33,-1.98743e-06,1.6693e-05,-1.95294e-08,1.68109e-05,49.5625,149.47,-20.61,3.08325e+06,625000,-9.63187e-08,1.85264e-07,-3.95217e-08,-0.0026226,0.0225179,0.000896845,0.0246439,3,2567
12,4.3127e-22,2,8117,103.38,-2.08227e-06,1.67135e-05,-2.75048e-08,1.68427e-05,52.375,31.45,-165.02,3.08325e+06,625000,-9.11702e-08,1.90564e-07,-5.57593e-08,-0.00247751,0.0211661,-0.000568225,0.0243682,3,2568
12,3.58096e-22,2,8118,103.38,-2.16977e-06,1.68099e-05,-3.98092e-08,1.69494e-05,54.0625,31.45,-165.02,3.08325e+06,625000,-8.57835e-08,2.19125e-07,-7.90216e-08,-6.63023e-05,0.0242665,-0.00152167,0.0266226,3,2569
12,3.33389e-22,2,8119,103.38,-2.25383e-06,1.69576e-05,-4.55754e-08,1.71068e-05,54.8125,31.45,-165.02,3.08325e+06,625000,-8.0981e-08,2.47751e-07,-8.97754e-08,0.00281024,0.0319413,-0.00210217,0.03367,3,2570
12,3.45105e-22,2,8120,69.84,-2.33173e-06,1.70689e-05,-4.10243e-08,1.72274e-05,55.9375,21.26,155.3,3.08325e+06,625000,-7.71135e-08,2.50394e-07,-8.13189e-08,0.00301479,0.036873,-0.00049555,0.0375657,3,2571
12,3.50963e-22,2,8121,69.84,-2.40806e-06,1.71173e-05,-3.43674e-08,1.72859e-05,56.5,21.26,155.3,3.08325e+06,625000,-8.13085e-08,2.32465e-07,-6.92664e-08,0.000242123,0.0344617,0.000271365,0.0355661,3,2572
12,3.45826e-22,2,8122,69.84,-2.49435e-06,1.71877e-05,-3.18329e-08,1.73678e-05,57.625,21.26,155.3,2.43744e+06,593750,-8.90004e-08,2.19832e-07,-6.38695e-08,-0.00228902,0.0312284,-0.000478957,0.0343026,3,2573
12,3.35553e-22,2,8123,110.23,-2.58606e-06,1.72602e-05,-3.12497e-08,1.74529e-05,59.875,164.69,-25.3,1.14581e+06,531250,-8.95732e-08,2.07682e-07,-6.28931e-08,-0.00338278,0.0273439,-0.000705068,0.0310847,3,2574
12,3.30416e-22,2,8124,110.23,-2.67349e-06,1.72997e-05,-3.20544e-08,1.75051e-05,61,164.69,-25.3,500000,500000,-8.49982e-08,2.04057e-07,-6.41789e-08,-0.00255426,0.0257127,-0.000218715,0.0284223,3,2575
12,3.30416e-22,2,8125,110.23,-2.75606e-06,1.73019e-05,-3.39445e-08,1.75201e-05,61,164.69,-25.3,500000,500000,-8.35353e-08,2.08785e-07,-6.80123e-08,-0.00211098,0.0262412,-0.000204968,0.0284554,3,2576
12,4.41476e-22,2,8126,110.23,-2.84056e-06,1.72711e-05,-3.44655e-08,1.75032e-05,66,164.69,-25.3,3.08325e+06,625000,-8.59356e-08,2.16385e-07,-6.91138e-08,-0.00158387,0.0281458,0.000303424,0.0299528,3,2577
12,6.63597e-22,1,8127,91.26,-2.92793e-06,1.72651e-05,-3.73967e-08,1.75116e-05,76,-49.63,-179.82,8.24975e+06,875000,-8.67639e-08,2.16029e-07,-7.42517e-08,-0.00167858,0.0279059,-0.000218204,0.0295804,2,5548
12,7.74657e-22,1,8128,91.26,-3.01409e-06,1.72878e-05,-3.95194e-08,1.75486e-05,81,-49.63,-179.82,1.0833e+07,1e+06,-8.60971e-08,2.12819e-07,-7.89798e-08,-0.00217821,0.0265727,-0.000728873,0.0281618,2,5549
12,7.74657e-22,1,8129,91.26,-3.10012e-06,1.72907e-05,-3.83286e-08,1.75664e-05,81,-49.63,-179.82,1.0833e+07,1e+06,-8.70726e-08,2.1291e-07,-7.70202e-08,-0.00235844,0.0267345,-0.000177724,0.0281362,2,5550
12,7.74657e-22,1,8130,91.26,-3.18824e-06,1.72756e-05,-3.81602e-08,1.75673e-05,81,-49.63,-179.82,1.0833e+07,1e+06,-8.96584e-08,2.12883e-07,-7.63428e-08,-0.003083,0.0264758,-0.000153483,0.0282643,2,5551
12,7.74657e-22,1,8131,91.26,-3.27944e-06,1.72424e-05,-3.80108e-08,1.75515e-05,81,-49.63,-179.82,1.0833e+07,1e+06,-9.46181e-08,2.15637e-07,-7.58883e-08,-0.00412138,0.0265077,-1.493e-05,0.0289047,2,5552
12,7.47894e-22,1,8132,91.26,-3.37747e-06,1.71876e-05,-3.71876e-08,1.75164e-05,80.5625,-49.63,-179.82,1.01872e+07,968750,-9.97977e-08,2.16926e-07,-7.45967e-08,-0.00562609,0.0266992,-0.000170757,0.0301429,2,5553
12,6.10994e-22,1,8133,91.26,-3.47904e-06,1.71102e-05,-3.50118e-08,1.74603e-05,78.25,-49.63,-179.82,7.60394e+06,843750,-9.65159e-08,2.13318e-07,-6.96897e-08,-0.00632595,0.0288423,-0.000577408,0.0330785,2,5554
12,4.1748e-22,2,8134,76.12,-3.5705e-06,1.69903e-05,-3.0666e-08,1.73614e-05,74.9375,38.14,139.31,4.37488e+06,687500,-8.70269e-08,2.02368e-07,-6.09952e-08,-0.00607505,0.0309378,-0.000913556,0.0352922,3,2578
12,3.37832e-22,2,8135,76.12,-3.65309e-06,1.68244e-05,-2.54818e-08,1.72165e-05,74.1875,38.14,139.31,2.43744e+06,593750,-8.29748e-08,1.82463e-07,-5.06984e-08,-0.00648305,0.0283915,-0.000896484,0.033245,3,2579
12,3.46565e-22,2,8136,76.12,-3.73645e-06,1.66551e-05,-2.08749e-08,1.70691e-05,76.6875,38.14,139.31,1.14581e+06,531250,-8.72718e-08,1.79956e-07,-4.24461e-08,-0.00577075,0.0260809,0.000930256,0.0305552,3,2580
12,3.5285e-22,2,8137,70.27,-3.82763e-06,1.65355e-05,-2.48712e-08,1.69727e-05,79.625,157.22,-160.07,500000,500000,-9.40425e-08,1.9793e-07,-5.0991e-08,-0.00424664,0.0256369,0.000720597,0.0297255,3,2581
12,3.54769e-22,2,8138,70.27,-3.92454e-06,1.6449e-05,-3.12035e-08,1.69107e-05,81.3125,157.22,-160.07,500000,500000,-1.01063e-07,2.23969e-07,-6.16491e-08,-0.00233408,0.0275756,0.000364237,0.0309361,3,2582
12,3.48903e-22,2,8139,70.27,-4.02976e-06,1.63854e-05,-3.16245e-08,1.68737e-05,83.125,157.22,-160.07,1.14581e+06,531250,-1.09295e-07,2.33839e-07,-6.26721e-08,-0.00241549,0.0286134,-0.000229049,0.03233,3,2583
12,3.35252e-22,2,8140,70.27,-4.14313e-06,1.63383e-05,-2.97935e-08,1.68555e-05,85.0625,157.22,-160.07,2.43744e+06,593750,-1.12952e-07,2.30852e-07,-5.97218e-08,-0.00335149,0.0288305,-0.000939266,0.0330288,3,2584
12,3.28106e-22,2,8141,70.27,-4.25566e-06,1.62992e-05,-2.84383e-08,1.68456e-05,85.75,157.22,-160.07,3.08325e+06,625000,-1.12602e-07,2.3549e-07,-5.66986e-08,-0.00263791,0.0305127,8.0571e-05,0.0335678,3,2585
12,3.28106e-22,2,8142,70.27,-4.36833e-06,1.62918e-05,-2.88004e-08,1.68673e-05,85.75,157.22,-160.07,3.08325e+06,625000,-1.09589e-07,2.3485e-07,-5.73357e-08,-0.00199585,0.030576,0.000229163,0.0329664,3,2586
12,3.13815e-22,2,8143,70.27,-4.47484e-06,1.63109e-05,-2.7892e-08,1.69136e-05,87.125,157.22,-160.07,4.37487e+06,687500,-9.61724e-08,2.20894e-07,-5.49625e-08,-0.00170993,0.0327721,-0.000286656,0.0352473,3,2587
12,2.85233e-22,1,8144,118.57,-4.56068e-06,1.63279e-05,-2.19235e-08,1.69529e-05,89.875,73.1,-29.9,6.95812e+06,812500,-7.73021e-08,1.97159e-07,-4.41456e-08,-0.000791575,0.0353494,0.000172036,0.0367797,2,5555
12,2.70942e-22,1,8145,118.57,-4.62944e-06,1.63475e-05,-1.73858e-08,1.69904e-05,91.25,73.1,-29.9,8.24975e+06,875000,-6.54924e-08,1.84578e-07,-3.59211e-08,0.000853644,0.0358434,0.00153412,0.0353326,2,5556
12,2.70942e-22,1,8146,118.57,-4.69166e-06,1.64001e-05,-1.93326e-08,1.7058e-05,91.25,73.1,-29.9,8.24975e+06,875000,-5.51514e-08,1.80601e-07,-3.90027e-08,0.00229367,0.0358308,0.00160012,0.0344883,2,5557
12,2.63797e-22,1,8147,118.57,-4.73975e-06,1.64878e-05,-2.17951e-08,1.71556e-05,91.9375,73.1,-29.9,8.89556e+06,906250,-4.03996e-08,1.77938e-07,-4.35457e-08,0.00435193,0.0389149,0.00110709,0.0368133,2,5558
12,2.49506e-22,1,8148,118.57,-4.77246e-06,1.65853e-05,-2.14581e-08,1.72583e-05,93.3125,73.1,-29.9,1.01872e+07,968750,-2.92744e-08,1.69371e-07,-4.23319e-08,0.0057426,0.04148,0.000650827,0.0387774,2,5559
12,2.42361e-22,1,8149,118.57,-4.7983e-06,1.66777e-05,-2.02293e-08,1.73542e-05,94,73.1,-29.9,1.0833e+07,1e+06,-2.7228e-08,1.64485e-07,-4.04195e-08,0.00575506,0.041823,0.000423757,0.0391222,2,5560
12,2.42361e-22,1,8150,118.57,-4.82692e-06,1.67815e-05,-2.24069e-08,1.74619e-05,94,73.1,-29.9,1.0833e+07,1e+06,-3.42479e-08,1.84384e-07,-4.53366e-08,0.00527162,0.0466848,-7.71966e-06,0.0445344,2,5561
12,2.42361e-22,1,8151,118.57,-4.86679e-06,1.68726e-05,-2.39891e-08,1.75605e-05,94,73.1,-29.9,1.0833e+07,1e+06,-4.50719e-08,2.08497e-07,-4.79589e-08,0.00500546,0.0522153,1.53894e-05,0.0500857,2,5562
12,2.42361e-22,1,8152,118.57,-4.91706e-06,1.69271e-05,-2.37157e-08,1.76268e-05,94,73.1,-29.9,1.0833e+07,1e+06,-5.24105e-08,2.17771e-07,-4.71116e-08,0.0047778,0.0537326,0.000105192,0.0515136,2,5563
12,2.42361e-22,1,8153,118.57,-4.97161e-06,1.69511e-05,-2.30879e-08,1.76651e-05,94,73.1,-29.9,1.0833e+07,1e+06,-5.54278e-08,2.18896e-07,-4.61627e-08,0.00458366,0.053504,6.0406e-05,0.0513497,2,5564
12,2.42361e-22,1,8154,118.57,-5.02792e-06,1.69597e-05,-2.26867e-08,1.76893e-05,94,73.1,-29.9,1.0833e+07,1e+06,-5.67353e-08,2.1785e-07,-4.53591e-08,0.00421663,0.0531523,1.07017e-05,0.0511785,2,5565
12,2.42361e-22,1,8155,118.57,-5.08508e-06,1.69645e-05,-2.23372e-08,1.77102e-05,94,73.1,-29.9,1.0833e+07,1e+06,-5.79677e-08,2.17088e-07,-4.46374e-08,0.00363034,0.0531382,-1.95819e-05,0.0514627,2,5566
12,2.42361e-22,1,8156,118.57,-5.14385e-06,1.69727e-05,-2.18951e-08,1.77351e-05,94,73.1,-29.9,1.0833e+07,1e+06,-5.98206e-08,2.17299e-07,-4.38006e-08,0.00286538,0.0534943,-9.98576e-06,0.0522622,2,5567
12,2.42361e-22,1,8157,118.57,-5.20472e-06,1.69872e-05,-2.12904e-08,1.77667e-05,94,73.1,-29.9,1.0833e+07,1e+06,-6.15098e-08,2.16088e-07,-4.25533e-08,0.00202938,0.0535041,-3.17846e-06,0.0528444,2,5568
12,2.42361e-22,1,8158,118.57,-5.26687e-06,1.70086e-05,-2.01752e-08,1.78054e-05,94,73.1,-29.9,1.0833e+07,1e+06,-6.13792e-08,2.08547e-07,-4.01764e-08,0.00114946,0.0518878,-2.18152e-06,0.0518756,2,5569
12,2.47584e-22,1,8159,118.57,-5.32748e-06,1.70428e-05,-1.73992e-08,1.7856e-05,94.5625,73.1,-29.9,1.01872e+07,968750,-6.18625e-08,1.90602e-07,-3.4063e-08,0.000322397,0.0458866,0.000188157,0.0464085,2,5570
12,2.68479e-22,1,8160,118.57,-5.3906e-06,1.70695e-05,-1.56451e-08,1.79005e-05,96.8125,73.1,-29.9,7.60394e+06,843750,-7.46522e-08,1.85254e-07,-3.2888e-08,-0.000200758,0.0360266,0.000668253,0.0369639,2,5571
12,2.99325e-22,2,8161,105.68,-5.47679e-06,1.70124e-05,-2.46992e-08,1.78723e-05,100.312,-4.36,162.92,3.72906e+06,656250,-9.76765e-08,2.12813e-07,-4.94577e-08,-8.07447e-05,0.0276648,0.00125773,0.0285514,3,2588
12,3.19225e-22,2,8162,105.68,-5.58595e-06,1.68484e-05,-3.44571e-08,1.77503e-05,102.812,-4.36,162.92,1.14581e+06,531250,-1.05487e-07,2.27936e-07,-6.82046e-08,0.000191483,0.0215288,0.00113989,0.0221603,3,2589
12,3.35316e-22,2,8163,105.68,-5.68776e-06,1.66521e-05,-3.86196e-08,1.75967e-05,102.938,-4.36,162.92,500000,500000,-8.75896e-08,2.05275e-07,-7.69767e-08,-0.00033337,0.0186526,-0.00130308,0.0213955,3,2590
12,4.42084e-22,2,8164,44.9,-5.76113e-06,1.65145e-05,-3.34926e-08,1.74906e-05,106.75,-43.66,-95.15,3.08325e+06,625000,-5.33907e-08,1.68134e-07,-6.69222e-08,-0.000719657,0.0230818,-0.000732366,0.0259071,3,2591
12,6.21528e-22,1,8165,9.52002,-5.79454e-06,1.64509e-05,-3.35574e-08,1.74416e-05,116.062,63.66,-15.5,8.24975e+06,875000,-1.91416e-08,1.48303e-07,-6.79644e-08,-0.00131244,0.030149,0.000778808,0.0312291,2,5572
12,7.05568e-22,1,8166,9.52003,-5.79941e-06,1.64199e-05,-4.2333e-08,1.7414e-05,121,63.66,-15.5,1.0833e+07,1e+06,-1.51334e-09,1.48735e-07,-8.3999e-08,-0.00134121,0.0329678,-0.000287144,0.0339,2,5573
12,7.05568e-22,1,8167,9.52003,-5.79757e-06,1.6412e-05,-4.26815e-08,1.74059e-05,121,63.66,-15.5,1.0833e+07,1e+06,2.97168e-09,1.48098e-07,-8.54857e-08,-0.000376757,0.0330034,-0.000117011,0.0332885,2,5574
12,7.05568e-22,1,8168,9.52003,-5.79347e-06,1.64263e-05,-4.25951e-08,1.74181e-05,121,63.66,-15.5,1.0833e+07,1e+06,5.15944e-09,1.46152e-07,-8.51972e-08,6.79698e-05,0.0327018,2.87845e-06,0.0326809,2,5575
12,7.05568e-22,1,8169,9.52003,-5.78725e-06,1.64568e-05,-4.25981e-08,1.74448e-05,121,63.66,-15.5,1.0833e+07,1e+06,7.27853e-09,1.43805e-07,-8.5204e-08,0.000466226,0.0322058,-1.57757e-05,0.0320034,2,5576
12,7.05568e-22,1,8170,9.52003,-5.77891e-06,1.64985e-05,-4.2948e-08,1.74813e-05,121,63.66,-15.5,1.0833e+07,1e+06,9.2963e-09,1.42951e-07,-8.58919e-08,0.000875757,0.0320294,-1.31047e-05,0.0316363,2,5577
12,7.05568e-22,1,8171,9.52003,-5.76866e-06,1.65467e-05,-4.37067e-08,1.75235e-05,121,63.66,-15.5,1.0833e+07,1e+06,1.11761e-08,1.43863e-07,-8.74214e-08,0.00127909,0.0322355,3.4038e-06,0.0316447,2,5578
12,7.05568e-22,1,8172,9.52003,-5.75656e-06,1.65978e-05,-4.48108e-08,1.75678e-05,121,63.66,-15.5,1.0833e+07,1e+06,1.31166e-08,1.45957e-07,-8.96353e-08,0.00170708,0.0326917,2.17519e-05,0.0318887,2,5579
12,7.05568e-22,1,8173,9.52003,-5.74243e-06,1.66499e-05,-4.63011e-08,1.76124e-05,121,63.66,-15.5,1.0833e+07,1e+06,1.54128e-08,1.49014e-07,-9.264e-08,0.00220634,0.0333488,2.93746e-05,0.0323108,2,5580
12,7.05568e-22,1,8174,9.52003,-5.72573e-06,1.67025e-05,-4.86047e-08,1.76568e-05,121,63.66,-15.5,1.0833e+07,1e+06,1.84194e-08,1.53491e-07,-9.72552e-08,0.00279854,0.0342677,-6.00647e-05,0.0330174,2,5581
12,7.05568e-22,1,8175,9.52004,-5.70559e-06,1.6756e-05,-5.19418e-08,1.77009e-05,121,63.66,-15.5,1.0833e+07,1e+06,2.00553e-08,1.59567e-07,-1.03193e-07,0.0029151,0.0354142,-0.000443575,0.0343499,2,5582
12,6.41048e-22,1,8176,9.52003,-5.68562e-06,1.68144e-05,-4.78742e-08,1.77498e-05,119.875,63.66,-15.5,8.89556e+06,906250,5.58295e-09,1.72536e-07,-9.56098e-08,0.00284068,0.0375144,-0.000384475,0.0366468,2,5583
12,4.90502e-22,2,8177,138.26,-5.69442e-06,1.68736e-05,-3.49806e-08,1.78086e-05,117.25,133.4,6.21,4.37488e+06,687500,-2.94213e-08,1.96299e-07,-7.10757e-08,0.00345306,0.0396522,-5.84965e-05,0.0384571,3,2592
12,3.69931e-22,2,8178,138.26,-5.74447e-06,1.69056e-05,-2.51351e-08,1.78549e-05,116.625,133.4,6.21,1.14581e+06,531250,-6.78646e-08,2.20412e-07,-5.03921e-08,0.0027919,0.0402061,0.000200796,0.0392812,3,2593
12,3.22349e-22,2,8179,130.08,-5.83015e-06,1.69594e-05,-1.81627e-08,1.79335e-05,118.75,-119.85,-177.55,500000,500000,-9.96625e-08,2.31004e-07,-3.5856e-08,0.00200548,0.0376387,0.000268687,0.0369085,3,2594
12,3.09311e-22,2,8180,130.08,-5.94379e-06,1.70559e-05,-1.24915e-08,1.80619e-05,120,-119.85,-177.55,500000,500000,-1.16881e-07,2.28299e-07,-2.49411e-08,0.00163205,0.0343075,0.00020815,0.033479,3,2595
12,3.09311e-22,2,8181,130.08,-6.06391e-06,1.71509e-05,-9.92045e-09,1.81913e-05,120,-119.85,-177.55,500000,500000,-1.19861e-07,2.16025e-07,-1.98359e-08,0.000165021,0.0316389,0.000101211,0.0315304,3,2596
12,5.74276e-22,1,8182,153.51,3.66515e-09,1.69533e-05,-6.27895e-08,1.69534e-05,29,-89.16,129.77,1.0833e+07,1e+06,5.06376e-09,2.38804e-07,-1.25571e-07,0.00605112,0.0544898,-0.00190188,0.053155,2,5584
12,5.07934e-22,1,8183,153.51,6.46236e-09,1.70609e-05,-5.89921e-08,1.7061e-05,23,-89.16,129.77,8.24975e+06,875000,-2.38939e-08,2.5653e-07,-1.17602e-07,0.00530784,0.0499642,0.000653478,0.0476514,2,5585
12,3.75252e-22,2,8184,71.79,-4.41226e-08,1.7057e-05,-5.73608e-08,1.70572e-05,11,-78.66,171.44,3.08325e+06,625000,-7.90498e-08,2.80792e-07,-1.14486e-07,0.00415728,0.0346252,0.000654708,0.0330982,3,2597
12,3.0891e-22,2,8185,71.79,-1.51637e-07,1.69226e-05,-5.343e-08,1.69234e-05,5,-78.66,171.44,500000,500000,-1.05371e-07,2.84427e-07,-1.07679e-07,0.00397126,0.0249005,0.000964077,0.0231625,3,2598
12,3.75252e-22,2,8186,71.79,-2.54865e-07,1.67568e-05,-4.96342e-08,1.67588e-05,11,-78.66,171.44,3.08325e+06,625000,-7.19161e-08,2.44996e-07,-9.96913e-08,0.00385973,0.0291891,1.74821e-05,0.0287233,3,2599
12,5.07934e-22,1,8187,153.51,-2.95469e-07,1.66466e-05,-4.36549e-08,1.66493e-05,23,-89.16,129.77,8.24975e+06,875000,-1.46789e-08,1.80553e-07,-8.71059e-08,0.00455787,0.0348941,-0.00089204,0.0346206,2,5586
12,5.74276e-22,1,8188,153.51,-2.84223e-07,1.6599e-05,-3.64318e-08,1.66015e-05,29,-89.16,129.77,1.0833e+07,1e+06,1.18742e-08,1.42449e-07,-7.26882e-08,0.00585063,0.0346466,-3.09859e-05,0.0328551,2,5587
12,5.74276e-22,1,8189,153.51,-2.71721e-07,1.65475e-05,-3.36901e-08,1.65497e-05,29,-89.16,129.77,1.0833e+07,1e+06,1.20852e-08,1.31946e-07,-6.67579e-08,0.00579109,0.0323356,0.000177245,0.0305302,2,5588
12,5.74276e-22,1,8190,153.51,-2.60053e-07,1.64873e-05,-3.13932e-08,1.64894e-05,29,-89.16,129.77,1.0833e+07,1e+06,1.22292e-08,1.26029e-07,-6.23716e-08,0.00582938,0.0312122,0.000575126,0.0291986,2,5589
12,5.62902e-22,1,8191,153.51,-2.47263e-07,1.6413e-05,-2.95382e-08,1.64149e-05,29.125,-89.16,129.77,1.01872e+07,968750,1.0284e-08,1.25954e-07,-5.99693e-08,0.00613689,0.0304363,0.000829633,0.0285936,2,5590
12,5.17405e-22,1,8192,153.51,-2.39485e-07,1.63303e-05,-3.19524e-08,1.63321e-05,29.625,-89.16,129.77,7.60394e+06,843750,-7.05074e-09,1.43218e-07,-6.49195e-08,0.00562137,0.0279137,1.21893e-05,0.0275066,2,5591
12,4.60533e-22,2,8193,58.62,-2.61364e-07,1.62605e-05,-3.95215e-08,1.62626e-05,30.25,158.52,96.68,4.37487e+06,687500,-3.77529e-08,1.80979e-07,-7.8696e-08,0.00459559,0.0245875,-0.000987069,0.0250144,3,2600
12,4.37785e-22,2,8194,58.62,-3.14991e-07,1.62183e-05,-4.59742e-08,1.62215e-05,30.5,158.52,96.68,3.08325e+06,625000,-6.02684e-08,2.13463e-07,-9.10831e-08,0.00350452,0.0238989,-0.00162176,0.024629,3,2601
12,4.26411e-22,2,8195,58.62,-3.81901e-07,1.6217e-05,-4.75966e-08,1.62216e-05,30.625,158.52,96.68,2.43744e+06,593750,-7.64355e-08,2.32339e-07,-9.47289e-08,0.00254591,0.0245358,-0.00154312,0.0255632,3,2602
12,4.03662e-22,2,8196,58.62,-4.67862e-07,1.62471e-05,-4.85101e-08,1.62539e-05,30.875,158.52,96.68,1.14581e+06,531250,-9.67356e-08,2.5551e-07,-9.73106e-08,0.00263494,0.023717,-0.00052249,0.0235515,3,2603
12,3.92288e-22,2,8197,58.62,-5.75372e-07,1.62865e-05,-5.07554e-08,1.62967e-05,31,158.52,96.68,500000,500000,-1.13464e-07,2.80364e-07,-1.01934e-07,0.00293265,0.0239684,0.000255267,0.0226924,3,2604
12,3.92288e-22,2,8198,58.62,-6.94789e-07,1.63477e-05,-5.10089e-08,1.63626e-05,31,158.52,96.68,500000,500000,-1.2226e-07,2.89664e-07,-1.01842e-07,0.00244318,0.0246195,0.000342465,0.0234713,3,2605
12,3.92288e-22,2,8199,58.62,-8.19891e-07,1.6442e-05,-4.90924e-08,1.64625e-05,31,158.52,96.68,500000,500000,-1.26008e-07,2.86321e-07,-9.79736e-08,0.00180304,0.0240249,0.00023031,0.0231827,3,2606
12,3.92288e-22,2,8200,58.62,-9.46804e-07,1.65542e-05,-4.65274e-08,1.65813e-05,31,158.52,96.68,500000,500000,-1.25764e-07,2.78607e-07,-9.31518e-08,0.00141028,0.0233499,0.000190818,0.0228633,3,2607
12,3.92288e-22,2,8201,58.62,-1.07142e-06,1.66743e-05,-4.37311e-08,1.67088e-05,31,158.52,96.68,500000,500000,-1.20577e-07,2.64823e-07,-8.81726e-08,0.0012622,0.0222375,-6.0956e-05,0.0222732,3,2608
12,3.92288e-22,2,8202,58.62,-1.18796e-06,1.6801e-05,-4.32748e-08,1.6843e-05,31,158.52,96.68,500000,500000,-1.12925e-07,2.53773e-07,-8.629e-08,0.00168688,0.021492,-0.000373545,0.0216575,3,2609
12,3.87447e-22,2,8203,58.62,-1.29727e-06,1.69239e-05,-4.40999e-08,1.69736e-05,31.5625,158.52,96.68,1.14581e+06,531250,-9.95759e-08,2.49057e-07,-8.72496e-08,0.00282678,0.0238977,-0.00028899,0.0240311,3,2610
12,4.59305e-22,2,8204,58.62,-1.38711e-06,1.70052e-05,-4.38866e-08,1.70617e-05,37.1875,158.52,96.68,4.37488e+06,687500,-7.09594e-08,2.45475e-07,-8.80039e-08,0.00527136,0.034261,-0.000162658,0.0342382,3,2611
12,6.49568e-22,1,8205,130.6,-1.43919e-06,1.706e-05,-3.95262e-08,1.71207e-05,47.6875,117.2,-48.36,8.89556e+06,906250,-4.17141e-08,2.298e-07,-7.97504e-08,0.00816291,0.0443472,-6.75941e-05,0.042989,2,5592
12,7.95153e-22,1,8206,130.6,-1.47054e-06,1.71157e-05,-3.54026e-08,1.71788e-05,54.0625,117.2,-48.36,1.0833e+07,1e+06,-3.25424e-08,2.14278e-07,-7.05382e-08,0.00941369,0.0456912,1.53357e-05,0.0429941,2,5593
12,8.27175e-22,1,8207,130.6,-1.50427e-06,1.71583e-05,-3.56014e-08,1.72242e-05,55,117.2,-48.36,1.0833e+07,1e+06,-3.50988e-08,2.15605e-07,-7.08036e-08,0.00926941,0.0453075,-0.000197697,0.0425616,2,5594
12,8.27175e-22,1,8208,130.6,-1.54074e-06,1.71873e-05,-3.51122e-08,1.72562e-05,55,117.2,-48.36,1.0833e+07,1e+06,-3.59406e-08,2.17483e-07,-7.05531e-08,0.00918429,0.0459202,-8.73444e-05,0.0433636,2,5595
12,8.27175e-22,1,8209,130.6,-1.57615e-06,1.71945e-05,-3.4185e-08,1.72666e-05,55,117.2,-48.36,1.0833e+07,1e+06,-3.15873e-08,2.13593e-07,-6.76788e-08,0.0101371,0.0460763,0.000457858,0.0433437,2,5596
12,7.95511e-22,1,8210,130.6,-1.60391e-06,1.71728e-05,-3.31379e-08,1.72476e-05,54.5625,117.2,-48.36,1.01872e+07,968750,-2.32423e-08,2.05619e-07,-6.65324e-08,0.011542,0.0443421,0.000898378,0.0416071,2,5597
12,6.68854e-22,1,8211,130.6,-1.62264e-06,1.71242e-05,-3.81416e-08,1.7201e-05,52.8125,117.2,-48.36,7.60394e+06,843750,-2.20462e-08,2.06028e-07,-7.83907e-08,0.0106334,0.03858,0.000688997,0.0367209,2,5598
12,5.10533e-22,2,8212,102.62,-1.648e-06,1.70595e-05,-5.31744e-08,1.7139e-05,50.625,3.44,160.65,4.37488e+06,687500,-3.46786e-08,2.25386e-07,-1.05877e-07,0.00672822,0.0313539,-0.000333701,0.0307662,3,2612
12,4.47205e-22,2,8213,102.62,-1.69199e-06,1.70045e-05,-6.10249e-08,1.70886e-05,49.75,3.44,160.65,3.08325e+06,625000,-5.25216e-08,2.43833e-07,-1.20383e-07,0.00299135,0.0282232,-0.000985779,0.0284717,3,2613
12,4.47205e-22,2,8214,102.62,-1.75305e-06,1.69709e-05,-5.5931e-08,1.70613e-05,49.75,3.44,160.65,3.08325e+06,625000,-6.78254e-08,2.46322e-07,-1.11446e-07,0.000706181,0.0279798,-0.000382123,0.0287002,3,2614
12,4.32462e-22,2,8215,102.62,-1.82765e-06,1.69549e-05,-4.64647e-08,1.70532e-05,48.8125,3.44,160.65,2.43744e+06,593750,-8.44121e-08,2.35476e-07,-9.31023e-08,-0.0012621,0.0273147,-0.00160315,0.030667,3,2615
12,4.02976e-22,2,8216,112.33,-1.92187e-06,1.69417e-05,-3.14871e-08,1.70504e-05,46.9375,149.47,-20.61,1.14581e+06,531250,-1.00253e-07,2.25869e-07,-6.47735e-08,-0.000495009,0.0265199,-0.000433851,0.0285281,3,2616
12,3.72174e-22,2,8217,112.33,-2.02815e-06,1.69031e-05,-2.61733e-08,1.70243e-05,47.75,149.47,-20.61,500000,500000,-1.03505e-07,2.20368e-07,-5.24027e-08,0.00108784,0.0245511,0.00130568,0.0241668,3,2617
12,3.40054e-22,2,8218,103.38,-2.12888e-06,1.69326e-05,-3.82273e-08,1.70659e-05,51.25,31.45,-165.02,500000,500000,-1.0031e-07,2.30946e-07,-7.52837e-08,0.000955576,0.0223773,-0.000195512,0.0231514,3,2618
12,3.23994e-22,2,8219,103.38,-2.22877e-06,1.70616e-05,-4.90911e-08,1.72067e-05,53,31.45,-165.02,500000,500000,-1.03464e-07,2.58818e-07,-9.77714e-08,0.00137866,0.0228375,-0.000146205,0.0229081,3,2619
12,3.31805e-22,2,8220,103.38,-2.33581e-06,1.72344e-05,-4.73842e-08,1.7392e-05,53.75,31.45,-165.02,500000,500000,-1.05454e-07,2.70214e-07,-9.49369e-08,0.00202478,0.0275547,-0.000393345,0.0280039,3,2620
12,3.47427e-22,2,8221,69.84,-2.43968e-06,1.73454e-05,-4.35702e-08,1.75162e-05,55.25,21.26,155.3,500000,500000,-9.95005e-08,2.72216e-07,-8.81437e-08,0.00188593,0.033525,-5.98512e-05,0.0342198,3,2621
12,3.55237e-22,2,8222,69.84,-2.53481e-06,1.73771e-05,-4.41838e-08,1.7561e-05,56,21.26,155.3,500000,500000,-9.1035e-08,2.64255e-07,-8.76778e-08,0.0011828,0.0342975,0.000276495,0.0348949,3,2622
12,3.49032e-22,2,8223,69.84,-2.62175e-06,1.74249e-05,-4.20936e-08,1.76211e-05,57.25,21.26,155.3,500000,500000,-7.8597e-08,2.37249e-07,-8.37223e-08,0.000758888,0.0308137,-0.000252038,0.0319038,3,2623
12,3.36621e-22,2,8224,110.23,-2.692e-06,1.74737e-05,-4.02549e-08,1.76799e-05,59.75,164.69,-25.3,500000,500000,-6.44401e-08,2.13221e-07,-8.0928e-08,0.000562971,0.0279605,-0.000160976,0.0289576,3,2624
12,3.30416e-22,2,8225,110.23,-2.75063e-06,1.75041e-05,-4.03385e-08,1.77189e-05,61,164.69,-25.3,500000,500000,-5.74724e-08,2.03449e-07,-8.07498e-08,0.000641019,0.0267336,-0.000109768,0.027474,3,2625
12,3.30416e-22,2,8226,110.23,-2.80695e-06,1.75075e-05,-4.05568e-08,1.77312e-05,61,164.69,-25.3,500000,500000,-5.79746e-08,2.03781e-07,-8.09197e-08,0.000648221,0.0265626,-8.79758e-05,0.0271457,3,2626
12,4.13711e-22,2,8227,110.23,-2.86658e-06,1.7487e-05,-3.86155e-08,1.77205e-05,64.75,164.69,-25.3,2.43744e+06,593750,-6.50387e-08,2.14362e-07,-7.67782e-08,0.00142232,0.0290932,0.000853696,0.0290168,3,2627
12,6.08067e-22,1,8228,91.26,-2.93702e-06,1.74825e-05,-3.64386e-08,1.77275e-05,73.5,-49.63,-179.82,6.95812e+06,812500,-7.37044e-08,2.15975e-07,-7.35544e-08,0.00117763,0.0295886,0.000915394,0.0293889,2,5599
12,7.46892e-22,1,8229,91.26,-3.01399e-06,1.74997e-05,-3.77698e-08,1.77574e-05,79.75,-49.63,-179.82,1.01872e+07,968750,-7.60906e-08,2.08986e-07,-7.58186e-08,0.000298571,0.0275454,0.000123217,0.0275666,2,5600
12,7.74657e-22,1,8230,91.26,-3.0892e-06,1.75013e-05,-3.81122e-08,1.77719e-05,81,-49.63,-179.82,1.0833e+07,1e+06,-7.45203e-08,2.06694e-07,-7.58328e-08,0.000560984,0.0271483,0.000218905,0.0268029,2,5601
12,7.74657e-22,1,8231,91.26,-3.16303e-06,1.74842e-05,-3.7097e-08,1.7768e-05,81,-49.63,-179.82,1.0833e+07,1e+06,-7.41181e-08,2.03556e-07,-7.45207e-08,0.000340078,0.0266625,0.000219697,0.0263766,2,5602
12,7.44807e-22,1,8232,91.26,-3.23744e-06,1.7454e-05,-3.64604e-08,1.77517e-05,80.4375,-49.63,-179.82,1.0833e+07,1e+06,-7.46883e-08,2.02361e-07,-7.3155e-08,-0.000239693,0.0271185,0.000145493,0.0273629,2,5603
12,6.85107e-22,1,8233,91.26,-3.3124e-06,1.74028e-05,-3.64427e-08,1.77152e-05,79.3125,-49.63,-179.82,1.0833e+07,1e+06,-7.69222e-08,2.00076e-07,-7.20701e-08,-0.00164981,0.0274395,-0.000467843,0.0289037,2,5604
12,5.68795e-22,1,8234,91.26,-3.39129e-06,1.73199e-05,-3.29472e-08,1.76488e-05,77.1875,-49.63,-179.82,1.01872e+07,968750,-7.87272e-08,1.92792e-07,-6.56709e-08,-0.00351561,0.0281745,-0.00101951,0.0311594,2,5605
12,3.9587e-22,1,8235,25.38,-3.46986e-06,1.71875e-05,-2.8587e-08,1.75343e-05,74.0625,118.9,132.01,8.89556e+06,906250,-7.64213e-08,1.87572e-07,-5.74918e-08,-0.00402339,0.0307955,-0.00109682,0.034181,2,5606
12,3.20588e-22,1,8236,25.38,-3.54413e-06,1.70042e-05,-2.43493e-08,1.73696e-05,74.5625,118.9,132.01,6.31231e+06,781250,-7.8245e-08,1.84597e-07,-4.94248e-08,-0.00332296,0.0305904,-0.00071007,0.0339365,2,5607
12,3.43589e-22,2,8237,70.27,-3.62635e-06,1.68437e-05,-2.49912e-08,1.72297e-05,79.25,157.22,-160.07,2.43744e+06,593750,-8.7508e-08,2.01424e-07,-5.00135e-08,-0.00135041,0.0284565,0.000712962,0.0308822,3,2628
12,3.56048e-22,2,8238,70.27,-3.71914e-06,1.67503e-05,-3.21101e-08,1.71583e-05,82.4375,157.22,-160.07,500000,500000,-9.60099e-08,2.24102e-07,-6.37005e-08,-9.37903e-05,0.0268002,0.000209277,0.0285818,3,2629
12,3.56688e-22,2,8239,70.27,-3.81837e-06,1.66859e-05,-3.60304e-08,1.71173e-05,83,157.22,-160.07,500000,500000,-1.02705e-07,2.38104e-07,-7.20315e-08,4.15123e-05,0.0270933,-0.000647007,0.0289716,3,2630
12,3.56688e-22,2,8240,70.27,-3.92455e-06,1.66331e-05,-3.6901e-08,1.70898e-05,83,157.22,-160.07,500000,500000,-1.09291e-07,2.48719e-07,-7.42051e-08,-7.24583e-05,0.0278665,-0.000531086,0.029578,3,2631
12,3.56688e-22,2,8241,70.27,-4.03695e-06,1.65932e-05,-3.83012e-08,1.70773e-05,83,157.22,-160.07,500000,500000,-1.16386e-07,2.58264e-07,-7.66653e-08,-0.00038832,0.0283427,-0.000695114,0.0300984,3,2632
12,3.56688e-22,2,8242,70.27,-4.15732e-06,1.65671e-05,-4.0327e-08,1.70808e-05,83,157.22,-160.07,500000,500000,-1.24134e-07,2.71475e-07,-7.99201e-08,-0.000552234,0.0294576,-0.00072325,0.0311663,3,2633
12,3.56688e-22,2,8243,70.27,-4.28522e-06,1.65617e-05,-4.03489e-08,1.71071e-05,83,157.22,-160.07,500000,500000,-1.29244e-07,2.75385e-07,-8.05781e-08,-0.00110717,0.029373,-0.000860431,0.0313057,3,2634
12,3.49543e-22,2,8244,70.27,-4.41581e-06,1.65643e-05,-3.94368e-08,1.71428e-05,83.6875,157.22,-160.07,1.14581e+06,531250,-1.26001e-07,2.67663e-07,-7.91105e-08,-0.002162,0.0298701,-0.00140263,0.0328016,3,2635
12,3.35252e-22,2,8245,70.27,-4.53722e-06,1.65577e-05,-3.78787e-08,1.71681e-05,85.0625,157.22,-160.07,2.43744e+06,593750,-1.14624e-07,2.61069e-07,-7.60846e-08,-0.00167131,0.0322779,-0.000890868,0.0348036,3,2636
12,3.28106e-22,2,8246,70.27,-4.64506e-06,1.65681e-05,-3.81853e-08,1.7207e-05,85.75,157.22,-160.07,3.08325e+06,625000,-1.04003e-07,2.61031e-07,-7.61071e-08,0.000127306,0.0340304,6.71346e-05,0.0349799,3,2637
12,3.28106e-22,2,8247,70.27,-4.74523e-06,1.66152e-05,-3.91637e-08,1.72796e-05,85.75,157.22,-160.07,3.08325e+06,625000,-9.49147e-08,2.566e-07,-7.78338e-08,0.0013968,0.0339971,0.000254669,0.0340918,3,2638
12,3.13815e-22,2,8248,70.27,-4.83489e-06,1.66892e-05,-3.73349e-08,1.73755e-05,87.125,157.22,-160.07,4.37488e+06,687500,-7.78449e-08,2.39296e-07,-7.38322e-08,0.00219647,0.0366039,-0.000103896,0.0366784,3,2639
12,2.85233e-22,1,8249,118.57,-4.90092e-06,1.6761e-05,-3.03533e-08,1.74629e-05,89.875,73.1,-29.9,6.95812e+06,812500,-5.5501e-08,2.13526e-07,-6.1269e-08,0.00383493,0.0400945,0.000505098,0.0389559,2,5608
12,2.70942e-22,1,8250,118.57,-4.94589e-06,1.68401e-05,-2.67404e-08,1.75514e-05,91.25,73.1,-29.9,8.24975e+06,875000,-3.86505e-08,2.02982e-07,-5.50002e-08,0.0065048,0.0418733,0.00197062,0.0384469,2,5609
12,2.63797e-22,1,8251,118.57,-4.97822e-06,1.69658e-05,-3.05533e-08,1.76811e-05,91.9375,73.1,-29.9,8.89556e+06,906250,-2.8663e-08,2.10543e-07,-6.1171e-08,0.0081047,0.0476708,0.00125711,0.0440519,2,5610
12,2.49506e-22,1,8252,118.57,-5.00322e-06,1.7084e-05,-3.01133e-08,1.78015e-05,93.3125,73.1,-29.9,1.01872e+07,968750,-2.91094e-08,2.18752e-07,-5.99984e-08,0.00862232,0.0544229,0.000437571,0.0508588,2,5611
12,2.42361e-22,1,8253,118.57,-5.03644e-06,1.71462e-05,-2.6946e-08,1.78706e-05,94,73.1,-29.9,1.0833e+07,1e+06,-3.73171e-08,2.18726e-07,-5.36595e-08,0.00778822,0.0552344,0.000302331,0.0517189,2,5612
12,2.42361e-22,1,8254,118.57,-5.07785e-06,1.71691e-05,-2.55448e-08,1.79043e-05,94,73.1,-29.9,1.0833e+07,1e+06,-4.21749e-08,2.15271e-07,-5.0827e-08,0.00678337,0.0536835,0.000141705,0.0505751,2,5613
12,2.42361e-22,1,8255,118.57,-5.12079e-06,1.71746e-05,-2.45013e-08,1.79217e-05,94,73.1,-29.9,1.0833e+07,1e+06,-4.36897e-08,2.11014e-07,-4.90218e-08,0.00607071,0.0525081,6.33829e-05,0.0497485,2,5614
12,2.42361e-22,1,8256,118.57,-5.16523e-06,1.71772e-05,-2.36387e-08,1.7937e-05,94,73.1,-29.9,1.0833e+07,1e+06,-4.55063e-08,2.07556e-07,-4.72545e-08,0.00510323,0.0517885,1.17317e-05,0.0495337,2,5615
12,2.42361e-22,1,8257,118.57,-5.2118e-06,1.71852e-05,-2.29944e-08,1.79582e-05,94,73.1,-29.9,1.0833e+07,1e+06,-4.83856e-08,2.07058e-07,-4.59405e-08,0.0039967,0.0519204,-3.63125e-05,0.0503648,2,5616
12,2.42361e-22,1,8258,118.57,-5.262e-06,1.71993e-05,-2.21997e-08,1.79862e-05,94,73.1,-29.9,1.0833e+07,1e+06,-5.24351e-08,2.08007e-07,-4.43837e-08,0.00283348,0.0523282,-4.6203e-05,0.0515636,2,5617
12,2.42361e-22,1,8259,118.57,-5.31667e-06,1.72157e-05,-2.07401e-08,1.8018e-05,94,73.1,-29.9,1.0833e+07,1e+06,-5.54012e-08,2.04678e-07,-4.15589e-08,0.00183902,0.0515206,3.58478e-05,0.0513471,2,5618
12,2.42361e-22,1,8260,118.57,-5.37281e-06,1.72296e-05,-1.83031e-08,1.80478e-05,94,73.1,-29.9,1.0833e+07,1e+06,-5.44881e-08,1.88728e-07,-3.57388e-08,0.00119312,0.0473406,0.000292885,0.0472468,2,5619
12,2.47584e-22,1,8261,118.57,-5.42565e-06,1.72327e-05,-1.33323e-08,1.80666e-05,94.5625,73.1,-29.9,1.01872e+07,968750,-5.46052e-08,1.63094e-07,-2.58426e-08,0.00078197,0.0389582,0.000834826,0.0387129,2,5620
12,2.72211e-22,1,8262,118.57,-5.48202e-06,1.71938e-05,-1.27007e-08,1.80466e-05,97.75,73.1,-29.9,6.95812e+06,812500,-6.78979e-08,1.65066e-07,-2.80562e-08,0.000820276,0.030136,0.00140334,0.0302943,2,5621
12,3.05793e-22,2,8263,109.29,-5.56144e-06,1.70644e-05,-2.87009e-08,1.79478e-05,102.438,165.44,68.53,2.43744e+06,593750,-9.1525e-08,2.05251e-07,-5.81017e-08,0.000215573,0.0227849,0.00125758,0.023361,3,2640
12,3.2376e-22,2,8264,109.29,-5.66507e-06,1.68694e-05,-4.23144e-08,1.77952e-05,104.312,165.44,68.53,500000,500000,-1.03451e-07,2.31354e-07,-8.25726e-08,-0.00100829,0.0198026,0.00015384,0.0212727,3,2641
12,4.23947e-22,2,8265,109.29,-5.76835e-06,1.66954e-05,-3.70881e-08,1.76638e-05,108.25,165.44,68.53,3.08325e+06,625000,-7.82322e-08,1.99372e-07,-7.42369e-08,-0.00208449,0.023651,-0.000158522,0.026658,3,2642
12,6.12957e-22,1,8266,9.52002,-5.82153e-06,1.65992e-05,-3.31104e-08,1.75905e-05,116.688,63.66,-15.5,8.24975e+06,875000,-3.07994e-08,1.52434e-07,-6.70683e-08,-0.00245567,0.0289565,0.000419673,0.0312875,2,5622
12,7.05568e-22,1,8267,9.52002,-5.82994e-06,1.65655e-05,-3.6991e-08,1.75615e-05,121,63.66,-15.5,1.0833e+07,1e+06,-6.49523e-09,1.41755e-07,-7.38882e-08,-0.00186705,0.0318153,0.000473624,0.0326969,2,5623
12,7.05568e-22,1,8268,9.52003,-5.83452e-06,1.65584e-05,-3.96281e-08,1.75563e-05,121,63.66,-15.5,1.0833e+07,1e+06,-3.14801e-09,1.4486e-07,-7.87056e-08,-0.00143361,0.0324634,0.000202025,0.0331688,2,5624
12,7.05568e-22,1,8269,9.52003,-5.83624e-06,1.65714e-05,-4.03403e-08,1.75691e-05,121,63.66,-15.5,1.0833e+07,1e+06,-3.57301e-10,1.44e-07,-8.08005e-08,-0.00104094,0.0321947,-3.13296e-06,0.0327502,2,5625
12,7.05568e-22,1,8270,9.52003,-5.83524e-06,1.66e-05,-4.0814e-08,1.75958e-05,121,63.66,-15.5,1.0833e+07,1e+06,2.32285e-09,1.42477e-07,-8.16262e-08,-0.000529131,0.0318736,-2.94261e-05,0.0321695,2,5626
12,7.05568e-22,1,8271,9.52003,-5.83159e-06,1.66412e-05,-4.15184e-08,1.76335e-05,121,63.66,-15.5,1.0833e+07,1e+06,4.77665e-09,1.42446e-07,-8.30403e-08,-3.90835e-05,0.031883,-2.90606e-05,0.0319301,2,5627
12,7.05568e-22,1,8272,9.52003,-5.82568e-06,1.66907e-05,-4.25823e-08,1.76782e-05,121,63.66,-15.5,1.0833e+07,1e+06,6.89497e-09,1.44225e-07,-8.51712e-08,0.00040928,0.0322879,-6.4203e-06,0.0321015,2,5628
12,7.05568e-22,1,8273,9.52003,-5.81781e-06,1.67441e-05,-4.38264e-08,1.77261e-05,121,63.66,-15.5,1.0833e+07,1e+06,8.827e-09,1.4672e-07,-8.76587e-08,0.000827303,0.0328245,1.63727e-07,0.0324299,2,5629
12,7.05568e-22,1,8274,9.52003,-5.80803e-06,1.67993e-05,-4.52654e-08,1.7775e-05,121,63.66,-15.5,1.0833e+07,1e+06,1.07135e-08,1.49789e-07,-9.05159e-08,0.00122944,0.0334732,-1.06038e-05,0.032891,2,5630
12,7.05568e-22,1,8275,9.52003,-5.79638e-06,1.68564e-05,-4.7167e-08,1.78252e-05,121,63.66,-15.5,1.0833e+07,1e+06,1.23375e-08,1.54126e-07,-9.42573e-08,0.00152168,0.0343677,-9.71205e-05,0.0336913,2,5631
12,7.05568e-22,1,8276,9.52003,-5.78335e-06,1.69163e-05,-4.94446e-08,1.78777e-05,121,63.66,-15.5,1.0833e+07,1e+06,1.29731e-08,1.60578e-07,-9.93239e-08,0.00147899,0.0356774,-0.000362144,0.0351634,2,5632
12,6.84061e-22,1,8277,9.52003,-5.77043e-06,1.69847e-05,-4.99479e-08,1.79383e-05,120.625,63.66,-15.5,1.01872e+07,968750,9.39159e-09,1.68285e-07,-9.9654e-08,0.00153452,0.0372294,-0.000471576,0.0368616,2,5633
12,5.98035e-22,1,8278,9.52003,-5.76457e-06,1.70631e-05,-4.42108e-08,1.80106e-05,119.125,63.66,-15.5,7.60394e+06,843750,-8.7992e-09,1.80741e-07,-8.7446e-08,0.00178367,0.0385264,-0.000531744,0.0383768,2,5634
12,4.55957e-22,2,8279,138.26,-5.78803e-06,1.71247e-05,-3.12636e-08,1.80765e-05,118.125,133.4,6.21,3.72906e+06,656250,-5.05609e-08,2.0924e-07,-6.3393e-08,0.00161555,0.0404522,6.27333e-05,0.0403945,3,2643
12,3.43856e-22,2,8280,130.08,-5.86569e-06,1.71934e-05,-1.90865e-08,1.81664e-05,119.125,-119.85,-177.55,1.14581e+06,531250,-9.62271e-08,2.30246e-07,-3.8616e-08,0.0017899,0.0384512,0.000238644,0.0379755,3,2644
12,3.09311e-22,2,8281,130.08,-5.98048e-06,1.72841e-05,-1.29605e-08,1.82895e-05,120,-119.85,-177.55,500000,500000,-1.1722e-07,2.28155e-07,-2.53058e-08,0.0016408,0.0342564,-0.000104405,0.0336052,3,2645
12,3.09311e-22,2,8282,130.08,-6.10013e-06,1.73655e-05,-9.98242e-09,1.84058e-05,120,-119.85,-177.55,500000,500000,-1.19202e-07,2.1517e-07,-2.01383e-08,0.000264607,0.0315264,-9.42671e-05,0.0314767,3,2646
12,5.74276e-22,1,8283,153.51,7.28223e-09,1.71928e-05,-6.42466e-08,1.7193e-05,29,-89.16,129.77,1.0833e+07,1e+06,1.32627e-08,2.38898e-07,-1.28514e-07,0.00826665,0.0545917,-0.00156701,0.0522497,2,5635
12,5.07934e-22,1,8284,153.51,1.92431e-08,1.73174e-05,-6.08584e-08,1.73175e-05,23,-89.16,129.77,8.24975e+06,875000,-1.12635e-08,2.51965e-07,-1.21701e-07,0.00757363,0.0493633,0.00081437,0.0459998,2,5636
12,3.75252e-22,2,8285,71.79,-1.52447e-08,1.73407e-05,-6.38915e-08,1.73408e-05,11,-78.66,171.44,3.08325e+06,625000,-6.00579e-08,2.83184e-07,-1.27465e-07,0.00652626,0.0357254,0.000675343,0.0333182,3,2647
12,3.0891e-22,2,8286,71.79,-1.00873e-07,1.72127e-05,-6.42431e-08,1.72131e-05,5,-78.66,171.44,500000,500000,-8.60751e-08,2.94791e-07,-1.28203e-07,0.00602589,0.0268652,0.00076332,0.0249424,3,2648
12,3.58666e-22,2,8287,71.79,-1.87395e-07,1.70062e-05,-5.7226e-08,1.70073e-05,9.5,-78.66,171.44,2.43744e+06,593750,-6.54048e-08,2.64264e-07,-1.14205e-07,0.00588082,0.0303679,0.000778365,0.029355,3,2649
12,4.74764e-22,1,8288,153.51,-2.31682e-07,1.6827e-05,-4.47685e-08,1.68286e-05,20,-89.16,129.77,6.95813e+06,812500,-2.18099e-08,2.01428e-07,-8.96923e-08,0.00571849,0.0356601,0.000762341,0.0345589,2,5637
12,5.5769e-22,1,8289,153.51,-2.31015e-07,1.674e-05,-3.36246e-08,1.67416e-05,27.5,-89.16,129.77,1.01872e+07,968750,6.475e-09,1.48854e-07,-6.7948e-08,0.00611608,0.0351842,0.00151455,0.0326232,2,5638
12,5.74276e-22,1,8290,153.51,-2.18732e-07,1.66789e-05,-2.99593e-08,1.66804e-05,29,-89.16,129.77,1.0833e+07,1e+06,1.42876e-08,1.31546e-07,-6.04825e-08,0.00716066,0.033101,0.00204659,0.0295763,2,5639
12,5.62902e-22,1,8291,153.51,-2.02439e-07,1.66127e-05,-3.06403e-08,1.66139e-05,29.125,-89.16,129.77,1.01872e+07,968750,1.30799e-08,1.335e-07,-6.17781e-08,0.00757665,0.032369,0.00163356,0.0293671,2,5640
12,5.17405e-22,1,8292,153.51,-1.92572e-07,1.65444e-05,-3.58569e-08,1.65456e-05,29.625,-89.16,129.77,7.60394e+06,843750,-7.1424e-09,1.58149e-07,-7.15701e-08,0.00665453,0.030658,0.000145217,0.0298191,2,5641
12,4.49159e-22,2,8293,58.62,-2.16724e-07,1.64953e-05,-4.28303e-08,1.64968e-05,30.375,158.52,96.68,3.72906e+06,656250,-4.62001e-08,1.99425e-07,-8.48447e-08,0.00508675,0.0259541,-0.000837601,0.0261567,3,2650
12,4.03662e-22,2,8294,58.62,-2.84973e-07,1.64783e-05,-4.80927e-08,1.64808e-05,30.875,158.52,96.68,1.14581e+06,531250,-8.00051e-08,2.40144e-07,-9.58824e-08,0.00443322,0.022977,-0.00030418,0.0220308,3,2651
12,3.92288e-22,2,8295,58.62,-3.76735e-07,1.6474e-05,-5.13128e-08,1.64784e-05,31,158.52,96.68,500000,500000,-9.59732e-08,2.66448e-07,-1.03011e-07,0.00447633,0.023482,0.000241978,0.0217511,3,2652
12,3.92288e-22,2,8296,58.62,-4.76919e-07,1.64857e-05,-5.28554e-08,1.64927e-05,31,158.52,96.68,500000,500000,-1.02342e-07,2.76559e-07,-1.05539e-07,0.00426777,0.0242146,0.000224957,0.0225655,3,2653
12,3.92288e-22,2,8297,58.62,-5.81419e-07,1.65217e-05,-5.26691e-08,1.6532e-05,31,158.52,96.68,500000,500000,-1.08013e-07,2.78779e-07,-1.05116e-07,0.00354553,0.0238973,-9.43815e-07,0.0225426,3,2654
12,3.92288e-22,2,8298,58.62,-6.92945e-07,1.65733e-05,-5.19289e-08,1.65879e-05,31,158.52,96.68,500000,500000,-1.16268e-07,2.84481e-07,-1.03934e-07,0.00276048,0.0240547,5.35391e-05,0.0228698,3,2655
12,3.92288e-22,2,8299,58.62,-8.13955e-07,1.66397e-05,-5.0424e-08,1.66597e-05,31,158.52,96.68,500000,500000,-1.2276e-07,2.86207e-07,-1.00836e-07,0.00201855,0.0240385,0.000114484,0.0231228,3,2656
12,3.92288e-22,2,8300,58.62,-9.38465e-07,1.67251e-05,-4.77218e-08,1.67515e-05,31,158.52,96.68,500000,500000,-1.23549e-07,2.77718e-07,-9.54922e-08,0.00139747,0.0231548,-2.50388e-05,0.0226937,3,2657
12,3.92288e-22,2,8301,58.62,-1.06105e-06,1.68254e-05,-4.47161e-08,1.68589e-05,31,158.52,96.68,500000,500000,-1.21516e-07,2.6657e-07,-8.939e-08,0.00106398,0.0222166,-1.30304e-05,0.0220925,3,2658
12,3.92288e-22,2,8302,58.62,-1.1815e-06,1.69337e-05,-4.22786e-08,1.6975e-05,31,158.52,96.68,500000,500000,-1.19151e-07,2.57179e-07,-8.43677e-08,0.00094689,0.0214665,1.65378e-05,0.0216314,3,2659
12,3.87447e-22,2,8303,58.62,-1.29935e-06,1.70526e-05,-3.89118e-08,1.71021e-05,31.5625,158.52,96.68,1.14581e+06,531250,-1.09384e-07,2.43516e-07,-7.76248e-08,0.0012732,0.0224673,0.000216078,0.022812,3,2660
12,3.68081e-22,2,8304,58.62,-1.40027e-06,1.71659e-05,-3.59471e-08,1.7223e-05,33.8125,158.52,96.68,3.72906e+06,656250,-8.01974e-08,2.25498e-07,-7.21927e-08,0.00301987,0.0290701,0.000655149,0.0294483,3,2661
12,3.71055e-22,1,8305,151.34,-1.45975e-06,1.72368e-05,-3.67136e-08,1.72985e-05,38.125,-67.01,136.63,7.60394e+06,843750,-4.19845e-08,2.15072e-07,-7.43725e-08,0.00620581,0.0394057,0.00115305,0.0388317,2,5642
12,4.79777e-22,1,8306,151.34,-1.48423e-06,1.72791e-05,-3.82818e-08,1.73428e-05,44.125,-67.01,136.63,1.01872e+07,968750,-2.19343e-08,2.09149e-07,-7.58653e-08,0.00855574,0.0452705,0.000682818,0.0438208,2,5643
12,6.35044e-22,1,8307,130.6,-1.50362e-06,1.73246e-05,-3.51769e-08,1.73897e-05,49.375,117.2,-48.36,1.0833e+07,1e+06,-2.0825e-08,2.05099e-07,-7.02415e-08,0.00989369,0.0458023,0.000829481,0.0431994,2,5644
12,7.3111e-22,1,8308,130.6,-1.52588e-06,1.73715e-05,-3.48186e-08,1.74384e-05,52.1875,117.2,-48.36,1.0833e+07,1e+06,-2.3735e-08,2.09632e-07,-7.00719e-08,0.0107541,0.0460201,0.000639833,0.0428391,2,5645
12,7.95153e-22,1,8309,130.6,-1.55109e-06,1.74046e-05,-3.7171e-08,1.74736e-05,54.0625,117.2,-48.36,1.0833e+07,1e+06,-2.53975e-08,2.17334e-07,-7.31201e-08,0.0116783,0.0472583,-3.94002e-05,0.0442607,2,5646
12,7.95511e-22,1,8310,130.6,-1.57668e-06,1.74085e-05,-3.64792e-08,1.74797e-05,54.5625,117.2,-48.36,1.01872e+07,968750,-2.42156e-08,2.22248e-07,-7.32525e-08,0.0128065,0.0475856,0.00074296,0.0444599,2,5647
12,6.68854e-22,1,8311,130.6,-1.59952e-06,1.73815e-05,-4.16216e-08,1.7455e-05,52.8125,117.2,-48.36,7.60394e+06,843750,-2.98233e-08,2.29196e-07,-8.53813e-08,0.0107339,0.0425343,0.000600957,0.0410693,2,5648
12,4.78869e-22,2,8312,102.62,-1.63633e-06,1.73443e-05,-5.71851e-08,1.74214e-05,50.1875,3.44,160.65,3.72906e+06,656250,-4.7743e-08,2.46828e-07,-1.14295e-07,0.00519115,0.0330239,-0.000398042,0.0334164,3,2662
12,3.52212e-22,2,8313,102.62,-1.69501e-06,1.73139e-05,-7.24177e-08,1.73968e-05,48.4375,3.44,160.65,1.14581e+06,531250,-6.33537e-08,2.71432e-07,-1.43557e-07,0.00103423,0.0271352,-0.000848002,0.0279481,3,2663
12,3.20548e-22,2,8314,102.62,-1.76303e-06,1.72838e-05,-7.73699e-08,1.73736e-05,48,3.44,160.65,500000,500000,-6.98541e-08,2.87109e-07,-1.5435e-07,0.00021246,0.0266524,-0.00057039,0.0271323,3,2664
12,3.20548e-22,2,8315,102.62,-1.83471e-06,1.72518e-05,-7.36279e-08,1.73492e-05,48,3.44,160.65,500000,500000,-7.28494e-08,2.88456e-07,-1.47164e-07,0.000785582,0.0274311,0.000392512,0.0271937,3,2665
12,3.33239e-22,2,8316,102.62,-1.90873e-06,1.7217e-05,-6.56826e-08,1.73226e-05,47.625,3.44,160.65,500000,500000,-7.79165e-08,2.74579e-07,-1.30138e-07,0.00096467,0.0280375,-0.00119482,0.0298777,3,2666
12,3.62851e-22,2,8317,112.33,-1.99055e-06,1.71803e-05,-4.80436e-08,1.72953e-05,46.75,149.47,-20.61,500000,500000,-8.92865e-08,2.52545e-07,-9.6064e-08,0.00146533,0.0282213,-0.00159899,0.0304202,3,2667
12,3.67943e-22,2,8318,112.33,-2.08731e-06,1.71337e-05,-3.13708e-08,1.72604e-05,47.875,149.47,-20.61,500000,500000,-1.01202e-07,2.39683e-07,-6.53068e-08,0.00214469,0.0272917,0.00115034,0.027069,3,2668
12,3.40054e-22,2,8319,103.38,-2.19295e-06,1.71754e-05,-3.87584e-08,1.73148e-05,51.25,31.45,-165.02,500000,500000,-1.09412e-07,2.50124e-07,-7.72992e-08,0.000957524,0.0245466,0.0010026,0.0246543,3,2669
12,3.23994e-22,2,8320,103.38,-2.30613e-06,1.73275e-05,-4.88045e-08,1.74804e-05,53,31.45,-165.02,500000,500000,-1.17082e-07,2.67891e-07,-9.60587e-08,-0.000236324,0.0229357,0.000186092,0.0234524,3,2670
12,3.29852e-22,2,8321,103.38,-2.42712e-06,1.7498e-05,-4.35343e-08,1.76656e-05,53.5625,31.45,-165.02,500000,500000,-1.1736e-07,2.578e-07,-8.8018e-08,-0.000959635,0.0239525,-0.00108039,0.0259789,3,2671
12,3.43521e-22,2,8322,69.84,-2.54085e-06,1.76133e-05,-4.302e-08,1.77957e-05,54.875,21.26,155.3,500000,500000,-1.04744e-07,2.66082e-07,-8.64612e-08,0.000660961,0.0314448,-0.000807273,0.0333365,3,2672
12,3.53285e-22,2,8323,69.84,-2.6366e-06,1.76458e-05,-4.54405e-08,1.78418e-05,55.8125,21.26,155.3,500000,500000,-8.62274e-08,2.69333e-07,-9.03e-08,0.00247031,0.0356408,0.000681791,0.0357863,3,2673
12,3.49032e-22,2,8324,69.84,-2.7133e-06,1.76622e-05,-4.38494e-08,1.78694e-05,57.25,21.26,155.3,500000,500000,-6.66988e-08,2.35314e-07,-8.78688e-08,0.00205589,0.0314234,0.00027263,0.0316356,3,2674
12,3.36621e-22,2,8325,110.23,-2.77e-06,1.76866e-05,-4.4529e-08,1.79023e-05,59.75,164.69,-25.3,500000,500000,-5.11503e-08,2.13645e-07,-8.89992e-08,0.00196592,0.0288094,-5.41336e-05,0.0291334,3,2675
12,3.30416e-22,2,8326,110.23,-2.8156e-06,1.77066e-05,-4.43204e-08,1.79291e-05,61,164.69,-25.3,500000,500000,-4.54558e-08,2.03521e-07,-8.83727e-08,0.00193997,0.0272835,-9.20567e-05,0.0273961,3,2676
12,3.30416e-22,2,8327,110.23,-2.86091e-06,1.77095e-05,-4.27137e-08,1.79391e-05,61,164.69,-25.3,500000,500000,-4.76742e-08,2.01828e-07,-8.53836e-08,0.00192409,0.0267645,5.72477e-05,0.0265537,3,2677
12,3.56096e-22,2,8328,110.23,-2.91095e-06,1.76998e-05,-3.97076e-08,1.79377e-05,62.9375,164.69,-25.3,1.79163e+06,562500,-5.1185e-08,2.06935e-07,-7.96193e-08,0.00279504,0.0294419,0.000324355,0.0291043,3,2678
12,4.62987e-22,2,8329,110.23,-2.96328e-06,1.7697e-05,-3.74429e-08,1.79435e-05,69.3125,164.69,-25.3,5.6665e+06,750000,-5.27614e-08,2.02877e-07,-7.4987e-08,0.00321382,0.0309875,-0.000237809,0.0310855,3,2679
12,5.99727e-22,1,8330,91.26,-3.01648e-06,1.77058e-05,-3.75851e-08,1.79609e-05,76.25,-49.63,-179.82,9.54138e+06,937500,-5.44218e-08,1.91949e-07,-7.51147e-08,0.00250837,0.0287738,-0.00111322,0.0290743,2,5649
12,6.55258e-22,1,8331,91.26,-3.07213e-06,1.77041e-05,-3.68312e-08,1.79687e-05,78.75,-49.63,-179.82,1.0833e+07,1e+06,-5.66984e-08,1.8714e-07,-7.35051e-08,0.0019965,0.027324,-0.00109715,0.0273924,2,5650
12,6.55258e-22,1,8332,91.26,-3.12987e-06,1.76827e-05,-3.54722e-08,1.79576e-05,78.75,-49.63,-179.82,1.0833e+07,1e+06,-5.91781e-08,1.83777e-07,-7.05384e-08,0.00114095,0.0266056,-0.00094877,0.0268913,2,5651
12,5.95558e-22,1,8333,91.26,-3.19048e-06,1.76471e-05,-3.22379e-08,1.79332e-05,77.625,-49.63,-179.82,1.0833e+07,1e+06,-5.89795e-08,1.77409e-07,-6.44025e-08,0.00035438,0.02697,-0.00054327,0.0276345,2,5652
12,4.76158e-22,1,8334,25.38,-3.24783e-06,1.75878e-05,-2.90412e-08,1.78851e-05,75.375,118.9,132.01,1.0833e+07,1e+06,-5.57033e-08,1.68951e-07,-5.8308e-08,-0.000186373,0.027798,-0.000378207,0.0286772,2,5653
12,3.86608e-22,1,8335,25.38,-3.30189e-06,1.74958e-05,-2.67641e-08,1.78046e-05,73.6875,118.9,132.01,1.0833e+07,1e+06,-5.51972e-08,1.65248e-07,-5.38398e-08,-0.000578464,0.0285875,-0.000145321,0.0294312,2,5654
12,3.26909e-22,1,8336,25.38,-3.35823e-06,1.73654e-05,-2.6716e-08,1.76872e-05,72.5625,118.9,132.01,1.0833e+07,1e+06,-5.9405e-08,1.75352e-07,-5.32235e-08,-0.00048583,0.0313339,0.000243939,0.0317845,2,5655
12,3.11966e-22,1,8337,25.38,-3.4207e-06,1.71936e-05,-2.52088e-08,1.75306e-05,74.75,118.9,132.01,8.24975e+06,875000,-7.44872e-08,1.98154e-07,-5.10295e-08,0.000240019,0.0339088,0.000726017,0.0345647,2,5656
12,3.41781e-22,2,8338,70.27,-3.5072e-06,1.7058e-05,-2.70737e-08,1.74148e-05,80.25,157.22,-160.07,3.08325e+06,625000,-9.52892e-08,2.21886e-07,-5.44441e-08,0.000454958,0.030762,0.000842097,0.0321117,3,2680
12,3.56688e-22,2,8339,70.27,-3.61128e-06,1.69837e-05,-3.30404e-08,1.73634e-05,83,157.22,-160.07,500000,500000,-1.03885e-07,2.33473e-07,-6.51099e-08,3.94025e-05,0.0268228,8.98737e-05,0.028446,3,2681
12,3.56688e-22,2,8340,70.27,-3.71497e-06,1.69252e-05,-3.44311e-08,1.73282e-05,83,157.22,-160.07,500000,500000,-1.05782e-07,2.39585e-07,-6.90758e-08,-6.3897e-06,0.0271665,-0.000104205,0.028715,3,2682
12,3.56688e-22,2,8341,70.27,-3.82284e-06,1.68829e-05,-3.58686e-08,1.73103e-05,83,157.22,-160.07,500000,500000,-1.11112e-07,2.4961e-07,-7.17335e-08,-6.20275e-05,0.0279936,-2.36002e-05,0.0293392,3,2683
12,3.56688e-22,2,8342,70.27,-3.93719e-06,1.68549e-05,-3.73926e-08,1.73086e-05,83,157.22,-160.07,500000,500000,-1.17633e-07,2.61003e-07,-7.47853e-08,-0.000187174,0.0288901,-3.45763e-05,0.0301123,3,2684
12,3.56688e-22,2,8343,70.27,-4.05811e-06,1.68421e-05,-3.91891e-08,1.73242e-05,83,157.22,-160.07,500000,500000,-1.22841e-07,2.72749e-07,-7.86684e-08,-9.18853e-05,0.0298982,-2.7894e-05,0.0308655,3,2685
12,3.56688e-22,2,8344,70.27,-4.18287e-06,1.68426e-05,-4.11322e-08,1.73543e-05,83,157.22,-160.07,500000,500000,-1.23985e-07,2.78759e-07,-8.24345e-08,0.000120379,0.0302635,-0.000145652,0.031001,3,2686
12,3.56688e-22,2,8345,70.27,-4.30608e-06,1.68462e-05,-4.34355e-08,1.73879e-05,83,157.22,-160.07,500000,500000,-1.2285e-07,2.82971e-07,-8.73395e-08,0.000390817,0.0305295,-0.000497533,0.031256,3,2687
12,3.56688e-22,2,8346,70.27,-4.42857e-06,1.685e-05,-4.76126e-08,1.74224e-05,83,157.22,-160.07,500000,500000,-1.2353e-07,2.95279e-07,-9.48704e-08,0.00091151,0.0319781,-0.000754302,0.0326335,3,2688
12,3.56688e-22,2,8347,70.27,-4.55314e-06,1.68696e-05,-5.14715e-08,1.74733e-05,83,157.22,-160.07,500000,500000,-1.24218e-07,3.05814e-07,-1.02147e-07,0.00125793,0.0330098,-0.00105799,0.0335735,3,2689
12,3.56688e-22,2,8348,70.27,-4.67701e-06,1.69133e-05,-5.22978e-08,1.75482e-05,83,157.22,-160.07,500000,500000,-1.22344e-07,3.0519e-07,-1.04392e-07,0.00126782,0.0327315,-0.00120537,0.0332925,3,2690
12,3.49543e-22,2,8349,70.27,-4.79783e-06,1.69664e-05,-5.09431e-08,1.76318e-05,83.6875,157.22,-160.07,1.14581e+06,531250,-1.1514e-07,2.94449e-07,-1.02096e-07,0.000673291,0.0334212,-0.00159207,0.0347101,3,2691
12,3.35252e-22,2,8350,70.27,-4.90729e-06,1.70124e-05,-4.87838e-08,1.77061e-05,85.0625,157.22,-160.07,2.43744e+06,593750,-1.02333e-07,2.88772e-07,-9.81097e-08,0.00167826,0.0365999,-0.000853489,0.0371793,3,2692
12,3.28106e-22,2,8351,70.27,-5.00249e-06,1.70836e-05,-4.97549e-08,1.78011e-05,85.75,157.22,-160.07,3.08325e+06,625000,-8.68469e-08,2.92269e-07,-9.89118e-08,0.00474322,0.0398187,0.000730122,0.0380886,3,2693
12,3.13815e-22,2,8352,70.27,-5.08098e-06,1.72025e-05,-5.00155e-08,1.79373e-05,87.125,157.22,-160.07,4.37488e+06,687500,-6.11801e-08,2.80637e-07,-9.97727e-08,0.00734015,0.0452465,0.000398513,0.0428046,3,2694
12,2.78088e-22,1,8353,118.57,-5.12485e-06,1.73101e-05,-4.18508e-08,1.80529e-05,90.5625,73.1,-29.9,7.60394e+06,843750,-3.09624e-08,2.52593e-07,-8.41949e-08,0.010424,0.0539856,0.000430339,0.0502251,2,5657
12,2.49506e-22,1,8354,118.57,-5.14291e-06,1.73645e-05,-3.1913e-08,1.81101e-05,93.3125,73.1,-29.9,1.01872e+07,968750,-1.88726e-08,2.22319e-07,-6.37924e-08,0.0114628,0.0560882,0.000876534,0.0511566,2,5658
12,2.42361e-22,1,8355,118.57,-5.1626e-06,1.73816e-05,-2.77212e-08,1.81321e-05,94,73.1,-29.9,1.0833e+07,1e+06,-2.39801e-08,2.08405e-07,-5.55653e-08,0.00966717,0.0537187,0.000489481,0.0494424,2,5659
12,2.42361e-22,1,8356,118.57,-5.19087e-06,1.73817e-05,-2.61197e-08,1.81403e-05,94,73.1,-29.9,1.0833e+07,1e+06,-3.03722e-08,2.03947e-07,-5.22315e-08,0.00784016,0.0520634,0.000245762,0.0486071,2,5660
12,2.42361e-22,1,8357,118.57,-5.22334e-06,1.73796e-05,-2.46749e-08,1.81476e-05,94,73.1,-29.9,1.0833e+07,1e+06,-3.35229e-08,1.97327e-07,-4.92562e-08,0.00636822,0.0503186,9.40054e-05,0.0476566,2,5661
12,2.42361e-22,1,8358,118.57,-5.25791e-06,1.73868e-05,-2.39426e-08,1.81645e-05,94,73.1,-29.9,1.0833e+07,1e+06,-3.67435e-08,1.96144e-07,-4.79279e-08,0.005089,0.0502155,-4.77814e-05,0.0484596,2,5662
12,2.42361e-22,1,8359,118.57,-5.29683e-06,1.74032e-05,-2.34592e-08,1.81914e-05,94,73.1,-29.9,1.0833e+07,1e+06,-4.17033e-08,2.00086e-07,-4.69046e-08,0.0039593,0.0513463,-4.61702e-05,0.0503987,2,5663
12,2.42361e-22,1,8360,118.57,-5.34132e-06,1.7418e-05,-2.2282e-08,1.82185e-05,94,73.1,-29.9,1.0833e+07,1e+06,-4.61492e-08,2.01548e-07,-4.46663e-08,0.00317606,0.0516039,0.000109674,0.0510051,2,5664
12,2.42361e-22,1,8361,118.57,-5.38913e-06,1.74202e-05,-2.01811e-08,1.82348e-05,94,73.1,-29.9,1.0833e+07,1e+06,-4.69701e-08,1.92093e-07,-4.06224e-08,0.00281587,0.048747,0.000237809,0.0479861,2,5665
12,2.47087e-22,1,8362,118.57,-5.43526e-06,1.73957e-05,-1.89299e-08,1.8225e-05,94.6875,73.1,-29.9,1.01872e+07,968750,-4.50546e-08,1.72858e-07,-3.63978e-08,0.00277484,0.041702,0.000241181,0.0408131,2,5666
12,2.70719e-22,1,8363,118.57,-5.47924e-06,1.73425e-05,-2.21254e-08,1.81875e-05,98.125,73.1,-29.9,6.95812e+06,812500,-5.35122e-08,1.67669e-07,-4.50135e-08,0.00167754,0.0311887,-0.000363921,0.0316745,2,5667
12,3.03803e-22,2,8364,109.29,-5.54229e-06,1.72589e-05,-3.66422e-08,1.8127e-05,102.938,165.44,68.53,2.43744e+06,593750,-8.20266e-08,2.05568e-07,-7.43005e-08,-0.000635033,0.0225415,-0.00035548,0.0239461,3,2695
12,3.17982e-22,2,8365,109.29,-5.64329e-06,1.71148e-05,-4.6382e-08,1.80212e-05,105,165.44,68.53,500000,500000,-1.11112e-07,2.50292e-07,-9.22372e-08,-0.00176127,0.020635,0.000748638,0.0215042,3,2696
12,3.90655e-22,2,8366,109.29,-5.76451e-06,1.69133e-05,-4.41814e-08,1.78687e-05,108,165.44,68.53,2.43744e+06,593750,-1.00593e-07,2.40905e-07,-8.78355e-08,-0.00239465,0.0249838,0.000513449,0.0273923,3,2697
12,5.60223e-22,1,8367,9.52003,-5.84448e-06,1.67557e-05,-3.88012e-08,1.77458e-05,115,63.66,-15.5,6.95812e+06,812500,-5.21224e-08,1.84324e-07,-7.77115e-08,-0.00328781,0.0293163,-0.000224479,0.0329175,2,5668
12,6.81343e-22,1,8368,9.52002,-5.86875e-06,1.67034e-05,-3.36468e-08,1.77044e-05,120,63.66,-15.5,1.01872e+07,968750,-1.77379e-08,1.44253e-07,-6.87403e-08,-0.00297331,0.0308797,0.00046528,0.0328683,2,5669
12,7.05568e-22,1,8369,9.52002,-5.87995e-06,1.67017e-05,-3.51826e-08,1.77065e-05,121,63.66,-15.5,1.0833e+07,1e+06,-1.0073e-08,1.40645e-07,-6.96911e-08,-0.00248739,0.0318535,0.000812256,0.0328801,2,5670
12,7.05568e-22,1,8370,9.52003,-5.8889e-06,1.67143e-05,-3.77084e-08,1.77214e-05,121,63.66,-15.5,1.0833e+07,1e+06,-6.84024e-09,1.42042e-07,-7.48777e-08,-0.00220083,0.0318689,0.000234142,0.0329773,2,5671
12,7.05568e-22,1,8371,9.52003,-5.89363e-06,1.67417e-05,-3.87081e-08,1.77489e-05,121,63.66,-15.5,1.0833e+07,1e+06,-3.09537e-09,1.40686e-07,-7.74975e-08,-0.00160525,0.0314314,-3.80785e-05,0.032311,2,5672
12,7.05568e-22,1,8372,9.52003,-5.89509e-06,1.67833e-05,-3.98363e-08,1.77886e-05,121,63.66,-15.5,1.0833e+07,1e+06,-2.41142e-10,1.4156e-07,-7.9668e-08,-0.00104898,0.0316505,-4.1429e-05,0.0322221,2,5673
12,7.05568e-22,1,8373,9.52003,-5.89411e-06,1.68351e-05,-4.12467e-08,1.78371e-05,121,63.66,-15.5,1.0833e+07,1e+06,1.96809e-09,1.44599e-07,-8.25166e-08,-0.000593375,0.0323506,-7.71145e-06,0.0326634,2,5674
12,7.05568e-22,1,8374,9.52003,-5.89115e-06,1.68912e-05,-4.26199e-08,1.78892e-05,121,63.66,-15.5,1.0833e+07,1e+06,3.85199e-09,1.47565e-07,-8.52302e-08,-0.000188721,0.0329956,1.49031e-06,0.0330981,2,5675
12,7.05568e-22,1,8375,9.52003,-5.88641e-06,1.69495e-05,-4.39503e-08,1.79426e-05,121,63.66,-15.5,1.0833e+07,1e+06,5.51023e-09,1.50376e-07,-8.78798e-08,0.000151373,0.0335833,-2.4376e-05,0.0335294,2,5676
12,7.05568e-22,1,8376,9.52003,-5.88013e-06,1.70108e-05,-4.55118e-08,1.79985e-05,121,63.66,-15.5,1.0833e+07,1e+06,6.78943e-09,1.54301e-07,-9.10202e-08,0.000376343,0.0344258,-6.86214e-05,0.0342812,2,5677
12,7.05568e-22,1,8377,9.52003,-5.87283e-06,1.70772e-05,-4.74055e-08,1.80588e-05,121,63.66,-15.5,1.0833e+07,1e+06,7.69515e-09,1.60215e-07,-9.50971e-08,0.00048215,0.0357317,-0.000120906,0.0355581,2,5678
12,7.05568e-22,1,8378,9.52003,-5.86474e-06,1.7151e-05,-4.96776e-08,1.81261e-05,121,63.66,-15.5,1.0833e+07,1e+06,8.99947e-09,1.65961e-07,-9.96976e-08,0.000617245,0.0369863,-0.000295803,0.0368234,2,5679
12,6.84061e-22,1,8379,9.52003,-5.85483e-06,1.7235e-05,-5.02292e-08,1.82024e-05,120.625,63.66,-15.5,1.01872e+07,968750,5.91642e-09,1.70495e-07,-9.94252e-08,0.000693725,0.0376705,-0.000561348,0.0377374,2,5680
12,5.88256e-22,1,8380,9.52003,-5.85291e-06,1.73241e-05,-4.11172e-08,1.82861e-05,120.062,63.66,-15.5,7.60394e+06,843750,-1.96938e-08,1.88717e-07,-8.14802e-08,0.000908018,0.0399878,0.000343685,0.0400746,2,5681
12,4.36401e-22,2,8381,130.08,-5.89422e-06,1.74199e-05,-2.37456e-08,1.83901e-05,120,-119.85,-177.55,3.72906e+06,656250,-6.85056e-08,2.10526e-07,-4.87455e-08,0.00142959,0.0390541,0.000980409,0.0388268,3,2698
12,3.34077e-22,2,8382,130.08,-5.98992e-06,1.75122e-05,-1.36309e-08,1.85083e-05,120.062,-119.85,-177.55,1.14581e+06,531250,-1.06637e-07,2.19851e-07,-2.7572e-08,0.00137909,0.0347203,0.000192703,0.0343643,3,2699
12,3.09311e-22,2,8383,130.08,-6.1075e-06,1.75812e-05,-1.16336e-08,1.86119e-05,120,-119.85,-177.55,500000,500000,-1.18251e-07,2.14243e-07,-2.28974e-08,-6.53675e-05,0.0314274,-0.000808691,0.031993,3,2700
12,5.74276e-22,1,8384,153.51,6.67574e-09,1.74311e-05,-6.34446e-08,1.74312e-05,29,-89.16,129.77,1.0833e+07,1e+06,1.30727e-08,2.38151e-07,-1.27095e-07,0.0082799,0.0544379,-0.00118772,0.0518573,2,5682
12,5.2452e-22,1,8385,153.51,1.94697e-08,1.75648e-05,-6.0298e-08,1.75649e-05,24.5,-89.16,129.77,8.89556e+06,906250,1.09599e-09,2.36696e-07,-1.21592e-07,0.00786659,0.0483242,0.000190183,0.0453825,2,5683
12,4.08422e-22,2,8386,71.79,8.86772e-09,1.76234e-05,-6.79565e-08,1.76235e-05,14,-78.66,171.44,4.37488e+06,687500,-2.59482e-08,2.60911e-07,-1.35317e-07,0.00815911,0.0371328,-0.000607434,0.0356976,3,2701
12,3.25496e-22,2,8387,71.79,-3.24266e-08,1.75122e-05,-7.50991e-08,1.75124e-05,6.5,-78.66,171.44,1.14581e+06,531250,-4.80815e-08,2.88182e-07,-1.48171e-07,0.0088699,0.0297962,0.000109715,0.0280211,3,2702
12,3.25496e-22,2,8388,71.79,-8.72953e-08,1.72854e-05,-6.96359e-08,1.72857e-05,6.5,-78.66,171.44,1.14581e+06,531250,-5.33352e-08,2.89879e-07,-1.39254e-07,0.00914991,0.0304055,0.00149722,0.0276904,3,2703
12,3.97048e-22,2,8389,71.79,-1.39097e-07,1.70495e-05,-5.74481e-08,1.70501e-05,14.125,-78.66,171.44,3.72906e+06,656250,-3.61064e-08,2.56389e-07,-1.1628e-07,0.00880334,0.0355782,0.00111672,0.0342296,3,2704
12,4.90397e-22,1,8390,153.51,-1.59508e-07,1.68967e-05,-4.78889e-08,1.68975e-05,24.875,-89.16,129.77,6.95813e+06,812500,-8.89268e-09,1.98699e-07,-9.60848e-08,0.0079178,0.0355628,-0.000790517,0.0358301,2,5684
12,5.28779e-22,1,8391,153.51,-1.56882e-07,1.68106e-05,-4.32156e-08,1.68114e-05,29.5,-89.16,129.77,8.24975e+06,875000,8.55157e-10,1.71288e-07,-8.63633e-08,0.00772433,0.0328696,-0.00111635,0.0325093,2,5685
12,5.0603e-22,1,8392,153.51,-1.57798e-07,1.67543e-05,-4.22793e-08,1.67551e-05,29.75,-89.16,129.77,6.95812e+06,812500,-1.61963e-08,1.81976e-07,-8.50945e-08,0.00632648,0.031809,-0.00114837,0.0320204,2,5686
12,4.49159e-22,2,8393,58.62,-1.89275e-07,1.67293e-05,-4.59926e-08,1.67304e-05,30.375,158.52,96.68,3.72906e+06,656250,-5.35728e-08,2.188e-07,-9.14775e-08,0.00492541,0.028614,-0.00093898,0.0288803,3,2705
12,4.03662e-22,2,8394,58.62,-2.64943e-07,1.67292e-05,-5.01001e-08,1.67313e-05,30.875,158.52,96.68,1.14581e+06,531250,-8.55267e-08,2.52246e-07,-9.98736e-08,0.00442096,0.0242056,-0.000425818,0.0232973,3,2706
12,3.92288e-22,2,8395,58.62,-3.60328e-07,1.67408e-05,-5.21583e-08,1.67447e-05,31,158.52,96.68,500000,500000,-9.82869e-08,2.68187e-07,-1.04492e-07,0.00419703,0.0232378,-9.41296e-05,0.0217288,3,2707
12,3.92288e-22,2,8396,58.62,-4.61517e-07,1.67512e-05,-5.36733e-08,1.67577e-05,31,158.52,96.68,500000,500000,-1.0472e-07,2.78414e-07,-1.07196e-07,0.00387767,0.0239531,-3.4883e-05,0.0225367,3,2708
12,3.92288e-22,2,8397,58.62,-5.69769e-07,1.67701e-05,-5.35839e-08,1.67799e-05,31,158.52,96.68,500000,500000,-1.10773e-07,2.83744e-07,-1.0712e-07,0.00333674,0.0242244,-3.51679e-05,0.0229317,3,2709
12,3.92288e-22,2,8398,58.62,-6.83063e-07,1.68047e-05,-5.2119e-08,1.68186e-05,31,158.52,96.68,500000,500000,-1.14863e-07,2.82137e-07,-1.0421e-07,0.00265412,0.0238077,-0.000101281,0.0227477,3,2710
12,3.92288e-22,2,8399,58.62,-7.99495e-07,1.68555e-05,-4.99949e-08,1.68745e-05,31,158.52,96.68,500000,500000,-1.17911e-07,2.79003e-07,-1.00085e-07,0.00212008,0.0233913,-1.02196e-05,0.0224704,3,2711
12,3.92288e-22,2,8400,58.62,-9.18884e-07,1.69201e-05,-4.77235e-08,1.69451e-05,31,158.52,96.68,500000,500000,-1.20094e-07,2.74829e-07,-9.55618e-08,0.00166876,0.0229797,8.61807e-05,0.0222405,3,2712
12,3.92288e-22,2,8401,58.62,-1.03968e-06,1.69974e-05,-4.53259e-08,1.70293e-05,31,158.52,96.68,500000,500000,-1.20105e-07,2.67197e-07,-9.05785e-08,0.00125704,0.0223079,5.77741e-05,0.0219233,3,2713
12,3.92288e-22,2,8402,58.62,-1.15909e-06,1.70873e-05,-4.25805e-08,1.71266e-05,31,158.52,96.68,500000,500000,-1.18763e-07,2.57578e-07,-8.56685e-08,0.00090309,0.021396,-8.37806e-05,0.0214875,3,2714
12,3.92288e-22,2,8403,58.62,-1.27721e-06,1.71887e-05,-4.15397e-08,1.72361e-05,31,158.52,96.68,500000,500000,-1.15556e-07,2.50233e-07,-8.21945e-08,0.0010573,0.0209048,-2.42047e-05,0.0210637,3,2715
12,3.77764e-22,2,8404,58.62,-1.39021e-06,1.7288e-05,-3.78156e-08,1.73438e-05,32.6875,158.52,96.68,2.43744e+06,593750,-9.45926e-08,2.30545e-07,-7.54349e-08,0.00174835,0.0250605,-0.000175081,0.0258651,3,2716
12,3.43874e-22,1,8405,151.34,-1.46639e-06,1.73749e-05,-3.52044e-08,1.74367e-05,36.625,-67.01,136.63,6.95813e+06,812500,-5.39516e-08,2.04706e-07,-7.17055e-08,0.0033599,0.0343058,-0.000175111,0.0351608,2,5687
12,3.19668e-22,1,8406,151.34,-1.49811e-06,1.74353e-05,-3.87056e-08,1.74996e-05,39.4375,-67.01,136.63,1.01872e+07,968750,-2.59266e-08,1.97084e-07,-7.69206e-08,0.00511391,0.0411624,1.92454e-05,0.0411057,2,5688
12,3.46848e-22,1,8407,151.34,-1.51825e-06,1.74783e-05,-4.03948e-08,1.75442e-05,40.9375,-67.01,136.63,1.0833e+07,1e+06,-2.07648e-08,1.99449e-07,-8.02116e-08,0.00580653,0.043438,-0.000431798,0.0435099,2,5689
12,4.10892e-22,1,8408,151.34,-1.53964e-06,1.75259e-05,-3.80871e-08,1.75934e-05,42.8125,-67.01,136.63,1.0833e+07,1e+06,-1.91068e-08,2.01537e-07,-7.65568e-08,0.00732606,0.0446925,0.000462359,0.0436129,2,5690
12,5.06957e-22,1,8409,151.34,-1.55646e-06,1.75776e-05,-3.78492e-08,1.76464e-05,45.625,-67.01,136.63,1.0833e+07,1e+06,-1.52795e-08,2.04938e-07,-7.55367e-08,0.00964405,0.0462251,0.000700624,0.044271,2,5691
12,6.35402e-22,1,8410,130.6,-1.5702e-06,1.7622e-05,-4.02439e-08,1.76918e-05,49.875,117.2,-48.36,1.01872e+07,968750,-1.87673e-08,2.22465e-07,-8.03559e-08,0.0117613,0.0485746,0.000150246,0.0465285,2,5692
12,6.36832e-22,1,8411,130.6,-1.594e-06,1.7639e-05,-4.6764e-08,1.7711e-05,51.875,117.2,-48.36,7.60394e+06,843750,-3.68364e-08,2.52834e-07,-9.46853e-08,0.0104866,0.046476,0.000404424,0.0450013,2,5693
12,4.78869e-22,2,8412,102.62,-1.64387e-06,1.76312e-05,-6.27201e-08,1.77078e-05,50.1875,3.44,160.65,3.72906e+06,656250,-6.06084e-08,2.77783e-07,-1.25326e-07,0.00460912,0.0369248,-0.000537258,0.0376718,3,2717
12,3.52212e-22,2,8413,102.62,-1.71521e-06,1.76179e-05,-7.63632e-08,1.77013e-05,48.4375,3.44,160.65,1.14581e+06,531250,-7.09866e-08,2.89514e-07,-1.51412e-07,0.000584552,0.0289026,-0.0010566,0.0301263,3,2718
12,3.20548e-22,2,8414,102.62,-1.78584e-06,1.76024e-05,-7.99154e-08,1.76929e-05,48,3.44,160.65,500000,500000,-6.76291e-08,2.91659e-07,-1.59925e-07,0.000529922,0.026918,-0.000651928,0.0272493,3,2719
12,3.20548e-22,2,8415,102.62,-1.85047e-06,1.75787e-05,-8.03143e-08,1.76761e-05,48,3.44,160.65,500000,500000,-6.41658e-08,2.93439e-07,-1.61214e-07,0.00127258,0.027474,-0.000297434,0.0272653,3,2720
12,3.20548e-22,2,8416,102.62,-1.91418e-06,1.75478e-05,-7.93911e-08,1.76521e-05,48,3.44,160.65,500000,500000,-6.54576e-08,2.96289e-07,-1.58785e-07,0.00167329,0.0282101,0.000232331,0.0275213,3,2721
12,3.24778e-22,2,8417,102.62,-1.98139e-06,1.75041e-05,-7.51708e-08,1.7616e-05,47.875,3.44,160.65,500000,500000,-7.16827e-08,2.94898e-07,-1.50813e-07,0.00170569,0.0289139,-0.000355196,0.0290338,3,2722
12,3.417e-22,2,8418,102.62,-2.05754e-06,1.74468e-05,-6.68888e-08,1.75678e-05,47.375,3.44,160.65,500000,500000,-8.36405e-08,2.83946e-07,-1.3206e-07,0.00127519,0.0294913,-0.00223976,0.0320072,3,2723
12,3.51022e-22,2,8419,112.33,-2.14867e-06,1.73824e-05,-5.10612e-08,1.75148e-05,48.375,149.47,-20.61,500000,500000,-9.89995e-08,2.67674e-07,-1.02614e-07,0.000937159,0.0284509,-0.00177425,0.0312909,3,2724
12,3.35824e-22,2,8420,103.38,-2.25554e-06,1.74328e-05,-4.54648e-08,1.75782e-05,51.375,31.45,-165.02,500000,500000,-1.11234e-07,2.66031e-07,-9.21887e-08,0.000504067,0.0253109,0.00035529,0.0260455,3,2725
12,3.23994e-22,2,8421,103.38,-2.37113e-06,1.75974e-05,-4.81166e-08,1.77565e-05,53,31.45,-165.02,500000,500000,-1.15967e-07,2.66468e-07,-9.56923e-08,-0.000271342,0.0226219,0.000559376,0.0226754,3,2726
12,3.25947e-22,2,8422,103.38,-2.48747e-06,1.775e-05,-4.51088e-08,1.79235e-05,53.1875,31.45,-165.02,500000,500000,-1.14668e-07,2.50803e-07,-9.09327e-08,-0.0013223,0.0212287,-0.00101208,0.0228521,3,2727
12,3.35711e-22,2,8423,103.38,-2.60047e-06,1.78776e-05,-4.61255e-08,1.80658e-05,54.125,31.45,-165.02,500000,500000,-1.05713e-07,2.63287e-07,-9.13613e-08,0.000716114,0.028118,-0.00115711,0.0299493,3,2728
12,3.49379e-22,2,8424,69.84,-2.6989e-06,1.79157e-05,-4.52149e-08,1.81179e-05,55.4375,21.26,155.3,500000,500000,-8.63649e-08,2.65658e-07,-9.02256e-08,0.0028682,0.0340574,0.000304919,0.0343637,3,2729
12,3.49032e-22,2,8425,69.84,-2.7732e-06,1.78956e-05,-4.36324e-08,1.81092e-05,57.25,21.26,155.3,500000,500000,-6.42561e-08,2.3345e-07,-8.76673e-08,0.00235904,0.0312476,0.000471414,0.0311964,3,2730
12,3.36621e-22,2,8426,110.23,-2.82741e-06,1.7901e-05,-4.49799e-08,1.8123e-05,59.75,164.69,-25.3,500000,500000,-4.97615e-08,2.15245e-07,-8.9274e-08,0.00240861,0.0292853,0.000161774,0.0293321,3,2731
12,3.30416e-22,2,8427,110.23,-2.87272e-06,1.79111e-05,-4.30993e-08,1.81401e-05,61,164.69,-25.3,500000,500000,-4.5214e-08,2.04843e-07,-8.67553e-08,0.00234581,0.027844,0.000271579,0.0275998,3,2732
12,3.28331e-22,2,8428,110.23,-2.91784e-06,1.79112e-05,-4.04331e-08,1.81474e-05,61.6875,164.69,-25.3,1.14581e+06,531250,-4.43964e-08,1.96491e-07,-8.14176e-08,0.00243767,0.0275432,-0.000146167,0.027541,3,2733
12,3.19992e-22,2,8429,110.23,-2.96152e-06,1.79009e-05,-3.74782e-08,1.81443e-05,64.4375,164.69,-25.3,3.72906e+06,656250,-3.96663e-08,1.87975e-07,-7.44006e-08,0.00338073,0.0300345,-0.000805797,0.0304552,3,2734
12,3.37333e-22,1,8430,25.38,-2.99717e-06,1.78883e-05,-3.46089e-08,1.81377e-05,69.125,118.9,132.01,7.60394e+06,843750,-3.31042e-08,1.76496e-07,-6.88155e-08,0.00418106,0.0315524,-0.000800964,0.0314408,2,5694
12,3.88693e-22,1,8431,25.38,-3.02773e-06,1.78836e-05,-3.2236e-08,1.81381e-05,73,118.9,132.01,1.01872e+07,968750,-3.27033e-08,1.63885e-07,-6.44969e-08,0.00358662,0.0295967,-0.000570948,0.0290536,2,5695
12,4.16458e-22,1,8432,25.38,-3.06258e-06,1.78756e-05,-2.95042e-08,1.81361e-05,74.25,118.9,132.01,1.0833e+07,1e+06,-3.7587e-08,1.57068e-07,-5.93951e-08,0.00234234,0.0278188,-0.000376621,0.0275649,2,5696
12,4.16458e-22,1,8433,25.38,-3.1029e-06,1.78517e-05,-2.81779e-08,1.81194e-05,74.25,118.9,132.01,1.0833e+07,1e+06,-4.22874e-08,1.54753e-07,-5.61779e-08,0.00117382,0.0270215,-0.000293773,0.0271691,2,5697
12,3.86608e-22,1,8434,25.38,-3.14716e-06,1.78088e-05,-2.59708e-08,1.80848e-05,73.6875,118.9,132.01,1.0833e+07,1e+06,-4.40739e-08,1.51226e-07,-5.17602e-08,0.000508185,0.026875,7.43052e-05,0.027127,2,5698
12,3.26909e-22,1,8435,25.38,-3.19105e-06,1.77407e-05,-2.38056e-08,1.80254e-05,72.5625,118.9,132.01,1.0833e+07,1e+06,-4.24764e-08,1.5001e-07,-4.83482e-08,0.00080894,0.0278515,0.000677708,0.0274574,2,5699
12,2.97059e-22,1,8436,25.38,-3.23211e-06,1.76504e-05,-2.51525e-08,1.79439e-05,72,118.9,132.01,1.0833e+07,1e+06,-4.18814e-08,1.56544e-07,-5.07253e-08,0.00155981,0.0294249,0.000708834,0.0284503,2,5700
12,2.97059e-22,1,8437,25.38,-3.27481e-06,1.75382e-05,-2.93302e-08,1.78413e-05,72,118.9,132.01,1.0833e+07,1e+06,-4.73954e-08,1.74532e-07,-5.82674e-08,0.00184521,0.0321824,0.000110734,0.0313199,2,5701
12,3.08239e-22,1,8438,25.38,-3.3269e-06,1.74005e-05,-3.21351e-08,1.77157e-05,74.0625,118.9,132.01,8.89556e+06,906250,-6.3887e-08,2.08085e-07,-6.39284e-08,0.00200548,0.0368147,-0.000149806,0.0369575,2,5702
12,3.34327e-22,2,8439,70.27,-3.40258e-06,1.72875e-05,-3.19089e-08,1.76192e-05,78.875,157.22,-160.07,4.37488e+06,687500,-8.84797e-08,2.25315e-07,-6.34008e-08,0.000391567,0.0335141,-0.000609192,0.0356832,3,2735
12,3.52961e-22,2,8440,70.27,-3.50386e-06,1.72173e-05,-3.10357e-08,1.75702e-05,82.3125,157.22,-160.07,1.14581e+06,531250,-1.06612e-07,2.28347e-07,-6.2184e-08,-0.00117257,0.02696,-0.000625696,0.0297801,3,2736
12,3.56688e-22,2,8441,70.27,-3.61581e-06,1.71651e-05,-3.19768e-08,1.75418e-05,83,157.22,-160.07,500000,500000,-1.13122e-07,2.39015e-07,-6.42247e-08,-0.000902151,0.0267275,-4.78126e-05,0.0288259,3,2737
12,3.56688e-22,2,8442,70.27,-3.7301e-06,1.71323e-05,-3.43524e-08,1.75337e-05,83,157.22,-160.07,500000,500000,-1.15792e-07,2.48489e-07,-6.86899e-08,-0.000704323,0.0275268,-6.73587e-05,0.0292325,3,2738
12,3.56688e-22,2,8443,70.27,-3.84739e-06,1.71152e-05,-3.64006e-08,1.75424e-05,83,157.22,-160.07,500000,500000,-1.19433e-07,2.59627e-07,-7.28004e-08,-0.000457035,0.0285948,3.30606e-05,0.029915,3,2739
12,3.56688e-22,2,8444,70.27,-3.96897e-06,1.71126e-05,-3.83668e-08,1.75669e-05,83,157.22,-160.07,500000,500000,-1.22454e-07,2.69266e-07,-7.67347e-08,-0.000258292,0.0294951,5.55729e-05,0.030545,3,2740
12,3.56688e-22,2,8445,70.27,-4.0923e-06,1.71192e-05,-4.03089e-08,1.76016e-05,83,157.22,-160.07,500000,500000,-1.23343e-07,2.75965e-07,-8.06186e-08,-2.82872e-05,0.0301471,-2.12033e-05,0.0310367,3,2741
12,3.56688e-22,2,8446,70.27,-4.21565e-06,1.71302e-05,-4.25447e-08,1.76414e-05,83,157.22,-160.07,500000,500000,-1.23983e-07,2.84272e-07,-8.49837e-08,0.000338341,0.0311675,-2.80581e-05,0.0318677,3,2742
12,3.56688e-22,2,8447,70.27,-4.34027e-06,1.71483e-05,-4.54267e-08,1.76891e-05,83,157.22,-160.07,500000,500000,-1.25436e-07,2.96734e-07,-9.09634e-08,0.00088634,0.0326868,6.9144e-06,0.0330588,3,2743
12,3.56688e-22,2,8448,70.27,-4.46653e-06,1.71798e-05,-4.86462e-08,1.77509e-05,83,157.22,-160.07,500000,500000,-1.25132e-07,3.06583e-07,-9.75817e-08,0.00147147,0.033683,-9.70743e-05,0.0336791,3,2744
12,3.56688e-22,2,8449,70.27,-4.59053e-06,1.72256e-05,-5.14948e-08,1.78268e-05,83,157.22,-160.07,500000,500000,-1.20899e-07,3.09082e-07,-1.03297e-07,0.00208358,0.0337482,-0.000349335,0.0334252,3,2745
12,3.56688e-22,2,8450,70.27,-4.70832e-06,1.72781e-05,-5.44211e-08,1.79082e-05,83,157.22,-160.07,500000,500000,-1.17485e-07,3.12628e-07,-1.09433e-07,0.00261058,0.0339582,-0.000741677,0.0335395,3,2746
12,3.56688e-22,2,8451,70.27,-4.8255e-06,1.73385e-05,-5.92134e-08,1.79976e-05,83,157.22,-160.07,500000,500000,-1.20562e-07,3.30469e-07,-1.17592e-07,0.00323666,0.0361266,-0.000775469,0.0354958,3,2747
12,3.56688e-22,2,8452,70.27,-4.94945e-06,1.74246e-05,-6.25612e-08,1.8114e-05,83,157.22,-160.07,500000,500000,-1.23103e-07,3.48633e-07,-1.25187e-07,0.00382746,0.0387413,-0.000624973,0.0378198,3,2748
12,3.71946e-22,2,8453,70.27,-5.0717e-06,1.75271e-05,-6.18454e-08,1.82462e-05,84.875,157.22,-160.07,1.79162e+06,562500,-1.03687e-07,3.29474e-07,-1.23456e-07,0.00356354,0.0422369,-0.0022399,0.0428359,3,2749
12,3.8817e-22,2,8454,70.27,-5.15682e-06,1.75892e-05,-5.05986e-08,1.83296e-05,90,157.22,-160.07,5.6665e+06,750000,-6.09399e-08,2.73554e-07,-9.94348e-08,0.0048193,0.0496801,-0.00297925,0.0505855,3,2750
12,3.74846e-22,1,8455,118.57,-5.19358e-06,1.75908e-05,-3.45867e-08,1.83415e-05,94.625,73.1,-29.9,9.54138e+06,937500,-2.69813e-08,2.21016e-07,-6.9935e-08,0.00791845,0.0536835,-0.00148509,0.0519248,2,5703
12,3.31006e-22,1,8456,118.57,-5.21078e-06,1.75859e-05,-2.85695e-08,1.83417e-05,95.5,73.1,-29.9,1.0833e+07,1e+06,-1.81055e-08,2.02483e-07,-5.7561e-08,0.00957139,0.0534477,-0.000156667,0.049825,2,5704
12,2.71909e-22,1,8457,118.57,-5.2298e-06,1.75825e-05,-2.63915e-08,1.83438e-05,94.5,73.1,-29.9,1.0833e+07,1e+06,-2.26437e-08,1.9877e-07,-5.29306e-08,0.0086077,0.0520471,0.000413054,0.0484545,2,5705
12,2.42361e-22,1,8458,118.57,-5.25607e-06,1.75719e-05,-2.44098e-08,1.83412e-05,94,73.1,-29.9,1.0833e+07,1e+06,-2.7388e-08,1.90328e-07,-4.91759e-08,0.0067469,0.0493483,0.000297298,0.046636,2,5706
12,2.42361e-22,1,8459,118.57,-5.28457e-06,1.75775e-05,-2.43831e-08,1.83547e-05,94,73.1,-29.9,1.0833e+07,1e+06,-2.9184e-08,1.86792e-07,-4.8299e-08,0.00559073,0.0485332,6.00105e-05,0.0467592,2,5707
12,2.42361e-22,1,8460,118.57,-5.31444e-06,1.75994e-05,-2.4663e-08,1.83843e-05,94,73.1,-29.9,1.0833e+07,1e+06,-3.28667e-08,1.93502e-07,-4.9592e-08,0.00486911,0.050337,-0.000162171,0.0493139,2,5708
12,2.42361e-22,1,8461,118.57,-5.3503e-06,1.76188e-05,-2.43303e-08,1.84133e-05,94,73.1,-29.9,1.0833e+07,1e+06,-3.7888e-08,2.018e-07,-4.85157e-08,0.00465312,0.0523562,0.000192469,0.0512138,2,5709
12,2.42361e-22,1,8462,118.57,-5.39022e-06,1.76137e-05,-2.23089e-08,1.84201e-05,94,73.1,-29.9,1.0833e+07,1e+06,-3.94648e-08,1.96719e-07,-4.41936e-08,0.00475258,0.0505929,0.000698374,0.0486912,2,5710
12,2.5654e-22,1,8463,118.57,-5.42923e-06,1.75784e-05,-2.24394e-08,1.83977e-05,96.0625,73.1,-29.9,8.89556e+06,906250,-4.2351e-08,1.91373e-07,-4.66423e-08,0.00465327,0.0438864,0.00076802,0.0422731,2,5711
12,2.89624e-22,2,8464,109.29,-5.47492e-06,1.75291e-05,-3.88194e-08,1.83643e-05,100.875,165.44,68.53,4.37488e+06,687500,-5.39034e-08,2.07604e-07,-7.71608e-08,0.00267949,0.0318097,-9.0994e-05,0.0320616,3,2751
12,3.13256e-22,2,8465,109.29,-5.53704e-06,1.74755e-05,-5.51083e-08,1.83318e-05,104.312,165.44,68.53,1.14581e+06,531250,-7.33447e-08,2.3454e-07,-1.08955e-07,8.9438e-06,0.0227121,-0.000736822,0.0239602,3,2752
12,3.17982e-22,2,8466,109.29,-5.62161e-06,1.737e-05,-5.61007e-08,1.82571e-05,105,165.44,68.53,500000,500000,-9.77807e-08,2.61109e-07,-1.13313e-07,-0.000887207,0.0218517,-5.83186e-05,0.0227094,3,2753
12,3.42206e-22,2,8467,109.29,-5.7326e-06,1.71772e-05,-5.62668e-08,1.81086e-05,106,165.44,68.53,1.14581e+06,531250,-1.12122e-07,2.81972e-07,-1.12068e-07,-0.00148695,0.0254718,0.000291521,0.0268499,3,2754
12,4.39103e-22,2,8468,109.29,-5.84585e-06,1.69679e-05,-5.30438e-08,1.79467e-05,110,165.44,68.53,3.72906e+06,656250,-9.13352e-08,2.54705e-07,-1.04635e-07,-0.00326809,0.0295267,-0.000754473,0.0332483,3,2755
12,5.84447e-22,1,8469,9.52003,-5.91527e-06,1.68541e-05,-4.15412e-08,1.7862e-05,116,63.66,-15.5,7.60394e+06,843750,-4.71776e-08,1.86192e-07,-8.39936e-08,-0.00415417,0.0307583,-0.000948961,0.0349918,2,5712
12,6.81343e-22,1,8470,9.52002,-5.94021e-06,1.68397e-05,-3.30883e-08,1.78567e-05,120,63.66,-15.5,1.01872e+07,968750,-1.91513e-08,1.45247e-07,-6.78806e-08,-0.00331642,0.0312933,0.000581069,0.0333356,2,5713
12,7.05568e-22,1,8471,9.52002,-5.95358e-06,1.68554e-05,-3.39326e-08,1.7876e-05,121,63.66,-15.5,1.0833e+07,1e+06,-1.20917e-08,1.39381e-07,-6.71389e-08,-0.00279899,0.0316468,0.000968444,0.0328035,2,5714
12,7.05568e-22,1,8472,9.52002,-5.96439e-06,1.68814e-05,-3.62753e-08,1.79041e-05,121,63.66,-15.5,1.0833e+07,1e+06,-8.678e-09,1.3826e-07,-7.19921e-08,-0.00258274,0.0309658,0.000163987,0.0323431,2,5715
12,7.05568e-22,1,8473,9.52003,-5.97093e-06,1.69243e-05,-3.79933e-08,1.79468e-05,121,63.66,-15.5,1.0833e+07,1e+06,-5.0936e-09,1.4021e-07,-7.60924e-08,-0.00201885,0.0313196,-4.2591e-05,0.032428,2,5716
12,7.05568e-22,1,8474,9.52003,-5.97458e-06,1.69799e-05,-3.99527e-08,1.80004e-05,121,63.66,-15.5,1.0833e+07,1e+06,-2.75831e-09,1.45442e-07,-7.98731e-08,-0.00150039,0.0325627,7.27128e-05,0.033325,2,5717
12,7.05568e-22,1,8475,9.52003,-5.97645e-06,1.70392e-05,-4.14711e-08,1.8057e-05,121,63.66,-15.5,1.0833e+07,1e+06,-8.55255e-10,1.48579e-07,-8.29793e-08,-0.00112672,0.0332017,1.84562e-05,0.0337986,2,5718
12,7.05568e-22,1,8476,9.52003,-5.97629e-06,1.71e-05,-4.27853e-08,1.81143e-05,121,63.66,-15.5,1.0833e+07,1e+06,1.27871e-09,1.50525e-07,-8.55793e-08,-0.000711308,0.0335811,-4.25226e-05,0.0339908,2,5719
12,7.05568e-22,1,8477,9.52003,-5.97389e-06,1.7165e-05,-4.42647e-08,1.81749e-05,121,63.66,-15.5,1.0833e+07,1e+06,3.2034e-09,1.53688e-07,-8.85242e-08,-0.0003483,0.0342901,-5.24434e-05,0.0345086,2,5720
12,7.05568e-22,1,8478,9.52003,-5.96988e-06,1.72368e-05,-4.60597e-08,1.82414e-05,121,63.66,-15.5,1.0833e+07,1e+06,4.515e-09,1.58804e-07,-9.21162e-08,-0.000141071,0.0354723,-3.62999e-05,0.0355672,2,5721
12,7.05568e-22,1,8479,9.52003,-5.96486e-06,1.73166e-05,-4.80971e-08,1.83152e-05,121,63.66,-15.5,1.0833e+07,1e+06,5.27697e-09,1.64779e-07,-9.64527e-08,-0.000133196,0.0367861,-0.000168028,0.0369401,2,5722
12,7.05568e-22,1,8480,9.52003,-5.95933e-06,1.74041e-05,-5.01947e-08,1.83962e-05,121,63.66,-15.5,1.0833e+07,1e+06,5.5628e-09,1.69418e-07,-1.00714e-07,-0.00034775,0.0376794,-0.000517692,0.0381116,2,5723
12,6.80802e-22,1,8481,9.52003,-5.95374e-06,1.75022e-05,-4.84402e-08,1.84872e-05,120.938,63.66,-15.5,1.01872e+07,968750,-3.94767e-10,1.75033e-07,-9.57095e-08,-0.000216179,0.0389487,-4.50933e-05,0.0393653,2,5724
12,5.81738e-22,1,8482,9.52003,-5.96012e-06,1.76144e-05,-3.54304e-08,1.85955e-05,120.688,63.66,-15.5,7.60394e+06,843750,-2.66197e-08,1.82347e-07,-7.01397e-08,0.00048267,0.0387219,0.00114192,0.0388357,2,5725
12,4.57907e-22,2,8483,130.08,-6.00697e-06,1.77238e-05,-2.08493e-08,1.87141e-05,120.375,-119.85,-177.55,4.37488e+06,687500,-6.35394e-08,1.9258e-07,-4.26583e-08,0.00091552,0.0362317,0.00124233,0.0362283,3,2756
12,4.08375e-22,2,8484,130.08,-6.0872e-06,1.7794e-05,-1.68741e-08,1.88064e-05,120.25,-119.85,-177.55,3.08325e+06,625000,-8.2616e-08,1.96401e-07,-3.40941e-08,-0.000116461,0.0342418,0.00036297,0.0351338,3,2757
12,5.74276e-22,1,8485,153.51,6.13462e-09,1.76691e-05,-6.26001e-08,1.76692e-05,29,-89.16,129.77,1.0833e+07,1e+06,1.29384e-08,2.36497e-07,-1.2528e-07,0.00826441,0.0541987,-0.000919827,0.0514142,2,5726
12,5.5769e-22,1,8486,153.51,1.97421e-08,1.77907e-05,-5.80476e-08,1.77908e-05,27.5,-89.16,129.77,1.01872e+07,968750,1.57748e-08,2.19656e-07,-1.16399e-07,0.00904451,0.048894,0.000485274,0.0451386,2,5727
12,4.81667e-22,1,8487,153.51,3.76842e-08,1.78625e-05,-6.07151e-08,1.78626e-05,20.125,-89.16,129.77,6.95812e+06,812500,1.25837e-08,2.14313e-07,-1.21957e-07,0.0102765,0.0391444,-0.000519258,0.0367868,2,5728
12,3.79376e-22,2,8488,71.79,4.49094e-08,1.7789e-05,-6.98033e-08,1.77892e-05,9.875,-78.66,171.44,2.43744e+06,593750,-7.98186e-09,2.45314e-07,-1.40391e-07,0.0102367,0.0323288,-0.000486933,0.0303137,3,2758
12,3.34831e-22,2,8489,71.79,2.17205e-08,1.75859e-05,-7.72705e-08,1.75861e-05,7,-78.66,171.44,500000,500000,-3.76973e-08,2.82109e-07,-1.54275e-07,0.00878979,0.0305441,-0.00165654,0.0303395,3,2759
12,3.58454e-22,2,8490,71.79,-3.04851e-08,1.73398e-05,-7.68678e-08,1.734e-05,14.75,-78.66,171.44,1.14581e+06,531250,-5.28463e-08,2.98268e-07,-1.51191e-07,0.00925955,0.0335746,-0.00307304,0.0363267,3,2760
12,4.10777e-22,2,8491,58.62,-8.39721e-08,1.71374e-05,-6.93356e-08,1.71377e-05,25.75,158.52,96.68,2.43744e+06,593750,-4.86621e-08,2.80276e-07,-1.38349e-07,0.00961124,0.0333212,-0.00349673,0.0357772,3,2761
12,4.37785e-22,2,8492,58.62,-1.27809e-07,1.70215e-05,-6.16413e-08,1.70221e-05,30.5,158.52,96.68,3.08325e+06,625000,-4.78222e-08,2.60195e-07,-1.24334e-07,0.00863685,0.0308521,-0.00265058,0.0312463,3,2762
12,4.26411e-22,2,8493,58.62,-1.79617e-07,1.69766e-05,-5.76176e-08,1.69777e-05,30.625,158.52,96.68,2.43744e+06,593750,-6.30097e-08,2.60496e-07,-1.14784e-07,0.00693676,0.0295427,-0.00172401,0.0295069,3,2763
12,4.03662e-22,2,8494,58.62,-2.53829e-07,1.6982e-05,-5.40706e-08,1.6984e-05,30.875,158.52,96.68,1.14581e+06,531250,-8.30712e-08,2.68404e-07,-1.08742e-07,0.00598844,0.0266798,-0.000426711,0.0252521,3,2764
12,3.92288e-22,2,8495,58.62,-3.45759e-07,1.69998e-05,-5.36171e-08,1.70034e-05,31,158.52,96.68,500000,500000,-9.41844e-08,2.73294e-07,-1.07413e-07,0.00547015,0.0243808,0.000118413,0.0221753,3,2765
12,3.92288e-22,2,8496,58.62,-4.42198e-07,1.70146e-05,-5.33887e-08,1.70205e-05,31,158.52,96.68,500000,500000,-9.97046e-08,2.74489e-07,-1.06653e-07,0.00449803,0.0239858,-5.00806e-06,0.0222181,3,2766
12,3.92288e-22,2,8497,58.62,-5.45168e-07,1.70308e-05,-5.27165e-08,1.70396e-05,31,158.52,96.68,500000,500000,-1.06678e-07,2.78292e-07,-1.05557e-07,0.0036437,0.0239462,2.17649e-05,0.0224615,3,2767
12,3.92288e-22,2,8498,58.62,-6.55555e-07,1.70532e-05,-5.1715e-08,1.70659e-05,31,158.52,96.68,500000,500000,-1.13128e-07,2.80649e-07,-1.03477e-07,0.00287712,0.0238313,6.21802e-05,0.0225742,3,2768
12,3.92288e-22,2,8499,58.62,-7.71424e-07,1.7086e-05,-5.00734e-08,1.71035e-05,31,158.52,96.68,500000,500000,-1.17123e-07,2.78677e-07,-1.00143e-07,0.00220075,0.0234217,4.73522e-05,0.0224228,3,2769
12,3.92288e-22,2,8500,58.62,-8.898e-07,1.71313e-05,-4.78881e-08,1.71545e-05,31,158.52,96.68,500000,500000,-1.18484e-07,2.72834e-07,-9.57663e-08,0.0016827,0.0227744,3.10069e-05,0.0220236,3,2770
12,3.92288e-22,2,8501,58.62,-1.00839e-06,1.71894e-05,-4.54105e-08,1.7219e-05,31,158.52,96.68,500000,500000,-1.18333e-07,2.65074e-07,-9.0896e-08,0.00127968,0.0220435,2.03706e-05,0.0215638,3,2771
12,3.92288e-22,2,8502,58.62,-1.12647e-06,1.72595e-05,-4.2959e-08,1.72963e-05,31,158.52,96.68,500000,500000,-1.17984e-07,2.571e-07,-8.57881e-08,0.000907215,0.0213469,3.72564e-05,0.0212088,3,2772
12,3.92288e-22,2,8503,58.62,-1.24436e-06,1.73406e-05,-4.07013e-08,1.73852e-05,31,158.52,96.68,500000,500000,-1.16454e-07,2.49278e-07,-8.11466e-08,0.00078421,0.0207466,7.04783e-05,0.0209345,3,2773
12,3.87447e-22,2,8504,58.62,-1.35937e-06,1.74342e-05,-3.72245e-08,1.74872e-05,31.5625,158.52,96.68,1.14581e+06,531250,-1.05212e-07,2.35236e-07,-7.51968e-08,0.00130068,0.0217048,0.000224847,0.0220093,3,2774
12,3.6324e-22,2,8505,58.62,-1.45478e-06,1.75137e-05,-3.63898e-08,1.7574e-05,34.375,158.52,96.68,4.37488e+06,687500,-7.37501e-08,2.18868e-07,-7.2856e-08,0.00298558,0.0299116,0.00015351,0.0303932,3,2775
12,3.2935e-22,1,8506,151.34,-1.50687e-06,1.75753e-05,-3.89493e-08,1.76398e-05,38.3125,-67.01,136.63,8.89556e+06,906250,-3.79089e-08,2.03605e-07,-7.6998e-08,0.00437267,0.0389887,-0.000203736,0.0392497,2,5729
12,3.14826e-22,1,8507,151.34,-1.5306e-06,1.7631e-05,-3.96295e-08,1.76973e-05,40,-67.01,136.63,1.0833e+07,1e+06,-2.35061e-08,1.97433e-07,-7.95346e-08,0.00480361,0.042133,-0.000146884,0.0420187,2,5730
12,3.14826e-22,1,8508,151.34,-1.55389e-06,1.7678e-05,-3.98091e-08,1.77463e-05,40,-67.01,136.63,1.0833e+07,1e+06,-2.40437e-08,2.0123e-07,-8.03628e-08,0.00493467,0.0432909,-0.000230514,0.0434842,2,5731
12,3.14826e-22,1,8509,151.34,-1.57869e-06,1.77277e-05,-4.12915e-08,1.77979e-05,40,-67.01,136.63,1.0833e+07,1e+06,-2.47624e-08,2.04268e-07,-8.20579e-08,0.00489586,0.0438879,-0.000479204,0.044317,2,5732
12,3.46848e-22,1,8510,151.34,-1.60341e-06,1.77814e-05,-4.11056e-08,1.78536e-05,40.9375,-67.01,136.63,1.0833e+07,1e+06,-2.62245e-08,2.08881e-07,-8.25192e-08,0.00507231,0.0451442,-0.000578775,0.0458361,2,5733
12,4.16094e-22,1,8511,151.34,-1.63114e-06,1.78495e-05,-4.47679e-08,1.79239e-05,43.625,-67.01,136.63,8.89556e+06,906250,-3.77388e-08,2.3032e-07,-9.17308e-08,0.00487553,0.0454873,-0.00149933,0.047509,2,5734
12,4.22727e-22,2,8512,102.62,-1.67889e-06,1.79141e-05,-6.07801e-08,1.79927e-05,46.4375,3.44,160.65,4.37488e+06,687500,-5.93446e-08,2.7499e-07,-1.19944e-07,0.00379057,0.0403655,-0.000956504,0.0422098,3,2776
12,3.56342e-22,2,8513,102.62,-1.74983e-06,1.7937e-05,-8.05718e-08,1.80224e-05,47.75,3.44,160.65,1.14581e+06,531250,-7.1451e-08,3.07991e-07,-1.5753e-07,0.00162029,0.0324045,-0.000563595,0.0332402,3,2777
12,3.20548e-22,2,8514,102.62,-1.82179e-06,1.79233e-05,-8.62328e-08,1.80159e-05,48,3.44,160.65,500000,500000,-6.7147e-08,3.07257e-07,-1.73418e-07,0.000793541,0.0283312,-0.00124753,0.0288866,3,2778
12,3.20548e-22,2,8515,102.62,-1.88412e-06,1.78972e-05,-8.25563e-08,1.79963e-05,48,3.44,160.65,500000,500000,-5.90157e-08,2.94088e-07,-1.66877e-07,0.00177504,0.0273383,-0.000607623,0.026985,3,2779
12,3.20548e-22,2,8516,102.62,-1.93982e-06,1.78706e-05,-8.20993e-08,1.79758e-05,48,3.44,160.65,500000,500000,-5.48455e-08,2.88972e-07,-1.64203e-07,0.00221344,0.0272509,-0.000236277,0.0265268,3,2780
12,3.20548e-22,2,8517,102.62,-1.99381e-06,1.78443e-05,-8.30127e-08,1.79556e-05,48,3.44,160.65,500000,500000,-5.72144e-08,2.94844e-07,-1.65606e-07,0.00215175,0.0280332,-7.90417e-05,0.0273025,3,2781
12,3.20548e-22,2,8518,102.62,-2.05425e-06,1.78068e-05,-8.15143e-08,1.79251e-05,48,3.44,160.65,500000,500000,-6.62587e-08,3.06253e-07,-1.63536e-07,0.00212569,0.0293499,0.000483964,0.0282271,3,2782
12,3.24778e-22,2,8519,102.62,-2.12633e-06,1.77482e-05,-7.78146e-08,1.78753e-05,47.875,3.44,160.65,500000,500000,-7.90393e-08,3.10701e-07,-1.56511e-07,0.00154075,0.030223,-0.000350755,0.0303957,3,2783
12,3.2987e-22,2,8520,102.62,-2.21233e-06,1.76691e-05,-7.17995e-08,1.78072e-05,49,3.44,160.65,500000,500000,-9.39742e-08,3.035e-07,-1.41804e-07,0.000750746,0.0293745,-0.00181742,0.0314987,3,2784
12,3.27363e-22,2,8521,103.38,-2.31428e-06,1.77074e-05,-5.82577e-08,1.78581e-05,51.625,31.45,-165.02,500000,500000,-1.03568e-07,2.82427e-07,-1.16608e-07,0.000851314,0.0257293,-0.000559471,0.0264531,3,2785
12,3.23994e-22,2,8522,103.38,-2.41947e-06,1.78604e-05,-4.8481e-08,1.80236e-05,53,31.45,-165.02,500000,500000,-1.02263e-07,2.5876e-07,-9.81264e-08,0.00121609,0.0224554,0.000727658,0.0215324,3,2786
12,3.23994e-22,2,8523,103.38,-2.5188e-06,1.79996e-05,-4.70291e-08,1.81751e-05,53,31.45,-165.02,500000,500000,-1.01858e-07,2.48322e-07,-9.3117e-08,0.000856414,0.0211164,0.000326401,0.0205345,3,2787
12,3.31805e-22,2,8524,103.38,-2.62318e-06,1.81399e-05,-4.31497e-08,1.83286e-05,53.75,31.45,-165.02,500000,500000,-1.03777e-07,2.54241e-07,-8.65621e-08,0.00139312,0.0253568,-3.90749e-05,0.0256551,3,2788
12,3.47427e-22,2,8525,69.84,-2.72636e-06,1.81771e-05,-3.95983e-08,1.83805e-05,55.25,21.26,155.3,500000,500000,-9.36312e-08,2.52583e-07,-7.95469e-08,0.00186311,0.0308548,0.000473538,0.0312217,3,2789
12,3.49032e-22,2,8526,69.84,-2.81044e-06,1.81291e-05,-4.03481e-08,1.83457e-05,57.25,21.26,155.3,500000,500000,-7.32553e-08,2.33008e-07,-8.0667e-08,0.00157129,0.030739,0.000747639,0.0308006,3,2790
12,3.34536e-22,2,8527,110.23,-2.87287e-06,1.81171e-05,-4.14672e-08,1.83435e-05,60.4375,164.69,-25.3,1.14581e+06,531250,-5.36725e-08,2.12081e-07,-8.34244e-08,0.00209065,0.02991,-0.00035612,0.0306644,3,2791
12,3.24161e-22,2,8528,110.23,-2.91779e-06,1.81163e-05,-4.25056e-08,1.83498e-05,63.0625,164.69,-25.3,2.43744e+06,593750,-3.8983e-08,1.93565e-07,-8.42183e-08,0.0026266,0.0289913,-0.00156824,0.0303044,3,2792
12,3.17907e-22,2,8529,110.23,-2.95084e-06,1.81024e-05,-3.89173e-08,1.83414e-05,65.125,164.69,-25.3,4.37488e+06,687500,-2.97684e-08,1.77376e-07,-7.705e-08,0.00370655,0.0290088,-0.00155329,0.0298478,3,2793
12,3.07483e-22,1,8530,25.38,-2.97733e-06,1.80758e-05,-3.17392e-08,1.83194e-05,68.5625,118.9,132.01,7.60394e+06,843750,-2.58136e-08,1.64674e-07,-6.3888e-08,0.0046577,0.0306761,-0.000116462,0.0299265,2,5735
12,2.99143e-22,1,8531,25.38,-3.00246e-06,1.805e-05,-2.8437e-08,1.82981e-05,71.3125,118.9,132.01,1.01872e+07,968750,-2.54726e-08,1.56835e-07,-5.73379e-08,0.00424981,0.0309399,0.00108131,0.0290092,2,5736
12,2.97059e-22,1,8532,25.38,-3.02827e-06,1.80336e-05,-2.69391e-08,1.82861e-05,72,118.9,132.01,1.0833e+07,1e+06,-2.60375e-08,1.48249e-07,-5.40207e-08,0.00325466,0.0293572,0.00119006,0.0276807,2,5737
12,2.97059e-22,1,8533,25.38,-3.05454e-06,1.80182e-05,-2.54203e-08,1.82753e-05,72,118.9,132.01,1.0833e+07,1e+06,-2.71806e-08,1.4166e-07,-5.07147e-08,0.00260216,0.0279556,0.00105014,0.0267201,2,5738
12,2.97059e-22,1,8534,25.38,-3.08263e-06,1.79922e-05,-2.42241e-08,1.82544e-05,72,118.9,132.01,1.0833e+07,1e+06,-2.89868e-08,1.39747e-07,-4.88749e-08,0.00232634,0.0273528,0.000997305,0.0261537,2,5739
12,2.97059e-22,1,8535,25.38,-3.11251e-06,1.79496e-05,-2.45654e-08,1.82175e-05,72,118.9,132.01,1.0833e+07,1e+06,-3.10384e-08,1.41505e-07,-4.94133e-08,0.00221747,0.0273121,0.000734464,0.026141,2,5740
12,2.97059e-22,1,8536,25.38,-3.14471e-06,1.78878e-05,-2.64037e-08,1.81621e-05,72,118.9,132.01,1.0833e+07,1e+06,-3.39769e-08,1.4901e-07,-5.23369e-08,0.00233316,0.0283545,0.000390658,0.0271842,2,5741
12,2.97059e-22,1,8537,25.38,-3.18046e-06,1.78089e-05,-2.84505e-08,1.80907e-05,72,118.9,132.01,1.0833e+07,1e+06,-3.83693e-08,1.60945e-07,-5.6507e-08,0.00248188,0.0302159,5.21553e-05,0.02909,2,5742
12,2.97059e-22,1,8538,25.38,-3.22145e-06,1.77145e-05,-3.05678e-08,1.8005e-05,72,118.9,132.01,1.0833e+07,1e+06,-4.49138e-08,1.78294e-07,-6.1738e-08,0.00252975,0.0330742,-9.09419e-05,0.0319413,2,5743
12,3.00786e-22,1,8539,25.38,-3.27029e-06,1.76098e-05,-3.45429e-08,1.79109e-05,72.6875,118.9,132.01,1.01872e+07,968750,-5.51887e-08,2.04871e-07,-6.81136e-08,0.00255027,0.0376024,-0.000154053,0.0368325,2,5744
12,3.1942e-22,1,8540,25.38,-3.33183e-06,1.75086e-05,-3.18182e-08,1.78229e-05,76.125,118.9,132.01,6.95812e+06,812500,-7.55787e-08,2.167e-07,-6.34077e-08,0.000981062,0.0361619,-0.000392157,0.0374399,2,5745
12,3.45508e-22,2,8541,70.27,-3.42145e-06,1.74404e-05,-2.70343e-08,1.77728e-05,80.9375,157.22,-160.07,2.43744e+06,593750,-1.00479e-07,2.21292e-07,-5.54994e-08,-0.000624563,0.0291418,7.84715e-05,0.0314781,3,2794
12,3.56688e-22,2,8542,70.27,-3.53278e-06,1.74032e-05,-2.95551e-08,1.77582e-05,83,157.22,-160.07,500000,500000,-1.13356e-07,2.34381e-07,-5.87402e-08,-0.00081651,0.0264092,0.000442393,0.0282391,3,2795
12,3.56688e-22,2,8543,70.27,-3.64816e-06,1.73798e-05,-3.273e-08,1.77586e-05,83,157.22,-160.07,500000,500000,-1.1773e-07,2.46055e-07,-6.51486e-08,-0.000928739,0.0272189,0.000117515,0.0289865,3,2796
12,3.56688e-22,2,8544,70.27,-3.76824e-06,1.73741e-05,-3.5283e-08,1.77781e-05,83,157.22,-160.07,500000,500000,-1.21848e-07,2.58424e-07,-7.06258e-08,-0.000816383,0.0283457,3.78605e-05,0.0298895,3,2797
12,3.56688e-22,2,8545,70.27,-3.89186e-06,1.73806e-05,-3.74063e-08,1.78111e-05,83,157.22,-160.07,500000,500000,-1.24425e-07,2.6767e-07,-7.48025e-08,-0.000639789,0.0292455,3.61785e-06,0.0306071,3,2798
12,3.56688e-22,2,8546,70.27,-4.01709e-06,1.73945e-05,-3.93261e-08,1.78524e-05,83,157.22,-160.07,500000,500000,-1.25872e-07,2.75809e-07,-7.86679e-08,-0.000381059,0.0301748,-3.05899e-06,0.0313801,3,2799
12,3.56688e-22,2,8547,70.27,-4.1436e-06,1.74148e-05,-4.14669e-08,1.7901e-05,83,157.22,-160.07,500000,500000,-1.27159e-07,2.85053e-07,-8.29199e-08,-2.82802e-05,0.0313327,3.46998e-05,0.0323431,3,2800
12,3.56688e-22,2,8548,70.27,-4.27141e-06,1.74435e-05,-4.38721e-08,1.79589e-05,83,157.22,-160.07,500000,500000,-1.27693e-07,2.94386e-07,-8.77573e-08,0.000431029,0.0324837,8.02429e-05,0.0332002,3,2801
12,3.56688e-22,2,8549,70.27,-4.39899e-06,1.74827e-05,-4.63906e-08,1.80277e-05,83,157.22,-160.07,500000,500000,-1.25857e-07,3.00611e-07,-9.28634e-08,0.000992064,0.033198,4.01734e-05,0.0335549,3,2802
12,3.56688e-22,2,8550,70.27,-4.52313e-06,1.75315e-05,-4.88853e-08,1.81057e-05,83,157.22,-160.07,500000,500000,-1.2227e-07,3.03741e-07,-9.7834e-08,0.00157451,0.0334943,-0.000108489,0.0335202,3,2803
12,3.56688e-22,2,8551,70.27,-4.64353e-06,1.75917e-05,-5.12562e-08,1.81943e-05,83,157.22,-160.07,500000,500000,-1.22468e-07,3.11109e-07,-1.02083e-07,0.00202351,0.0342222,-6.42177e-05,0.0338673,3,2804
12,3.56688e-22,2,8552,70.27,-4.76806e-06,1.76733e-05,-5.34343e-08,1.83053e-05,83,157.22,-160.07,500000,500000,-1.28622e-07,3.31843e-07,-1.07909e-07,0.00269526,0.0367363,0.000409118,0.0356673,3,2805
12,3.79091e-22,2,8553,70.27,-4.90077e-06,1.77809e-05,-5.62686e-08,1.8444e-05,84.1875,157.22,-160.07,1.14581e+06,531250,-1.24641e-07,3.38854e-07,-1.1261e-07,0.00282858,0.0402851,-0.000384412,0.0398361,3,2806
12,4.68703e-22,2,8554,70.27,-5.01734e-06,1.78615e-05,-5.11726e-08,1.85529e-05,88.9375,157.22,-160.07,3.72906e+06,656250,-9.68333e-08,2.9342e-07,-1.0028e-07,0.00119481,0.0435518,-0.00268283,0.0457068,3,2807
12,5.73573e-22,1,8555,121.22,-5.09444e-06,1.78573e-05,-3.53214e-08,1.85698e-05,95.5625,-21.83,121.47,7.60394e+06,843750,-6.4492e-08,2.32089e-07,-7.11549e-08,-3.93117e-05,0.0477622,-0.00251223,0.0502991,2,5746
12,6.04088e-22,1,8556,121.22,-5.14633e-06,1.78065e-05,-2.58132e-08,1.85353e-05,99.3125,-21.83,121.47,1.01872e+07,968750,-4.74178e-08,2.05338e-07,-5.24761e-08,0.000852935,0.0516059,-0.000790811,0.0522021,2,5747
12,5.37846e-22,1,8557,121.22,-5.18927e-06,1.77866e-05,-2.44551e-08,1.85281e-05,99,-21.83,121.47,1.0833e+07,1e+06,-4.10811e-08,1.99567e-07,-4.90852e-08,0.00235671,0.0522382,-0.000365461,0.0519371,2,5748
12,4.19652e-22,1,8558,118.57,-5.22849e-06,1.77793e-05,-2.48089e-08,1.85321e-05,97,73.1,-29.9,1.0833e+07,1e+06,-3.85829e-08,1.94865e-07,-4.93802e-08,0.0031824,0.050504,-0.000695256,0.050096,2,5749
12,3.6615e-22,1,8559,118.57,-5.26644e-06,1.77603e-05,-2.42188e-08,1.85247e-05,95.3125,73.1,-29.9,1.0833e+07,1e+06,-3.70759e-08,1.90028e-07,-4.77736e-08,0.00392006,0.0485238,-0.000307105,0.0476254,2,5750
12,3.77339e-22,1,8560,118.57,-5.30264e-06,1.77604e-05,-2.39757e-08,1.85351e-05,93.9375,73.1,-29.9,1.0833e+07,1e+06,-3.32936e-08,1.89651e-07,-4.8626e-08,0.00509577,0.047631,0.000675464,0.0460152,2,5751
12,3.47791e-22,1,8561,118.57,-5.33303e-06,1.77902e-05,-2.78346e-08,1.85724e-05,93.4375,73.1,-29.9,1.0833e+07,1e+06,-2.66271e-08,1.9741e-07,-5.59196e-08,0.00641274,0.050116,0.000408361,0.0483825,2,5752
12,2.77504e-22,1,8562,118.57,-5.3559e-06,1.78216e-05,-2.90347e-08,1.8609e-05,93.8125,73.1,-29.9,1.0833e+07,1e+06,-2.50915e-08,2.03974e-07,-5.7353e-08,0.0070887,0.0531337,1.93188e-05,0.0512233,2,5753
12,2.47087e-22,1,8563,118.57,-5.38321e-06,1.78137e-05,-2.89408e-08,1.86093e-05,94.6875,73.1,-29.9,1.01872e+07,968750,-3.28707e-08,2.12085e-07,-5.7107e-08,0.00680282,0.0529033,5.11139e-06,0.0509233,2,5754
12,2.70719e-22,1,8564,118.57,-5.42164e-06,1.77784e-05,-3.56944e-08,1.85868e-05,98.125,73.1,-29.9,6.95812e+06,812500,-4.39477e-08,2.25425e-07,-7.34607e-08,0.00538605,0.0450473,-8.30562e-06,0.0444763,2,5755
12,3.03803e-22,2,8565,109.29,-5.4711e-06,1.77577e-05,-5.63922e-08,1.85815e-05,102.937,165.44,68.53,2.43744e+06,593750,-5.44126e-08,2.4621e-07,-1.13129e-07,0.00282968,0.0314401,-1.7889e-05,0.0322262,3,2808
12,3.17982e-22,2,8566,109.29,-5.53046e-06,1.7728e-05,-6.94109e-08,1.85707e-05,105,165.44,68.53,500000,500000,-6.60745e-08,2.63104e-07,-1.37178e-07,0.00108845,0.0242867,-0.000357334,0.0250141,3,2809
12,3.17982e-22,2,8567,109.29,-5.60325e-06,1.7637e-05,-6.67073e-08,1.85058e-05,105,165.44,68.53,500000,500000,-8.53609e-08,2.76853e-07,-1.33666e-07,0.00042975,0.0240493,-0.000307698,0.0243567,3,2810
12,3.17982e-22,2,8568,109.29,-5.70119e-06,1.74772e-05,-6.53955e-08,1.83837e-05,105,165.44,68.53,500000,500000,-1.10886e-07,3.04919e-07,-1.31202e-07,-0.000109875,0.0259044,0.000468919,0.0258294,3,2811
12,3.42206e-22,2,8569,109.29,-5.82502e-06,1.72651e-05,-6.42069e-08,1.82214e-05,106,165.44,68.53,1.14581e+06,531250,-1.19783e-07,3.15561e-07,-1.28323e-07,-0.00113251,0.0289665,0.000519124,0.0298931,3,2812
12,4.39103e-22,2,8570,109.29,-5.94075e-06,1.70758e-05,-5.78548e-08,1.80798e-05,110,165.44,68.53,3.72906e+06,656250,-9.09087e-08,2.66285e-07,-1.13759e-07,-0.00316616,0.0308893,-0.000985381,0.0346208,3,2813
12,5.84447e-22,1,8571,9.52003,-6.00684e-06,1.69922e-05,-4.36222e-08,1.80227e-05,116,63.66,-15.5,7.60394e+06,843750,-4.60293e-08,1.89844e-07,-8.83258e-08,-0.00435216,0.0314823,-0.00125311,0.0358809,2,5756
12,6.81343e-22,1,8572,9.52002,-6.03281e-06,1.69931e-05,-3.33619e-08,1.80322e-05,120,63.66,-15.5,1.01872e+07,968750,-2.03394e-08,1.46932e-07,-6.90553e-08,-0.00375147,0.0315624,0.000399247,0.033919,2,5757
12,7.05568e-22,1,8573,9.52002,-6.04752e-06,1.70183e-05,-3.34348e-08,1.80609e-05,121,63.66,-15.5,1.0833e+07,1e+06,-1.31738e-08,1.36141e-07,-6.55482e-08,-0.00312152,0.0307872,0.0007969,0.0322415,2,5758
12,7.05568e-22,1,8574,9.52002,-6.05916e-06,1.70638e-05,-3.65975e-08,1.81076e-05,121,63.66,-15.5,1.0833e+07,1e+06,-1.11173e-08,1.40062e-07,-7.22912e-08,-0.00316032,0.0312276,1.54405e-05,0.0330496,2,5759
12,7.05568e-22,1,8575,9.52003,-6.06975e-06,1.7126e-05,-3.91143e-08,1.81699e-05,121,63.66,-15.5,1.0833e+07,1e+06,-8.84902e-09,1.4731e-07,-7.88668e-08,-0.00289661,0.0327076,-0.000270472,0.0344604,2,5760
12,7.05568e-22,1,8576,9.52003,-6.07686e-06,1.71884e-05,-4.10446e-08,1.8231e-05,121,63.66,-15.5,1.0833e+07,1e+06,-4.5077e-09,1.49581e-07,-8.21825e-08,-0.00191568,0.0332506,-0.000159989,0.0344188,2,5761
12,7.05568e-22,1,8577,9.52003,-6.07877e-06,1.72505e-05,-4.23126e-08,1.82903e-05,121,63.66,-15.5,1.0833e+07,1e+06,-2.78848e-10,1.49942e-07,-8.45289e-08,-0.00098821,0.0333629,-8.79535e-05,0.0339822,2,5762
12,7.05568e-22,1,8578,9.52003,-6.07741e-06,1.73182e-05,-4.36105e-08,1.83536e-05,121,63.66,-15.5,1.0833e+07,1e+06,2.28285e-09,1.52016e-07,-8.71751e-08,-0.000513329,0.0338696,-8.34407e-05,0.0342031,2,5763
12,7.05568e-22,1,8579,9.52003,-6.0742e-06,1.73948e-05,-4.52496e-08,1.84249e-05,121,63.66,-15.5,1.0833e+07,1e+06,3.46184e-09,1.5678e-07,-9.0462e-08,-0.000363235,0.0350118,-5.89717e-05,0.0352322,2,5764
12,7.05568e-22,1,8580,9.52003,-6.07049e-06,1.74806e-05,-4.70211e-08,1.85047e-05,121,63.66,-15.5,1.0833e+07,1e+06,3.43728e-09,1.6294e-07,-9.40105e-08,-0.000499049,0.036445,-7.38906e-05,0.0367376,2,5765
12,7.05568e-22,1,8581,9.52003,-6.06733e-06,1.75739e-05,-4.85655e-08,1.85918e-05,121,63.66,-15.5,1.0833e+07,1e+06,2.41203e-09,1.6886e-07,-9.757e-08,-0.000929187,0.0377282,-0.000265277,0.0383424,2,5766
12,7.05568e-22,1,8582,9.52003,-6.06567e-06,1.76741e-05,-4.94761e-08,1.86861e-05,121,63.66,-15.5,1.0833e+07,1e+06,1.12788e-09,1.7161e-07,-9.92898e-08,-0.00140124,0.0383,-0.000490842,0.0392682,2,5767
12,6.80802e-22,1,8583,9.52003,-6.06507e-06,1.77846e-05,-4.55025e-08,1.87904e-05,120.938,63.66,-15.5,1.01872e+07,968750,-3.86783e-09,1.68575e-07,-9.00709e-08,-0.00106243,0.0376965,4.00579e-06,0.0385313,2,5768
12,6.3127e-22,1,8584,9.52003,-6.0734e-06,1.78974e-05,-3.68986e-08,1.88998e-05,120.812,63.66,-15.5,8.89556e+06,906250,-1.35629e-08,1.64241e-07,-7.36215e-08,1.97266e-05,0.0359469,0.000650657,0.0363662,2,5769
12,6.06504e-22,1,8585,9.52002,-6.0922e-06,1.7974e-05,-3.37122e-08,1.89785e-05,120.75,63.66,-15.5,8.24975e+06,875000,-1.96172e-08,1.6837e-07,-6.78097e-08,0.000461482,0.0362765,0.00110028,0.0364585,2,5770
12,5.74276e-22,1,8586,153.51,1.03616e-08,1.79041e-05,-6.33024e-08,1.79042e-05,29,-89.16,129.77,1.0833e+07,1e+06,2.25035e-08,2.3326e-07,-1.2652e-07,0.0107688,0.0540765,-0.000779741,0.0503833,2,5771
12,5.64594e-22,1,8587,153.51,3.46454e-08,1.80041e-05,-5.67045e-08,1.80042e-05,27.625,-89.16,129.77,1.01872e+07,968750,2.74554e-08,2.15969e-07,-1.12408e-07,0.0121406,0.0504341,0.00168651,0.0446056,2,5772
12,5.0928e-22,1,8588,153.51,6.52725e-08,1.8052e-05,-5.13093e-08,1.80522e-05,20.625,-89.16,129.77,6.95812e+06,812500,2.75873e-08,1.89797e-07,-1.03498e-07,0.011876,0.0404868,0.00104284,0.0357728,2,5773
12,4.27699e-22,2,8589,115.35,8.982e-08,1.80029e-05,-5.50541e-08,1.80032e-05,10.75,-67.69,60.87,2.43744e+06,593750,1.396e-08,1.97575e-07,-1.11175e-07,0.0100355,0.0333484,0.000206972,0.0300846,3,2814
12,3.88365e-22,2,8590,115.35,9.31925e-08,1.78496e-05,-6.18896e-08,1.78499e-05,9.5,-67.69,60.87,500000,500000,-1.84604e-08,2.42533e-07,-1.23515e-07,0.00831156,0.0344382,-0.000716586,0.0337987,3,2815
12,3.85116e-22,2,8591,58.62,5.28993e-08,1.7646e-05,-6.18414e-08,1.76462e-05,18.625,158.52,96.68,500000,500000,-6.34528e-08,2.89638e-07,-1.23461e-07,0.00795626,0.0353052,-0.000322703,0.0364463,3,2816
12,3.88769e-22,2,8592,58.62,-3.37132e-08,1.74573e-05,-6.52587e-08,1.74574e-05,27.875,158.52,96.68,500000,500000,-9.32825e-08,3.18822e-07,-1.30169e-07,0.00792141,0.0318682,7.53284e-05,0.0314713,3,2817
12,3.92288e-22,2,8593,58.62,-1.33666e-07,1.7331e-05,-6.60421e-08,1.73316e-05,31,158.52,96.68,500000,500000,-9.8406e-08,3.20187e-07,-1.32245e-07,0.00786462,0.0293932,0.000168387,0.0270083,3,2818
12,3.92288e-22,2,8594,58.62,-2.30525e-07,1.72753e-05,-6.20206e-08,1.7277e-05,31,158.52,96.68,500000,500000,-9.48952e-08,3.06017e-07,-1.23733e-07,0.0077731,0.0284066,0.00034906,0.0255309,3,2819
12,3.92288e-22,2,8595,58.62,-3.23456e-07,1.72661e-05,-5.79118e-08,1.72692e-05,31,158.52,96.68,500000,500000,-9.25921e-08,2.88414e-07,-1.1564e-07,0.00693741,0.026446,0.000132979,0.0237957,3,2820
12,3.92288e-22,2,8596,58.62,-4.15709e-07,1.72757e-05,-5.47916e-08,1.72808e-05,31,158.52,96.68,500000,500000,-9.48445e-08,2.77874e-07,-1.09689e-07,0.00570933,0.0249513,-4.41078e-06,0.0227059,3,2821
12,3.92288e-22,2,8597,58.62,-5.13145e-07,1.72897e-05,-5.27436e-08,1.72974e-05,31,158.52,96.68,500000,500000,-1.00954e-07,2.75468e-07,-1.05644e-07,0.00451243,0.0242353,4.04009e-05,0.0223613,3,2822
12,3.92288e-22,2,8598,58.62,-6.17617e-07,1.73078e-05,-5.13442e-08,1.73189e-05,31,158.52,96.68,500000,500000,-1.07882e-07,2.7596e-07,-1.02706e-07,0.0034716,0.0237906,6.32319e-05,0.0222726,3,2823
12,3.92288e-22,2,8599,58.62,-7.28909e-07,1.73314e-05,-4.98992e-08,1.73468e-05,31,158.52,96.68,500000,500000,-1.1391e-07,2.76059e-07,-9.9823e-08,0.00257243,0.0234111,6.86673e-05,0.0222409,3,2824
12,3.92288e-22,2,8600,58.62,-8.45437e-07,1.7362e-05,-4.81765e-08,1.73826e-05,31,158.52,96.68,500000,500000,-1.17833e-07,2.73568e-07,-9.6353e-08,0.00183799,0.0229196,6.41311e-05,0.0220757,3,2825
12,3.92288e-22,2,8601,58.62,-9.64575e-07,1.74011e-05,-4.60581e-08,1.74279e-05,31,158.52,96.68,500000,500000,-1.18978e-07,2.6751e-07,-9.2119e-08,0.00129998,0.0222337,4.68048e-05,0.0216825,3,2826
12,3.92288e-22,2,8602,58.62,-1.08339e-06,1.74503e-05,-4.35819e-08,1.74839e-05,31,158.52,96.68,500000,500000,-1.17528e-07,2.58242e-07,-8.7133e-08,0.000965131,0.0213983,3.36119e-05,0.0211097,3,2827
12,3.92288e-22,2,8603,58.62,-1.19963e-06,1.75116e-05,-4.06844e-08,1.75527e-05,31,158.52,96.68,500000,500000,-1.15003e-07,2.47453e-07,-8.1934e-08,0.000723509,0.0204464,-5.42758e-05,0.0205234,3,2828
12,3.92288e-22,2,8604,58.62,-1.3134e-06,1.75859e-05,-3.95612e-08,1.76349e-05,31,158.52,96.68,500000,500000,-1.10628e-07,2.38903e-07,-7.82548e-08,0.000982205,0.0199377,-1.14144e-05,0.0200789,3,2829
12,3.77764e-22,2,8605,58.62,-1.42089e-06,1.76591e-05,-3.63438e-08,1.77162e-05,32.6875,158.52,96.68,2.43744e+06,593750,-9.12638e-08,2.20962e-07,-7.23136e-08,0.00148969,0.0239849,-0.000239498,0.0248501,3,2830
12,3.43874e-22,1,8606,151.34,-1.49593e-06,1.77257e-05,-3.51117e-08,1.77888e-05,36.625,-67.01,136.63,6.95812e+06,812500,-5.63436e-08,2.07532e-07,-7.13629e-08,0.00299361,0.0347553,0.000105115,0.0353399,2,5774
12,3.19668e-22,1,8607,151.34,-1.53357e-06,1.77821e-05,-3.89445e-08,1.78482e-05,39.4375,-67.01,136.63,1.01872e+07,968750,-3.19624e-08,2.05042e-07,-7.76782e-08,0.00440418,0.0420393,0.000351689,0.0416714,2,5775
12,3.14826e-22,1,8608,151.34,-1.55985e-06,1.78302e-05,-4.01113e-08,1.78983e-05,40,-67.01,136.63,1.0833e+07,1e+06,-2.65825e-08,2.02253e-07,-7.9928e-08,0.00450285,0.0429871,-3.06796e-05,0.0428524,2,5776
12,3.14826e-22,1,8609,151.34,-1.58674e-06,1.78808e-05,-3.98845e-08,1.79511e-05,40,-67.01,136.63,1.0833e+07,1e+06,-2.85532e-08,2.04747e-07,-7.96976e-08,0.0042267,0.0436043,2.01885e-06,0.0437029,2,5777
12,3.14826e-22,1,8610,151.34,-1.61696e-06,1.79344e-05,-4.03032e-08,1.80072e-05,40,-67.01,136.63,1.0833e+07,1e+06,-3.33008e-08,2.09071e-07,-8.07972e-08,0.00325351,0.0441885,-0.000364352,0.045034,2,5778
12,3.3076e-22,1,8611,151.34,-1.65334e-06,1.79954e-05,-3.95158e-08,1.80712e-05,40.75,-67.01,136.63,1.0833e+07,1e+06,-4.39071e-08,2.1938e-07,-7.94836e-08,0.00205583,0.0454359,9.00976e-05,0.046473,2,5779
12,3.7196e-22,1,8612,151.34,-1.70477e-06,1.80826e-05,-4.13275e-08,1.81628e-05,42.375,-67.01,136.63,8.89556e+06,906250,-6.20319e-08,2.29714e-07,-8.21309e-08,-0.000206871,0.042392,-0.00067719,0.0450906,2,5780
12,3.98299e-22,2,8613,109.13,-1.7774e-06,1.8189e-05,-4.61527e-08,1.82757e-05,44.75,-112,-156.46,5.02069e+06,718750,-7.41274e-08,2.46392e-07,-9.32348e-08,-0.000576824,0.0355554,0.000319247,0.0381549,3,2831
12,3.75536e-22,2,8614,102.62,-1.85303e-06,1.82472e-05,-6.20275e-08,1.83412e-05,47.375,3.44,160.65,2.43744e+06,593750,-6.95825e-08,2.76172e-07,-1.24402e-07,0.00150305,0.0321072,0.00126771,0.0326354,3,2832
12,3.36124e-22,2,8615,102.62,-1.91657e-06,1.82324e-05,-8.08621e-08,1.8333e-05,48.25,3.44,160.65,1.14581e+06,531250,-6.06829e-08,2.95595e-07,-1.59355e-07,0.0023173,0.0298659,-0.00040833,0.0298058,3,2833
12,3.20548e-22,2,8616,102.62,-1.97439e-06,1.81906e-05,-8.34928e-08,1.82976e-05,48,3.44,160.65,500000,500000,-5.5396e-08,2.91808e-07,-1.67191e-07,0.00225735,0.0273165,-0.000639172,0.0267667,3,2834
12,3.20548e-22,2,8617,102.62,-2.02736e-06,1.81567e-05,-8.15982e-08,1.82697e-05,48,3.44,160.65,500000,500000,-5.0946e-08,2.82718e-07,-1.64649e-07,0.0022097,0.0264739,-0.000626064,0.0259654,3,2835
12,3.20548e-22,2,8618,102.62,-2.07629e-06,1.81375e-05,-8.37333e-08,1.82561e-05,48,3.44,160.65,500000,500000,-5.17992e-08,2.88812e-07,-1.6821e-07,0.00208598,0.0272331,-0.000559163,0.0268253,3,2836
12,3.20548e-22,2,8619,102.62,-2.13096e-06,1.81166e-05,-8.76996e-08,1.82417e-05,48,3.44,160.65,500000,500000,-6.03889e-08,3.07803e-07,-1.74309e-07,0.00195183,0.0290378,-0.000431591,0.0286646,3,2837
12,3.20548e-22,2,8620,102.62,-2.19706e-06,1.80682e-05,-8.72647e-08,1.82015e-05,48,3.44,160.65,500000,500000,-6.83576e-08,3.18758e-07,-1.73449e-07,0.00217479,0.0300545,-6.33624e-05,0.0292937,3,2838
12,3.21194e-22,2,8621,102.62,-2.26767e-06,1.79894e-05,-8.2686e-08,1.8132e-05,48.9375,3.44,160.65,500000,500000,-7.58391e-08,3.19638e-07,-1.64879e-07,0.0026095,0.0305404,-0.000160996,0.0300956,3,2839
12,3.22702e-22,2,8622,103.38,-2.34874e-06,1.79977e-05,-6.71851e-08,1.81504e-05,51.125,31.45,-165.02,500000,500000,-8.98323e-08,2.90097e-07,-1.34823e-07,0.00125207,0.0267824,-0.000679908,0.0276489,3,2840
12,3.23779e-22,2,8623,103.38,-2.44734e-06,1.81149e-05,-5.02273e-08,1.82796e-05,52.6875,31.45,-165.02,500000,500000,-1.01492e-07,2.54711e-07,-1.0204e-07,-0.000116077,0.0218008,-0.00029174,0.0225026,3,2841
12,3.23994e-22,2,8624,103.38,-2.55173e-06,1.82466e-05,-4.62638e-08,1.84243e-05,53,31.45,-165.02,500000,500000,-1.04371e-07,2.47938e-07,-9.23029e-08,0.000250258,0.0209047,0.000273536,0.0206895,3,2842
12,3.31805e-22,2,8625,103.38,-2.65608e-06,1.83861e-05,-4.09509e-08,1.8577e-05,53.75,31.45,-165.02,500000,500000,-1.00884e-07,2.38204e-07,-8.11389e-08,0.000779168,0.0230422,-0.000337699,0.0236796,3,2843
12,3.47427e-22,2,8626,69.84,-2.7535e-06,1.84209e-05,-3.61195e-08,1.86256e-05,55.25,21.26,155.3,500000,500000,-8.97339e-08,2.3128e-07,-7.25617e-08,0.00123227,0.0275565,4.65991e-05,0.0281477,3,2844
12,3.46947e-22,2,8627,69.84,-2.83555e-06,1.83616e-05,-3.77593e-08,1.85793e-05,57.9375,21.26,155.3,1.14581e+06,531250,-7.02594e-08,2.22534e-07,-7.56293e-08,0.00179914,0.0303853,0.000222399,0.0306815,3,2845
12,3.26197e-22,2,8628,110.23,-2.89401e-06,1.83252e-05,-3.74409e-08,1.85523e-05,63.1875,164.69,-25.3,3.72906e+06,656250,-4.49089e-08,1.95502e-07,-7.47189e-08,0.00318442,0.0312965,-0.000919134,0.0321825,3,2846
12,3.09568e-22,1,8629,25.38,-2.92537e-06,1.82982e-05,-3.62694e-08,1.85306e-05,67.875,118.9,132.01,6.95812e+06,812500,-2.45884e-08,1.68091e-07,-7.22851e-08,0.00419211,0.0302834,-0.0014723,0.0307928,2,5781
12,3.03313e-22,1,8630,25.38,-2.94319e-06,1.82659e-05,-3.29729e-08,1.85016e-05,69.9375,118.9,132.01,8.89556e+06,906250,-1.83179e-08,1.54873e-07,-6.60389e-08,0.00467889,0.0295913,-0.000567175,0.0288825,2,5782
12,2.99143e-22,1,8631,25.38,-2.962e-06,1.82303e-05,-2.90629e-08,1.84693e-05,71.3125,118.9,132.01,1.01872e+07,968750,-2.09315e-08,1.51873e-07,-5.88506e-08,0.00446639,0.0301494,0.000736381,0.0283723,2,5783
12,2.97059e-22,1,8632,25.38,-2.98505e-06,1.82019e-05,-2.95423e-08,1.84451e-05,72,118.9,132.01,1.0833e+07,1e+06,-2.35797e-08,1.50869e-07,-5.87672e-08,0.00350199,0.0298421,0.000622062,0.0284294,2,5784
12,2.97059e-22,1,8633,25.38,-3.00916e-06,1.81801e-05,-2.94227e-08,1.84275e-05,72,118.9,132.01,1.0833e+07,1e+06,-2.38775e-08,1.46984e-07,-5.8668e-08,0.00289689,0.0289565,8.85353e-05,0.0282841,2,5785
12,2.97059e-22,1,8634,25.38,-3.03281e-06,1.81589e-05,-2.848e-08,1.84105e-05,72,118.9,132.01,1.0833e+07,1e+06,-2.38293e-08,1.42687e-07,-5.69809e-08,0.00271996,0.027993,-4.06292e-05,0.0273896,2,5786
12,2.97059e-22,1,8635,25.38,-3.05682e-06,1.81312e-05,-2.77847e-08,1.83871e-05,72,118.9,132.01,1.0833e+07,1e+06,-2.50817e-08,1.41695e-07,-5.54762e-08,0.00273631,0.0275817,-1.25589e-05,0.0267559,2,5787
12,2.97059e-22,1,8636,25.38,-3.08297e-06,1.80918e-05,-2.76323e-08,1.83526e-05,72,118.9,132.01,1.0833e+07,1e+06,-2.80531e-08,1.45092e-07,-5.5192e-08,0.00277621,0.0278985,-1.75054e-05,0.0268471,2,5788
12,2.97059e-22,1,8637,25.38,-3.11293e-06,1.80387e-05,-2.81724e-08,1.83053e-05,72,118.9,132.01,1.0833e+07,1e+06,-3.25271e-08,1.53209e-07,-5.64143e-08,0.00281599,0.0290695,-2.8004e-05,0.0278637,2,5789
12,2.97059e-22,1,8638,25.38,-3.14803e-06,1.79723e-05,-2.93807e-08,1.82459e-05,72,118.9,132.01,1.0833e+07,1e+06,-3.8432e-08,1.65052e-07,-5.87995e-08,0.00272215,0.0309459,-4.97937e-05,0.0297312,2,5790
12,2.97059e-22,1,8639,25.38,-3.18979e-06,1.78948e-05,-3.10512e-08,1.81769e-05,72,118.9,132.01,1.0833e+07,1e+06,-4.55503e-08,1.80626e-07,-6.18783e-08,0.00254568,0.0336526,8.56501e-05,0.0324093,2,5791
12,2.97059e-22,1,8640,25.38,-3.23913e-06,1.78102e-05,-3.29908e-08,1.81024e-05,72,118.9,132.01,1.0833e+07,1e+06,-5.19994e-08,1.98261e-07,-6.60296e-08,0.00258081,0.0368895,0.000300465,0.0354172,2,5792
12,3.08239e-22,1,8641,25.38,-3.29379e-06,1.77209e-05,-3.23393e-08,1.80244e-05,74.0625,118.9,132.01,8.89556e+06,906250,-6.29772e-08,2.13695e-07,-6.54416e-08,0.00245077,0.0384466,0.000310896,0.0379972,2,5793
12,3.34327e-22,2,8642,70.27,-3.36508e-06,1.76599e-05,-3.00461e-08,1.79776e-05,78.875,157.22,-160.07,4.37488e+06,687500,-8.50224e-08,2.16792e-07,-5.95304e-08,0.000547282,0.0324564,-0.000244855,0.0342675,3,2847
12,3.52961e-22,2,8643,70.27,-3.46384e-06,1.76339e-05,-2.91018e-08,1.79709e-05,82.3125,157.22,-160.07,1.14581e+06,531250,-1.0743e-07,2.24198e-07,-5.78242e-08,-0.001201,0.0263384,-0.000244148,0.0288597,3,2848
12,3.56688e-22,2,8644,70.27,-3.57994e-06,1.76244e-05,-3.09908e-08,1.79843e-05,83,157.22,-160.07,500000,500000,-1.19229e-07,2.43367e-07,-6.25385e-08,-0.00127568,0.0268732,0.000151112,0.0289179,3,2849
12,3.56688e-22,2,8645,70.27,-3.70229e-06,1.76321e-05,-3.44543e-08,1.80166e-05,83,157.22,-160.07,500000,500000,-1.2365e-07,2.56704e-07,-6.87449e-08,-0.00117457,0.0280714,-1.56028e-05,0.0299123,3,2850
12,3.56688e-22,2,8646,70.27,-3.82724e-06,1.7648e-05,-3.66621e-08,1.80582e-05,83,157.22,-160.07,500000,500000,-1.26388e-07,2.67002e-07,-7.3311e-08,-0.000956954,0.0291276,-3.76811e-05,0.030766,3,2851
12,3.56688e-22,2,8647,70.27,-3.95507e-06,1.76708e-05,-3.85675e-08,1.81081e-05,83,157.22,-160.07,500000,500000,-1.29212e-07,2.77123e-07,-7.71468e-08,-0.000727684,0.0302936,1.36918e-05,0.0317672,3,2852
12,3.56688e-22,2,8648,70.27,-4.08566e-06,1.77003e-05,-4.04954e-08,1.81658e-05,83,157.22,-160.07,500000,500000,-1.31269e-07,2.86581e-07,-8.09938e-08,-0.000456783,0.0314637,5.79752e-05,0.0327935,3,2853
12,3.56688e-22,2,8649,70.27,-4.21761e-06,1.7737e-05,-4.24172e-08,1.82316e-05,83,157.22,-160.07,500000,500000,-1.31459e-07,2.93692e-07,-8.48279e-08,-0.00010343,0.0323875,7.15063e-05,0.0335342,3,2854
12,3.56688e-22,2,8650,70.27,-4.34858e-06,1.7781e-05,-4.41231e-08,1.83051e-05,83,157.22,-160.07,500000,500000,-1.29941e-07,2.97367e-07,-8.82981e-08,0.000242665,0.032831,1.93457e-06,0.0337923,3,2855
12,3.56688e-22,2,8651,70.27,-4.47749e-06,1.78331e-05,-4.54953e-08,1.83866e-05,83,157.22,-160.07,500000,500000,-1.28768e-07,3.00021e-07,-9.09708e-08,0.000546301,0.0330474,-3.54018e-05,0.033751,3,2856
12,3.56688e-22,2,8652,70.27,-4.60612e-06,1.79003e-05,-4.60354e-08,1.84835e-05,83,157.22,-160.07,500000,500000,-1.30455e-07,3.06077e-07,-9.23615e-08,0.000907802,0.0335563,0.000339259,0.0336361,3,2857
12,3.79091e-22,2,8653,70.27,-4.7384e-06,1.80022e-05,-4.77615e-08,1.86155e-05,84.1875,157.22,-160.07,1.14581e+06,531250,-1.27621e-07,3.11792e-07,-9.54191e-08,0.000891674,0.0365698,-0.000156758,0.0369334,3,2858
12,4.68703e-22,2,8654,70.27,-4.86136e-06,1.81023e-05,-4.39256e-08,1.87438e-05,88.9375,157.22,-160.07,3.72906e+06,656250,-1.0441e-07,2.78947e-07,-8.5674e-08,-0.000426835,0.0408251,-0.00167772,0.0431148,3,2859
12,6.03122e-22,1,8655,121.22,-4.94722e-06,1.81139e-05,-2.77102e-08,1.87774e-05,96.0625,-21.83,121.47,7.60394e+06,843750,-6.98252e-08,2.15592e-07,-5.63019e-08,-0.00135606,0.0441136,-0.000888822,0.0464032,2,5794
12,6.92734e-22,1,8656,121.22,-5.00101e-06,1.80533e-05,-1.70381e-08,1.87332e-05,100.812,-21.83,121.47,1.01872e+07,968750,-5.13103e-08,1.86281e-07,-3.65214e-08,-0.000991497,0.0478423,0.00143271,0.048046,2,5795
12,7.15137e-22,1,8657,121.22,-5.04984e-06,1.80015e-05,-1.972e-08,1.86964e-05,102,-21.83,121.47,1.0833e+07,1e+06,-5.11585e-08,1.92742e-07,-3.85192e-08,-0.0014179,0.0509855,0.00152106,0.0509839,2,5796
12,6.85588e-22,1,8658,121.22,-5.10333e-06,1.7985e-05,-2.19089e-08,1.86951e-05,101.5,-21.83,121.47,1.0833e+07,1e+06,-5.40517e-08,1.95445e-07,-4.36513e-08,-0.00232352,0.0506525,0.000121254,0.051933,2,5797
12,6.32086e-22,1,8659,121.22,-5.15794e-06,1.79722e-05,-2.2282e-08,1.86977e-05,99.8125,-21.83,121.47,1.0833e+07,1e+06,-5.32376e-08,1.93118e-07,-4.40781e-08,-0.00140458,0.0492383,-0.000344756,0.05067,2,5798
12,6.24917e-22,1,8660,121.22,-5.2098e-06,1.79519e-05,-2.24722e-08,1.86926e-05,96.5625,-21.83,121.47,1.0833e+07,1e+06,-5.28472e-08,1.98535e-07,-4.51185e-08,0.00101777,0.0482517,0.000582374,0.0484932,2,5799
12,6.52892e-22,1,8661,67.29,-5.26364e-06,1.79568e-05,-2.67129e-08,1.87124e-05,93.125,-176.48,-157.74,1.0833e+07,1e+06,-5.2827e-08,2.09286e-07,-5.419e-08,0.00277304,0.0468393,0.00108219,0.0459858,2,5800
12,5.93795e-22,1,8662,67.29,-5.31546e-06,1.79943e-05,-3.34544e-08,1.87629e-05,92.125,-176.48,-157.74,1.0833e+07,1e+06,-4.3975e-08,2.14882e-07,-6.58241e-08,0.00390657,0.0482258,-4.29699e-05,0.0475641,2,5801
12,4.53221e-22,1,8663,118.57,-5.35159e-06,1.80268e-05,-3.34881e-08,1.88044e-05,92.875,73.1,-29.9,1.0833e+07,1e+06,-3.25722e-08,2.1647e-07,-6.73584e-08,0.00579633,0.052189,-0.000217293,0.0510004,2,5802
12,3.6197e-22,1,8664,118.57,-5.3806e-06,1.80379e-05,-3.83539e-08,1.88233e-05,95.5,73.1,-29.9,8.89556e+06,906250,-3.47595e-08,2.45884e-07,-7.80839e-08,0.00781449,0.0551331,0.000783762,0.0533062,2,5803
12,3.24768e-22,2,8665,109.29,-5.42111e-06,1.80292e-05,-6.09597e-08,1.88267e-05,100.688,165.44,68.53,4.37488e+06,687500,-4.40678e-08,2.79141e-07,-1.20331e-07,0.00634076,0.0450583,4.91666e-05,0.0451956,3,2860
12,3.13256e-22,2,8666,109.29,-5.46874e-06,1.80215e-05,-7.86293e-08,1.88332e-05,104.312,165.44,68.53,1.14581e+06,531250,-4.93791e-08,2.82856e-07,-1.56442e-07,0.00306447,0.0304267,-0.00107469,0.0320941,3,2861
12,3.17982e-22,2,8667,109.29,-5.51986e-06,1.80017e-05,-7.82741e-08,1.88291e-05,105,165.44,68.53,500000,500000,-5.91214e-08,2.8342e-07,-1.57581e-07,0.00195621,0.0266065,-0.000674594,0.027425,3,2862
12,3.17982e-22,2,8668,109.29,-5.58698e-06,1.79237e-05,-7.4918e-08,1.87744e-05,105,165.44,68.53,500000,500000,-7.90375e-08,2.95171e-07,-1.49815e-07,0.00134898,0.026552,-0.000179633,0.026516,3,2863
12,3.17982e-22,2,8669,109.29,-5.67794e-06,1.7787e-05,-7.31626e-08,1.86714e-05,105,165.44,68.53,500000,500000,-1.02953e-07,3.15204e-07,-1.4625e-07,0.000348523,0.0271899,4.96657e-05,0.0271396,3,2864
12,3.17982e-22,2,8670,109.29,-5.79289e-06,1.7599e-05,-7.17543e-08,1.8528e-05,105,165.44,68.53,500000,500000,-1.22564e-07,3.36045e-07,-1.43818e-07,-0.000278203,0.0287638,0.000633644,0.0286066,3,2865
12,3.42206e-22,2,8671,109.29,-5.92307e-06,1.73866e-05,-6.90251e-08,1.8368e-05,106,165.44,68.53,1.14581e+06,531250,-1.20695e-07,3.28947e-07,-1.39007e-07,-0.00142282,0.0303445,0.000155078,0.0315491,3,2866
12,4.39103e-22,2,8672,109.29,-6.03428e-06,1.72194e-05,-6.30904e-08,1.82462e-05,110,165.44,68.53,3.72906e+06,656250,-8.70756e-08,2.68481e-07,-1.24464e-07,-0.00410273,0.0309806,-0.0021906,0.0355205,3,2867
12,5.62284e-22,1,8673,9.52003,-6.09722e-06,1.71493e-05,-4.7152e-08,1.8201e-05,115.562,63.66,-15.5,6.95812e+06,812500,-5.34041e-08,1.99092e-07,-9.27175e-08,-0.00515473,0.0311203,-0.00212677,0.0364447,2,5804
12,6.14855e-22,1,8674,9.52002,-6.14108e-06,1.71536e-05,-3.17304e-08,1.82198e-05,118.688,63.66,-15.5,8.24975e+06,875000,-4.21768e-08,1.71165e-07,-6.56878e-08,-0.00345429,0.0314223,0.000705454,0.0343399,2,5805
12,6.39079e-22,1,8675,9.52002,-6.18157e-06,1.72045e-05,-3.36846e-08,1.82813e-05,119.688,63.66,-15.5,8.89556e+06,906250,-2.80563e-08,1.62e-07,-6.81005e-08,-0.00222013,0.0320661,0.0010815,0.0337701,2,5806
12,6.83405e-22,1,8676,9.52003,-6.1972e-06,1.72745e-05,-4.13363e-08,1.83526e-05,120.562,63.66,-15.5,1.01872e+07,968750,-7.6728e-09,1.52349e-07,-8.1631e-08,-0.00147768,0.0326248,-0.000219994,0.0340249,2,5807
12,7.05568e-22,1,8677,9.52003,-6.19692e-06,1.73384e-05,-4.31505e-08,1.84126e-05,121,63.66,-15.5,1.0833e+07,1e+06,1.55331e-09,1.49069e-07,-8.64433e-08,-0.000605607,0.0328429,-0.000423799,0.0335485,2,5808
12,7.05568e-22,1,8678,9.52003,-6.19409e-06,1.73999e-05,-4.30983e-08,1.84696e-05,121,63.66,-15.5,1.0833e+07,1e+06,4.06842e-09,1.48331e-07,-8.63494e-08,7.2692e-06,0.0328782,-0.000144806,0.0330801,2,5809
12,7.05568e-22,1,8679,9.52003,-6.18878e-06,1.74691e-05,-4.37116e-08,1.8533e-05,121,63.66,-15.5,1.0833e+07,1e+06,5.68735e-09,1.48929e-07,-8.73152e-08,0.00027934,0.033148,-6.64967e-05,0.0330942,2,5810
12,7.05568e-22,1,8680,9.52003,-6.18272e-06,1.75503e-05,-4.50598e-08,1.86076e-05,121,63.66,-15.5,1.0833e+07,1e+06,5.85141e-09,1.53766e-07,-9.00953e-08,0.000160002,0.0343486,-4.68726e-05,0.0343051,2,5811
12,7.05568e-22,1,8681,9.52003,-6.17708e-06,1.76425e-05,-4.67286e-08,1.86927e-05,121,63.66,-15.5,1.0833e+07,1e+06,5.0399e-09,1.607e-07,-9.34427e-08,-0.000154277,0.036009,-1.74678e-05,0.0361145,2,5812
12,7.05568e-22,1,8682,9.52003,-6.17264e-06,1.77418e-05,-4.81363e-08,1.8785e-05,121,63.66,-15.5,1.0833e+07,1e+06,3.70641e-09,1.67035e-07,-9.62135e-08,-0.000553464,0.0375019,-5.10488e-06,0.0378253,2,5813
12,7.05568e-22,1,8683,9.52003,-6.16966e-06,1.78454e-05,-4.86168e-08,1.88819e-05,121,63.66,-15.5,1.0833e+07,1e+06,2.26592e-09,1.70472e-07,-9.76677e-08,-0.000982875,0.0382819,-8.70263e-05,0.0388858,2,5814
12,7.05568e-22,1,8684,9.52003,-6.1681e-06,1.79516e-05,-4.78832e-08,1.89818e-05,121,63.66,-15.5,1.0833e+07,1e+06,2.40959e-09,1.67177e-07,-9.6343e-08,-0.000982083,0.0375004,-0.000211439,0.0381559,2,5815
12,7.05568e-22,1,8685,9.52003,-6.16484e-06,1.80523e-05,-4.69334e-08,1.9076e-05,121,63.66,-15.5,1.0833e+07,1e+06,4.96278e-09,1.57953e-07,-9.3506e-08,-0.000403843,0.0352558,-0.000445739,0.0357347,2,5816
12,7.05568e-22,1,8686,9.52003,-6.15818e-06,1.81308e-05,-4.7619e-08,1.91481e-05,121,63.66,-15.5,1.0833e+07,1e+06,7.16868e-09,1.5972e-07,-9.46745e-08,0.000259683,0.0357263,-0.000189832,0.0357451,2,5817
12,5.74276e-22,1,8687,153.51,1.0835e-08,1.81357e-05,-6.39889e-08,1.81358e-05,29,-89.16,129.77,1.0833e+07,1e+06,2.27704e-08,2.34134e-07,-1.28362e-07,0.0106477,0.0544393,-0.00136908,0.051249,2,5818
12,5.4523e-22,1,8688,153.51,3.47059e-08,1.82227e-05,-5.60252e-08,1.82228e-05,24.875,-89.16,129.77,8.89556e+06,906250,2.3541e-08,2.17768e-07,-1.11485e-07,0.0114434,0.0497832,0.00134049,0.0445168,2,5819
12,4.77455e-22,2,8689,115.35,5.79171e-08,1.82421e-05,-5.12567e-08,1.82422e-05,15.25,-67.69,60.87,4.37488e+06,687500,2.10358e-08,1.93995e-07,-1.02006e-07,0.0105043,0.0396419,0.000581202,0.0355287,3,2868
12,4.29045e-22,2,8690,115.35,7.67775e-08,1.81842e-05,-5.1312e-08,1.81844e-05,8.375,-67.69,60.87,1.14581e+06,531250,1.43484e-08,1.89196e-07,-1.02003e-07,0.00898793,0.0338392,4.96731e-05,0.0305363,3,2869
12,4.1767e-22,2,8691,115.35,8.66138e-08,1.8071e-05,-5.06385e-08,1.80713e-05,8.5,-67.69,60.87,500000,500000,-6.87957e-09,2.1889e-07,-1.01951e-07,0.00816105,0.0367759,0.0010678,0.0335228,3,2870
12,4.0921e-22,2,8692,115.35,6.30184e-08,1.7919e-05,-4.61812e-08,1.79192e-05,16,-67.69,60.87,500000,500000,-5.27578e-08,2.6199e-07,-9.55518e-08,0.00722655,0.03782,0.00247198,0.0354229,3,2871
12,3.97365e-22,2,8693,58.62,-1.89017e-08,1.7775e-05,-5.75592e-08,1.77751e-05,26.5,158.52,96.68,500000,500000,-9.91199e-08,3.05786e-07,-1.1391e-07,0.00568961,0.0320394,0.00104319,0.0309592,3,2872
12,3.92288e-22,2,8694,58.62,-1.35221e-07,1.76618e-05,-6.66195e-08,1.76625e-05,31,158.52,96.68,500000,500000,-1.15677e-07,3.22866e-07,-1.30873e-07,0.00472651,0.0277468,-0.000573277,0.026751,3,2873
12,3.92288e-22,2,8695,58.62,-2.50256e-07,1.75886e-05,-6.11154e-08,1.75905e-05,31,158.52,96.68,500000,500000,-1.11738e-07,3.10602e-07,-1.23136e-07,0.00489761,0.0271368,-0.000379843,0.0255494,3,2874
12,3.92288e-22,2,8696,58.62,-3.58697e-07,1.75588e-05,-5.74273e-08,1.75626e-05,31,158.52,96.68,500000,500000,-1.06175e-07,2.94602e-07,-1.14801e-07,0.00499764,0.0260316,-0.000253064,0.0241795,3,2875
12,3.92288e-22,2,8697,58.62,-4.62606e-07,1.75556e-05,-5.40931e-08,1.75618e-05,31,158.52,96.68,500000,500000,-1.04036e-07,2.82702e-07,-1.08299e-07,0.00462354,0.0249379,-0.000147814,0.0231456,3,2876
12,3.92288e-22,2,8698,58.62,-5.66768e-07,1.75656e-05,-5.18307e-08,1.75748e-05,31,158.52,96.68,500000,500000,-1.0606e-07,2.77143e-07,-1.03685e-07,0.00398361,0.0242117,-2.26335e-05,0.022574,3,2877
12,3.92288e-22,2,8699,58.62,-6.74725e-07,1.75827e-05,-5.00575e-08,1.75958e-05,31,158.52,96.68,500000,500000,-1.10293e-07,2.7455e-07,-1.00135e-07,0.00315427,0.023627,2.1839e-05,0.0222821,3,2878
12,3.92288e-22,2,8700,58.62,-7.87355e-07,1.76054e-05,-4.83806e-08,1.7623e-05,31,158.52,96.68,500000,500000,-1.14703e-07,2.72404e-07,-9.67691e-08,0.0023306,0.0230976,4.12521e-05,0.0220925,3,2879
12,3.92288e-22,2,8701,58.62,-9.04132e-07,1.76331e-05,-4.6592e-08,1.76563e-05,31,158.52,96.68,500000,500000,-1.18119e-07,2.69128e-07,-9.31839e-08,0.00159222,0.0225284,5.02971e-05,0.0218709,3,2880
12,3.92288e-22,2,8702,58.62,-1.02359e-06,1.76663e-05,-4.45557e-08,1.7696e-05,31,158.52,96.68,500000,500000,-1.19624e-07,2.63415e-07,-8.90989e-08,0.000985473,0.0218244,5.1541e-05,0.0214938,3,2881
12,3.92288e-22,2,8703,58.62,-1.14338e-06,1.77058e-05,-4.20737e-08,1.77428e-05,31,158.52,96.68,500000,500000,-1.1834e-07,2.54038e-07,-8.41162e-08,0.000579385,0.0209243,5.74813e-05,0.0208682,3,2882
12,3.92288e-22,2,8704,58.62,-1.26027e-06,1.77544e-05,-3.89696e-08,1.77991e-05,31,158.52,96.68,500000,500000,-1.135e-07,2.39913e-07,-7.78097e-08,0.00048006,0.0197637,7.26809e-05,0.0199588,3,2883
12,3.87447e-22,2,8705,58.62,-1.37038e-06,1.78184e-05,-3.46986e-08,1.7871e-05,31.5625,158.52,96.68,1.14581e+06,531250,-1.01005e-07,2.2099e-07,-6.99231e-08,0.000876843,0.0201026,0.00020351,0.0204725,3,2884
12,3.6324e-22,2,8706,58.62,-1.46228e-06,1.78761e-05,-3.43996e-08,1.79359e-05,34.375,158.52,96.68,4.37488e+06,687500,-7.35825e-08,2.10191e-07,-6.88024e-08,0.00234357,0.0284943,0.000161337,0.02901,3,2885
12,3.2935e-22,1,8707,151.34,-1.51754e-06,1.79287e-05,-3.84211e-08,1.79929e-05,38.3125,-67.01,136.63,8.89556e+06,906250,-4.34646e-08,2.06702e-07,-7.61779e-08,0.0034906,0.0389448,-9.18527e-05,0.0390988,2,5820
12,3.14826e-22,1,8708,151.34,-1.54921e-06,1.79854e-05,-4.00623e-08,1.8052e-05,40,-67.01,136.63,1.0833e+07,1e+06,-3.1697e-08,2.05198e-07,-8.03184e-08,0.0036135,0.0426919,-0.000115321,0.0425136,2,5821
12,3.14826e-22,1,8709,151.34,-1.58094e-06,1.80355e-05,-3.99376e-08,1.81047e-05,40,-67.01,136.63,1.0833e+07,1e+06,-3.24153e-08,2.07072e-07,-8.00439e-08,0.00354864,0.0434393,-8.87482e-05,0.0435463,2,5822
12,3.14826e-22,1,8710,151.34,-1.61404e-06,1.80875e-05,-3.98836e-08,1.81595e-05,40,-67.01,136.63,1.0833e+07,1e+06,-3.45273e-08,2.08514e-07,-7.9751e-08,0.00315368,0.043682,-0.00012348,0.0440549,2,5823
12,3.14826e-22,1,8711,151.34,-1.64999e-06,1.81458e-05,-4.03888e-08,1.82207e-05,40,-67.01,136.63,1.0833e+07,1e+06,-4.00248e-08,2.13326e-07,-8.07181e-08,0.00218095,0.0441307,-0.00041864,0.0450247,2,5824
12,3.62628e-22,1,8712,151.34,-1.69409e-06,1.82202e-05,-3.86241e-08,1.82988e-05,42.25,-67.01,136.63,1.0833e+07,1e+06,-5.37212e-08,2.24929e-07,-7.65618e-08,0.00142205,0.0448928,0.000601084,0.0453565,2,5825
12,4.62718e-22,1,8713,72.45,-1.75744e-06,1.83089e-05,-3.45943e-08,1.83931e-05,46.5625,-130,-165.58,1.01872e+07,968750,-7.10007e-08,2.23612e-07,-6.81541e-08,1.18509e-05,0.0406537,0.000773878,0.0413424,2,5826
12,5.15365e-22,1,8714,72.45,-1.83609e-06,1.84069e-05,-2.84348e-08,1.84983e-05,49.125,-130,-165.58,8.89556e+06,906250,-7.91895e-08,2.06924e-07,-5.82341e-08,-0.0015636,0.0333122,0.00101564,0.034642,2,5827
12,4.8044e-22,1,8715,72.45,-1.91581e-06,1.84894e-05,-3.31599e-08,1.85884e-05,49.8125,-130,-165.58,6.95812e+06,812500,-7.58702e-08,2.14553e-07,-6.93455e-08,-0.00081412,0.0309689,0.00107411,0.0325607,2,5828
12,3.98429e-22,2,8716,102.62,-1.98783e-06,1.85145e-05,-5.51592e-08,1.8621e-05,49.25,3.44,160.65,3.72906e+06,656250,-6.79228e-08,2.51751e-07,-1.0983e-07,0.00124657,0.0305131,0.000222226,0.0315299,3,2886
12,3.36124e-22,2,8717,102.62,-2.05166e-06,1.84808e-05,-7.30402e-08,1.85945e-05,48.25,3.44,160.65,1.14581e+06,531250,-6.2036e-08,2.76974e-07,-1.43675e-07,0.00194548,0.0279558,8.56654e-05,0.0277017,3,2887
12,3.20548e-22,2,8718,102.62,-2.11191e-06,1.84361e-05,-7.70098e-08,1.85568e-05,48,3.44,160.65,500000,500000,-5.86158e-08,2.74889e-07,-1.54038e-07,0.00117922,0.0255572,-0.000722019,0.0256253,3,2888
12,3.25208e-22,2,8719,102.62,-2.16889e-06,1.8422e-05,-7.60482e-08,1.85494e-05,47.8125,3.44,160.65,500000,500000,-5.52799e-08,2.71696e-07,-1.52409e-07,0.000950977,0.0267544,-0.000950176,0.0272232,3,2889
12,3.34528e-22,2,8720,102.62,-2.22247e-06,1.84224e-05,-7.52131e-08,1.85562e-05,47.4375,3.44,160.65,500000,500000,-5.27843e-08,2.7805e-07,-1.50609e-07,0.00170304,0.0300588,-0.000555405,0.030092,3,2890
12,3.34528e-22,2,8721,102.62,-2.27446e-06,1.83857e-05,-7.64963e-08,1.85261e-05,47.4375,3.44,160.65,500000,500000,-5.40474e-08,2.89599e-07,-1.52781e-07,0.0028528,0.0314822,0.000263188,0.0304418,3,2891
12,3.25423e-22,2,8722,102.62,-2.33056e-06,1.83084e-05,-8.0453e-08,1.84563e-05,48.125,3.44,160.65,500000,500000,-5.77035e-08,3.01898e-07,-1.60973e-07,0.00342622,0.0309293,0.000431137,0.0298172,3,2892
12,3.21625e-22,2,8723,102.62,-2.38987e-06,1.82876e-05,-7.40388e-08,1.84433e-05,49.5625,3.44,160.65,500000,500000,-6.9271e-08,2.83938e-07,-1.47809e-07,0.00136746,0.0273657,-0.000786345,0.0286122,3,2893
12,3.22917e-22,2,8724,103.38,-2.4691e-06,1.83699e-05,-5.73199e-08,1.85352e-05,51.4375,31.45,-165.02,500000,500000,-9.44238e-08,2.53422e-07,-1.1407e-07,-0.00180997,0.0222222,-0.00163228,0.0253766,3,2894
12,3.23779e-22,2,8725,103.38,-2.57872e-06,1.84955e-05,-4.55852e-08,1.86745e-05,52.6875,31.45,-165.02,500000,500000,-1.1169e-07,2.41911e-07,-9.13362e-08,-0.0024609,0.0197364,-0.00102163,0.0221581,3,2895
12,3.6249e-22,2,8726,103.38,-2.69248e-06,1.86163e-05,-3.53766e-08,1.881e-05,53.8125,31.45,-165.02,1.14581e+06,531250,-1.00644e-07,2.13235e-07,-7.11178e-08,-0.00193329,0.0203743,-0.00094827,0.0228956,3,2896
12,4.39482e-22,2,8727,69.84,-2.78e-06,1.86397e-05,-3.19065e-08,1.88459e-05,55.4375,21.26,155.3,2.43744e+06,593750,-7.20102e-08,1.91682e-07,-6.38614e-08,-0.000441158,0.0249619,-0.000854508,0.0270317,3,2897
12,4.34833e-22,2,8728,69.84,-2.8365e-06,1.85741e-05,-3.44956e-08,1.87895e-05,59.5,21.26,155.3,4.37487e+06,687500,-4.60327e-08,1.88925e-07,-6.86296e-08,0.0025017,0.0306605,-0.000439054,0.0312039,3,2898
12,3.46458e-22,1,8729,25.38,-2.87207e-06,1.85081e-05,-3.19131e-08,1.87296e-05,66.6875,118.9,132.01,7.60394e+06,843750,-2.86268e-08,1.71244e-07,-6.37275e-08,0.00470235,0.0321944,0.000218535,0.0313186,2,5829
12,2.99143e-22,1,8730,25.38,-2.89376e-06,1.84525e-05,-2.90083e-08,1.8678e-05,71.3125,118.9,132.01,1.01872e+07,968750,-2.02143e-08,1.5264e-07,-5.88117e-08,0.0048524,0.0303338,0.000921865,0.0282343,2,5830
12,2.97059e-22,1,8731,25.38,-2.9125e-06,1.84122e-05,-2.85097e-08,1.86411e-05,72,118.9,132.01,1.0833e+07,1e+06,-2.01193e-08,1.46842e-07,-5.75998e-08,0.0040665,0.0293138,0.000883556,0.0274274,2,5831
12,2.97059e-22,1,8732,25.38,-2.93399e-06,1.83795e-05,-2.96296e-08,1.86123e-05,72,118.9,132.01,1.0833e+07,1e+06,-2.27896e-08,1.48704e-07,-5.84735e-08,0.00339831,0.0294965,0.000535361,0.0282659,2,5832
12,2.97059e-22,1,8733,25.38,-2.95808e-06,1.83518e-05,-2.98539e-08,1.85887e-05,72,118.9,132.01,1.0833e+07,1e+06,-2.44551e-08,1.49555e-07,-5.96841e-08,0.00286767,0.0294532,0.000105469,0.0288353,2,5833
12,2.97059e-22,1,8734,25.38,-2.9829e-06,1.83275e-05,-2.9615e-08,1.85687e-05,72,118.9,132.01,1.0833e+07,1e+06,-2.48612e-08,1.48333e-07,-5.92978e-08,0.0026747,0.0291404,-4.42986e-06,0.0286699,2,5834
12,2.97059e-22,1,8735,25.38,-3.0078e-06,1.83036e-05,-2.91703e-08,1.85491e-05,72,118.9,132.01,1.0833e+07,1e+06,-2.52746e-08,1.46812e-07,-5.83124e-08,0.00267321,0.0287021,-3.489e-05,0.0281054,2,5835
12,2.97059e-22,1,8736,25.38,-3.03345e-06,1.82756e-05,-2.87314e-08,1.85256e-05,72,118.9,132.01,1.0833e+07,1e+06,-2.67753e-08,1.47183e-07,-5.74481e-08,0.00274118,0.0285236,-5.5788e-05,0.0276837,2,5836
12,2.97059e-22,1,8737,25.38,-3.06135e-06,1.82398e-05,-2.8587e-08,1.84949e-05,72,118.9,132.01,1.0833e+07,1e+06,-2.97822e-08,1.50751e-07,-5.7162e-08,0.00279454,0.0288848,-5.04282e-05,0.0278119,2,5837
12,2.97059e-22,1,8738,25.38,-3.09302e-06,1.81942e-05,-2.89121e-08,1.84553e-05,72,118.9,132.01,1.0833e+07,1e+06,-3.41746e-08,1.57801e-07,-5.78241e-08,0.00277284,0.0298823,-3.68767e-05,0.0286834,2,5838
12,2.97059e-22,1,8739,25.38,-3.1297e-06,1.8139e-05,-2.9809e-08,1.8407e-05,72,118.9,132.01,1.0833e+07,1e+06,-3.95024e-08,1.68056e-07,-5.96334e-08,0.00266957,0.0315144,-2.07139e-05,0.0302974,2,5839
12,2.97059e-22,1,8740,25.38,-3.17202e-06,1.80757e-05,-3.12555e-08,1.8352e-05,72,118.9,132.01,1.0833e+07,1e+06,-4.50813e-08,1.80977e-07,-6.25427e-08,0.00255754,0.0337676,3.58534e-05,0.0325505,2,5840
12,2.97059e-22,1,8741,25.38,-3.21986e-06,1.80063e-05,-3.31756e-08,1.8292e-05,72,118.9,132.01,1.0833e+07,1e+06,-5.05019e-08,1.95679e-07,-6.68901e-08,0.00238473,0.0364012,2.07282e-05,0.0352373,2,5841
12,3.00786e-22,1,8742,25.38,-3.27303e-06,1.7936e-05,-3.62295e-08,1.82322e-05,72.6875,118.9,132.01,1.01872e+07,968750,-5.74563e-08,2.12757e-07,-7.1725e-08,0.0021706,0.0391711,-0.000327765,0.0386615,2,5842
12,3.1942e-22,1,8743,25.38,-3.33477e-06,1.7874e-05,-3.1955e-08,1.81824e-05,76.125,118.9,132.01,6.95813e+06,812500,-7.45506e-08,2.11929e-07,-6.34382e-08,0.000556109,0.0352403,-0.000744504,0.0368114,2,5843
12,3.45508e-22,2,8744,70.27,-3.42213e-06,1.78516e-05,-2.75679e-08,1.81767e-05,80.9375,157.22,-160.07,2.43744e+06,593750,-9.9677e-08,2.17381e-07,-5.58797e-08,-0.00088464,0.028078,-0.000153291,0.0305118,3,2899
12,3.56688e-22,2,8745,70.27,-3.53413e-06,1.78666e-05,-3.12283e-08,1.82128e-05,83,157.22,-160.07,500000,500000,-1.15239e-07,2.39695e-07,-6.23865e-08,-0.00100234,0.0267054,0.000242404,0.0286246,3,2900
12,3.56688e-22,2,8746,70.27,-3.65261e-06,1.78875e-05,-3.42041e-08,1.82567e-05,83,157.22,-160.07,500000,500000,-1.20726e-07,2.52803e-07,-6.83663e-08,-0.00109517,0.0277834,-5.71187e-05,0.0296688,3,2901
12,3.56688e-22,2,8747,70.27,-3.77558e-06,1.79147e-05,-3.6408e-08,1.83082e-05,83,157.22,-160.07,500000,500000,-1.25889e-07,2.65981e-07,-7.28241e-08,-0.000956896,0.0290917,-1.67989e-05,0.0307702,3,2902
12,3.56688e-22,2,8748,70.27,-3.90438e-06,1.79488e-05,-3.83161e-08,1.83686e-05,83,157.22,-160.07,500000,500000,-1.31331e-07,2.7852e-07,-7.66349e-08,-0.000918071,0.0303997,1.03372e-05,0.0320096,3,2903
12,3.56688e-22,2,8749,70.27,-4.03824e-06,1.79879e-05,-3.99538e-08,1.84357e-05,83,157.22,-160.07,500000,500000,-1.35216e-07,2.88919e-07,-7.99275e-08,-0.000823605,0.031613,4.91012e-05,0.0331933,3,2904
12,3.56688e-22,2,8750,70.27,-4.17482e-06,1.80309e-05,-4.12911e-08,1.85079e-05,83,157.22,-160.07,500000,500000,-1.36224e-07,2.95259e-07,-8.26336e-08,-0.0006156,0.0324834,6.81618e-05,0.0340127,3,2905
12,3.56688e-22,2,8751,70.27,-4.31069e-06,1.80775e-05,-4.21346e-08,1.85844e-05,83,157.22,-160.07,500000,500000,-1.34838e-07,2.9637e-07,-8.42364e-08,-0.000401559,0.0326928,1.85318e-05,0.0341348,3,2906
12,3.56688e-22,2,8752,70.27,-4.44449e-06,1.81316e-05,-4.19191e-08,1.86684e-05,83,157.22,-160.07,500000,500000,-1.35461e-07,2.95076e-07,-8.35041e-08,-0.000497252,0.0322631,4.84338e-05,0.0335361,3,2907
12,3.56688e-22,2,8753,70.27,-4.58161e-06,1.82038e-05,-4.03213e-08,1.87716e-05,83,157.22,-160.07,500000,500000,-1.36519e-07,2.97164e-07,-8.1172e-08,-0.000122717,0.0324891,0.000853675,0.0328713,3,2908
12,4.23897e-22,2,8754,70.27,-4.71753e-06,1.82969e-05,-3.89626e-08,1.88953e-05,86.5625,157.22,-160.07,2.43744e+06,593750,-1.15549e-07,2.72097e-07,-7.66352e-08,-0.000571204,0.0359682,-0.000659219,0.0375933,3,2909
12,5.80719e-22,1,8755,121.22,-4.81271e-06,1.83388e-05,-2.66551e-08,1.89598e-05,94.875,-21.83,121.47,6.95812e+06,812500,-7.33011e-08,2.07885e-07,-5.37935e-08,-0.00145371,0.0404108,-0.000953394,0.0426942,2,5844
12,6.92734e-22,1,8756,121.22,-4.86413e-06,1.82927e-05,-1.4936e-08,1.89283e-05,100.812,-21.83,121.47,1.01872e+07,968750,-4.83187e-08,1.70015e-07,-3.20433e-08,-0.00110331,0.0436942,0.00142093,0.0439822,2,5845
12,7.15137e-22,1,8757,121.22,-4.90934e-06,1.82298e-05,-1.80074e-08,1.88793e-05,102,-21.83,121.47,1.0833e+07,1e+06,-4.64893e-08,1.76166e-07,-3.48271e-08,-0.00113297,0.0469934,0.00115605,0.0470908,2,5846
12,7.15137e-22,1,8758,121.22,-4.95711e-06,1.8192e-05,-2.18829e-08,1.88553e-05,102,-21.83,121.47,1.0833e+07,1e+06,-4.7147e-08,1.87181e-07,-4.32538e-08,-0.00128609,0.0491306,0.000128884,0.0497583,2,5847
12,7.15137e-22,1,8759,121.22,-5.00364e-06,1.81775e-05,-2.39886e-08,1.88536e-05,102,-21.83,121.47,1.0833e+07,1e+06,-4.61174e-08,1.89991e-07,-4.77475e-08,-0.00127976,0.0493768,-0.000447411,0.0502725,2,5848
12,7.31922e-22,1,8760,121.22,-5.04934e-06,1.81655e-05,-2.20825e-08,1.88542e-05,99.9375,-21.83,121.47,1.0833e+07,1e+06,-5.09566e-08,1.95455e-07,-4.45033e-08,-0.000422557,0.0493817,0.000608204,0.0498256,2,5849
12,7.71086e-22,1,8761,67.29,-5.10555e-06,1.81573e-05,-2.46418e-08,1.88615e-05,95.125,-176.48,-157.74,1.0833e+07,1e+06,-6.14816e-08,2.11973e-07,-4.99341e-08,0.000480262,0.0480144,0.00135127,0.0479768,2,5850
12,7.9906e-22,1,8762,67.29,-5.17231e-06,1.8179e-05,-3.35623e-08,1.89005e-05,91.6875,-176.48,-157.74,1.0833e+07,1e+06,-6.62815e-08,2.26444e-07,-6.6399e-08,0.0006488,0.0457353,9.42819e-05,0.0458302,2,5851
12,7.69512e-22,1,8763,67.29,-5.23812e-06,1.822e-05,-3.72687e-08,1.8958e-05,91.1875,-176.48,-157.74,1.0833e+07,1e+06,-6.1851e-08,2.29097e-07,-7.45501e-08,0.00106632,0.0458508,-0.000967967,0.0462571,2,5852
12,6.99225e-22,1,8764,67.29,-5.29601e-06,1.82545e-05,-3.88959e-08,1.90073e-05,91.5625,-176.48,-157.74,1.0833e+07,1e+06,-5.49023e-08,2.39288e-07,-7.84541e-08,0.00284029,0.0501121,-0.000442389,0.0497497,2,5853
12,5.77557e-22,1,8765,67.29,-5.34792e-06,1.83054e-05,-4.84232e-08,1.90707e-05,95.0625,-176.48,-157.74,8.24975e+06,875000,-5.22902e-08,2.7719e-07,-9.69566e-08,0.00558191,0.0539681,0.00123659,0.0533548,2,5854
12,4.04507e-22,2,8766,109.29,-5.40059e-06,1.83367e-05,-7.55748e-08,1.91156e-05,101.688,165.44,68.53,3.08325e+06,625000,-5.144e-08,3.11352e-07,-1.49891e-07,0.00507801,0.043013,0.000615095,0.0441408,3,2910
12,3.17982e-22,2,8767,109.29,-5.4508e-06,1.83234e-05,-9.16203e-08,1.91172e-05,105,165.44,68.53,500000,500000,-5.08198e-08,3.12e-07,-1.82901e-07,0.00303788,0.0306356,-0.000952672,0.0323637,3,2911
12,3.17982e-22,2,8768,109.29,-5.50223e-06,1.82948e-05,-8.58306e-08,1.91045e-05,105,165.44,68.53,500000,500000,-5.84209e-08,3.0411e-07,-1.72385e-07,0.00241614,0.028962,-0.00073668,0.0298137,3,2912
12,3.17982e-22,2,8769,109.29,-5.56764e-06,1.82273e-05,-8.1498e-08,1.90589e-05,105,165.44,68.53,500000,500000,-7.58463e-08,3.10147e-07,-1.62854e-07,0.00169459,0.0284592,-0.000289181,0.0285809,3,2913
12,3.17982e-22,2,8770,109.29,-5.65392e-06,1.81076e-05,-7.91405e-08,1.897e-05,105,165.44,68.53,500000,500000,-9.68235e-08,3.26093e-07,-1.58649e-07,0.000808777,0.0288006,-8.98018e-05,0.0287542,3,2914
12,3.17982e-22,2,8771,109.29,-5.76129e-06,1.79372e-05,-7.79528e-08,1.88399e-05,105,165.44,68.53,500000,500000,-1.14715e-07,3.41495e-07,-1.55901e-07,6.77274e-05,0.0293944,0.000165432,0.0293495,3,2915
12,3.17982e-22,2,8772,109.29,-5.88335e-06,1.77337e-05,-7.68104e-08,1.86843e-05,105,165.44,68.53,500000,500000,-1.23275e-07,3.48332e-07,-1.54061e-07,-0.000477269,0.0298555,0.00029868,0.0299018,3,2916
12,3.44268e-22,2,8773,109.29,-6.00784e-06,1.75291e-05,-6.94865e-08,1.85302e-05,106.562,165.44,68.53,1.14581e+06,531250,-1.15462e-07,3.22505e-07,-1.38554e-07,-0.00156357,0.0309034,-0.000603297,0.0331163,3,2917
12,4.00961e-22,2,8774,109.29,-6.11428e-06,1.73913e-05,-5.19174e-08,1.84348e-05,110.812,165.44,68.53,2.43744e+06,593750,-1.01294e-07,2.80956e-07,-1.02646e-07,-0.000773742,0.0332506,-0.000383958,0.0367911,3,2918
12,4.35492e-22,2,8775,66.67,-6.21043e-06,1.73606e-05,-3.77404e-08,1.8438e-05,114.625,165.52,-172.29,3.08325e+06,625000,-9.20613e-08,2.53981e-07,-7.64841e-08,0.00134886,0.0330406,0.00127771,0.0346411,3,2919
12,4.8394e-22,2,8776,66.67,-6.2984e-06,1.73878e-05,-3.74092e-08,1.84934e-05,116.625,165.52,-172.29,4.37488e+06,687500,-6.32232e-08,2.17992e-07,-7.5858e-08,0.00179392,0.0315283,0.00130662,0.0321606,3,2920
12,5.94754e-22,1,8777,9.52003,-6.33687e-06,1.74307e-05,-4.32682e-08,1.85469e-05,118.812,63.66,-15.5,7.60394e+06,843750,-1.53501e-08,1.75032e-07,-8.58299e-08,0.00224224,0.0321431,0.000403335,0.0323347,2,5855
12,6.83405e-22,1,8778,9.52003,-6.3291e-06,1.74865e-05,-4.63712e-08,1.85967e-05,120.562,63.66,-15.5,1.01872e+07,968750,1.14846e-08,1.51499e-07,-9.20148e-08,0.0025517,0.0324296,-0.000192017,0.0317926,2,5856
12,7.05568e-22,1,8779,9.52003,-6.3139e-06,1.75472e-05,-4.52657e-08,1.86486e-05,121,63.66,-15.5,1.0833e+07,1e+06,1.36624e-08,1.45105e-07,-9.08641e-08,0.00202315,0.0319782,-0.000341918,0.0312947,2,5857
12,7.05568e-22,1,8780,9.52003,-6.30178e-06,1.7616e-05,-4.42391e-08,1.87093e-05,121,63.66,-15.5,1.0833e+07,1e+06,1.17249e-08,1.44489e-07,-8.87225e-08,0.00153331,0.032082,-0.000159957,0.0314869,2,5858
12,7.05568e-22,1,8781,9.52003,-6.29045e-06,1.77023e-05,-4.52048e-08,1.87868e-05,121,63.66,-15.5,1.0833e+07,1e+06,1.04017e-08,1.49956e-07,-9.03092e-08,0.00114638,0.0335589,1.74363e-05,0.0330171,2,5859
12,7.05568e-22,1,8782,9.52003,-6.28097e-06,1.7802e-05,-4.68736e-08,1.88776e-05,121,63.66,-15.5,1.0833e+07,1e+06,8.38498e-09,1.58296e-07,-9.37365e-08,0.000554538,0.0355524,5.14587e-05,0.0353037,2,5860
12,7.05568e-22,1,8783,9.52003,-6.27368e-06,1.7908e-05,-4.83629e-08,1.89751e-05,121,63.66,-15.5,1.0833e+07,1e+06,6.53989e-09,1.65498e-07,-9.6754e-08,3.99384e-05,0.0372268,5.10936e-05,0.0372611,2,5861
12,7.05568e-22,1,8784,9.52003,-6.26789e-06,1.80151e-05,-4.91047e-08,1.90744e-05,121,63.66,-15.5,1.0833e+07,1e+06,5.63074e-09,1.69602e-07,-9.82533e-08,-0.000164527,0.038204,0.000119245,0.0383139,2,5862
12,7.05568e-22,1,8785,9.52003,-6.26242e-06,1.81189e-05,-4.88297e-08,1.91707e-05,121,63.66,-15.5,1.0833e+07,1e+06,5.7843e-09,1.68133e-07,-9.76819e-08,-0.000110729,0.0378244,7.61073e-05,0.037909,2,5863
12,7.05568e-22,1,8786,9.52003,-6.25632e-06,1.82133e-05,-4.81399e-08,1.92579e-05,121,63.66,-15.5,1.0833e+07,1e+06,6.09578e-09,1.63085e-07,-9.62505e-08,-8.34948e-05,0.0364548,-0.000220104,0.0366374,2,5864
12,7.05568e-22,1,8787,9.52003,-6.25023e-06,1.82935e-05,-4.819e-08,1.93318e-05,121,63.66,-15.5,1.0833e+07,1e+06,5.92204e-09,1.63291e-07,-9.63438e-08,-4.28001e-05,0.036418,-0.000253956,0.0365692,2,5865
12,5.64594e-22,1,8788,153.51,1.1722e-08,1.83724e-05,-6.54103e-08,1.83725e-05,27.625,-89.16,129.77,1.01872e+07,968750,2.15833e-08,2.42206e-07,-1.3042e-07,0.010746,0.0560058,-0.00135672,0.0529135,2,5866
12,5.16183e-22,1,8789,153.51,3.14446e-08,1.84396e-05,-5.30077e-08,1.84397e-05,20.75,-89.16,129.77,6.95812e+06,812500,1.4678e-08,2.18263e-07,-1.06592e-07,0.0100023,0.0478757,0.00136051,0.0432261,2,5867
12,4.48409e-22,2,8790,115.35,4.10781e-08,1.844e-05,-5.03151e-08,1.84401e-05,11.125,-67.69,60.87,2.43744e+06,593750,6.54537e-09,2.01336e-07,-1.00769e-07,0.00820096,0.0382311,-1.62656e-06,0.0351681,3,2921
12,4.19363e-22,2,8791,115.35,4.45354e-08,1.83813e-05,-5.21909e-08,1.83814e-05,7,-67.69,60.87,500000,500000,1.24536e-09,2.03822e-07,-1.04558e-07,0.00729195,0.0353123,-0.000591353,0.0327856,3,2922
12,4.19363e-22,2,8792,115.35,4.35688e-08,1.82874e-05,-5.44852e-08,1.82875e-05,7,-67.69,60.87,500000,500000,-9.09914e-09,2.19007e-07,-1.08495e-07,0.00631859,0.0368271,-0.000755269,0.0346363,3,2923
12,4.14286e-22,2,8793,115.35,2.63371e-08,1.817e-05,-5.07041e-08,1.81701e-05,11.5,-67.69,60.87,500000,500000,-3.89816e-08,2.47954e-07,-1.00657e-07,0.00595317,0.0389045,0.00041823,0.0372452,3,2924
12,4.02441e-22,2,8794,58.62,-3.43945e-08,1.80688e-05,-4.96131e-08,1.8069e-05,22,158.52,96.68,500000,500000,-8.25111e-08,2.76242e-07,-9.98447e-08,0.00489165,0.0334369,0.000916028,0.0325715,3,2925
12,3.9398e-22,2,8795,58.62,-1.38685e-07,1.79767e-05,-5.6186e-08,1.79773e-05,29.5,158.52,96.68,500000,500000,-1.10906e-07,2.9489e-07,-1.12506e-07,0.00331971,0.0265018,5.60133e-05,0.0259058,3,2926
12,3.92288e-22,2,8796,58.62,-2.56207e-07,1.78965e-05,-5.73638e-08,1.78985e-05,31,158.52,96.68,500000,500000,-1.17823e-07,3.0083e-07,-1.14786e-07,0.00316907,0.0255298,-0.000182774,0.0245393,3,2927
12,3.92288e-22,2,8797,58.62,-3.74332e-07,1.78553e-05,-5.50207e-08,1.78593e-05,31,158.52,96.68,500000,500000,-1.16805e-07,2.95154e-07,-1.09967e-07,0.00335935,0.0253507,-0.000125959,0.0240115,3,2928
12,3.92288e-22,2,8798,58.62,-4.89816e-07,1.78411e-05,-5.28269e-08,1.78479e-05,31,158.52,96.68,500000,500000,-1.14261e-07,2.8666e-07,-1.05632e-07,0.00334806,0.0247145,-0.000154174,0.0234082,3,2929
12,3.92288e-22,2,8799,58.62,-6.02854e-07,1.7844e-05,-5.08041e-08,1.78543e-05,31,158.52,96.68,500000,500000,-1.12928e-07,2.79321e-07,-1.01602e-07,0.00313522,0.0240529,-0.000105146,0.022843,3,2930
12,3.92288e-22,2,8800,58.62,-7.15672e-07,1.78569e-05,-4.89218e-08,1.78713e-05,31,158.52,96.68,500000,500000,-1.13633e-07,2.73929e-07,-9.78493e-08,0.00269566,0.0234441,-3.71386e-05,0.0224067,3,2931
12,3.92288e-22,2,8801,58.62,-8.30121e-07,1.78762e-05,-4.71191e-08,1.78955e-05,31,158.52,96.68,500000,500000,-1.15637e-07,2.69628e-07,-9.42432e-08,0.002109,0.0228562,9.29373e-06,0.0220765,3,2932
12,3.92288e-22,2,8802,58.62,-9.46946e-07,1.79003e-05,-4.53075e-08,1.79253e-05,31,158.52,96.68,500000,500000,-1.17916e-07,2.6539e-07,-9.06175e-08,0.00147527,0.0222533,3.78782e-05,0.0217839,3,2933
12,3.92288e-22,2,8803,58.62,-1.06595e-06,1.7928e-05,-4.33971e-08,1.79597e-05,31,158.52,96.68,500000,500000,-1.19407e-07,2.60013e-07,-8.67349e-08,0.000875961,0.0215731,6.91362e-05,0.0214148,3,2934
12,3.92288e-22,2,8804,58.62,-1.18576e-06,1.79584e-05,-4.10526e-08,1.79975e-05,31,158.52,96.68,500000,500000,-1.18556e-07,2.51405e-07,-8.2061e-08,0.000412935,0.0206967,0.000119772,0.0207856,3,2935
12,3.92288e-22,2,8805,58.62,-1.30306e-06,1.79915e-05,-3.8135e-08,1.80386e-05,31,158.52,96.68,500000,500000,-1.11436e-07,2.35756e-07,-7.58161e-08,0.000530373,0.0194795,0.00026465,0.0195102,3,2936
12,3.77764e-22,2,8806,58.62,-1.40863e-06,1.80278e-05,-3.21453e-08,1.80828e-05,32.6875,158.52,96.68,2.43744e+06,593750,-8.99194e-08,2.0635e-07,-6.47968e-08,0.00075808,0.0217619,8.04685e-05,0.0224734,3,2937
12,3.43874e-22,1,8807,151.34,-1.4829e-06,1.80795e-05,-3.19869e-08,1.81403e-05,36.625,-67.01,136.63,6.95812e+06,812500,-5.95392e-08,1.99356e-07,-6.47465e-08,0.00204577,0.0330093,0.000533315,0.033338,2,5868
12,3.19668e-22,1,8808,151.34,-1.52771e-06,1.81391e-05,-3.84585e-08,1.82034e-05,39.4375,-67.01,136.63,1.01872e+07,968750,-4.02281e-08,2.10625e-07,-7.64348e-08,0.00321351,0.0422771,0.000600322,0.041814,2,5869
12,3.14826e-22,1,8809,151.34,-1.56336e-06,1.81925e-05,-4.04184e-08,1.82596e-05,40,-67.01,136.63,1.0833e+07,1e+06,-3.51488e-08,2.09633e-07,-8.05622e-08,0.00316318,0.0434664,-7.24643e-05,0.0434549,2,5870
12,3.14826e-22,1,8810,151.34,-1.59801e-06,1.82443e-05,-3.99624e-08,1.83142e-05,40,-67.01,136.63,1.0833e+07,1e+06,-3.56972e-08,2.09629e-07,-7.99594e-08,0.00305904,0.043595,-7.2469e-05,0.0437383,2,5871
12,3.14826e-22,1,8811,151.34,-1.63475e-06,1.82978e-05,-3.96918e-08,1.83707e-05,40,-67.01,136.63,1.0833e+07,1e+06,-3.90181e-08,2.11003e-07,-7.94071e-08,0.00241022,0.0435805,-0.000100002,0.0439756,2,5872
12,3.14826e-22,1,8812,151.34,-1.67605e-06,1.83611e-05,-4.00238e-08,1.84374e-05,40,-67.01,136.63,1.0833e+07,1e+06,-4.57796e-08,2.15641e-07,-7.99951e-08,0.00123494,0.0436956,-0.000383961,0.0445473,2,5873
12,3.78562e-22,1,8813,151.34,-1.72631e-06,1.84452e-05,-3.7498e-08,1.85259e-05,43,-67.01,136.63,1.0833e+07,1e+06,-6.00966e-08,2.22235e-07,-7.50582e-08,0.000229909,0.0427469,0.000188587,0.0434807,2,5874
12,5.06032e-22,1,8814,72.45,-1.79624e-06,1.85298e-05,-3.33341e-08,1.86167e-05,49,-130,-165.58,1.0833e+07,1e+06,-7.54317e-08,2.17207e-07,-6.69634e-08,-0.000710063,0.0377569,3.70106e-05,0.0385628,2,5875
12,5.69767e-22,1,8815,72.45,-1.87718e-06,1.86028e-05,-3.01733e-08,1.86973e-05,52,-130,-165.58,1.0833e+07,1e+06,-7.92713e-08,1.97941e-07,-5.89265e-08,-0.00185178,0.0318529,-0.000386553,0.0330358,2,5876
12,5.54191e-22,1,8816,72.45,-1.95478e-06,1.86763e-05,-2.68167e-08,1.87784e-05,51.75,-130,-165.58,1.01872e+07,968750,-7.79409e-08,1.8583e-07,-5.33026e-08,-0.00261829,0.0292038,2.77873e-05,0.0309539,2,5877
12,4.91886e-22,1,8817,72.45,-2.03306e-06,1.87359e-05,-3.08429e-08,1.88459e-05,50.75,-130,-165.58,7.60394e+06,843750,-7.8281e-08,2.00467e-07,-6.46119e-08,-0.00229728,0.0286547,6.71815e-05,0.0312911,2,5878
12,3.98429e-22,2,8818,102.62,-2.11134e-06,1.87445e-05,-4.6741e-08,1.88631e-05,49.25,3.44,160.65,3.72906e+06,656250,-7.78871e-08,2.35854e-07,-9.3739e-08,-0.000890845,0.0280589,0.000588541,0.0298548,3,2938
12,3.40784e-22,2,8819,102.62,-2.18883e-06,1.87065e-05,-5.85835e-08,1.88342e-05,48.0625,3.44,160.65,1.14581e+06,531250,-7.36398e-08,2.50085e-07,-1.14896e-07,-0.000508288,0.0262115,0.000192498,0.0271833,3,2939
12,3.43848e-22,2,8820,102.62,-2.25862e-06,1.86809e-05,-5.63876e-08,1.8817e-05,47.0625,3.44,160.65,500000,500000,-5.8353e-08,2.35101e-07,-1.12013e-07,-0.000247944,0.027894,-0.000586826,0.0287967,3,2940
12,3.67148e-22,2,8821,93.26,-2.30554e-06,1.86727e-05,-5.01143e-08,1.88146e-05,46.125,50.58,130.77,500000,500000,-4.04105e-08,2.19542e-07,-1.0102e-07,0.000943643,0.0319903,-0.000283495,0.0320777,3,2941
12,3.62488e-22,2,8822,93.26,-2.33944e-06,1.86474e-05,-5.10161e-08,1.87937e-05,46.3125,50.58,130.77,500000,500000,-4.59062e-08,2.33431e-07,-1.04001e-07,0.00149876,0.0329195,0.000494847,0.0323054,3,2942
12,3.34528e-22,2,8823,102.62,-2.39735e-06,1.85932e-05,-6.31037e-08,1.87473e-05,47.4375,3.44,160.65,500000,500000,-6.61326e-08,2.64334e-07,-1.2627e-07,0.000466083,0.0292907,0.000310511,0.0295333,3,2943
12,3.36339e-22,2,8824,102.62,-2.47171e-06,1.85656e-05,-6.48328e-08,1.87295e-05,48.5625,3.44,160.65,1.14581e+06,531250,-7.25157e-08,2.62911e-07,-1.27599e-07,-0.000157675,0.0269513,-0.000212585,0.0286233,3,2944
12,3.68354e-22,2,8825,102.62,-2.54238e-06,1.86218e-05,-4.95615e-08,1.87946e-05,50.3125,3.44,160.65,2.43744e+06,593750,-7.61035e-08,2.35106e-07,-9.86284e-08,-7.6095e-05,0.0262827,-0.000177715,0.028682,3,2945
12,4.02284e-22,2,8826,103.38,-2.62392e-06,1.87305e-05,-3.58229e-08,1.89134e-05,52.4375,31.45,-165.02,3.08325e+06,625000,-8.30742e-08,2.07048e-07,-7.18728e-08,-0.000805613,0.0228093,0.000441068,0.0248729,3,2946
12,5.04497e-22,2,8827,103.38,-2.70853e-06,1.88126e-05,-2.51597e-08,1.90066e-05,54.375,31.45,-165.02,4.37488e+06,687500,-7.04866e-08,1.66769e-07,-5.12259e-08,-0.00204933,0.0211605,0.000791205,0.0233441,3,2947
12,6.56231e-22,1,8828,113.67,-2.76489e-06,1.88043e-05,-2.45747e-08,1.90065e-05,56.0625,-67.11,135.77,6.95812e+06,812500,-4.18994e-08,1.41122e-07,-4.94627e-08,-0.00146728,0.0243151,8.5283e-06,0.0263507,2,5879
12,6.16859e-22,1,8829,113.67,-2.79233e-06,1.87394e-05,-2.92496e-08,1.89464e-05,60.5625,-67.11,135.77,8.89556e+06,906250,-2.68873e-08,1.48165e-07,-5.80975e-08,0.000950726,0.0293085,-0.000475447,0.0301866,2,5880
12,4.03659e-22,1,8830,25.38,-2.81866e-06,1.86677e-05,-2.84327e-08,1.88793e-05,68.1875,118.9,132.01,1.01872e+07,968750,-2.83658e-08,1.54137e-07,-5.72424e-08,0.00247682,0.0307548,0.000269617,0.0301909,2,5881
12,2.97059e-22,1,8831,25.38,-2.84906e-06,1.86035e-05,-2.86143e-08,1.88204e-05,72,118.9,132.01,1.0833e+07,1e+06,-2.87699e-08,1.51419e-07,-5.68662e-08,0.00269227,0.0294411,0.000474841,0.028332,2,5882
12,2.97059e-22,1,8832,25.38,-2.8762e-06,1.85596e-05,-2.93721e-08,1.87812e-05,72,118.9,132.01,1.0833e+07,1e+06,-2.62741e-08,1.47478e-07,-5.84632e-08,0.00240616,0.0288032,-0.00010888,0.0284282,2,5883
12,2.97059e-22,1,8833,25.38,-2.90161e-06,1.85277e-05,-2.93363e-08,1.87535e-05,72,118.9,132.01,1.0833e+07,1e+06,-2.6006e-08,1.4814e-07,-5.88672e-08,0.00236026,0.0290547,-5.39331e-05,0.0288066,2,5884
12,2.97059e-22,1,8834,25.38,-2.92822e-06,1.8501e-05,-2.94053e-08,1.87314e-05,72,118.9,132.01,1.0833e+07,1e+06,-2.73363e-08,1.4999e-07,-5.88573e-08,0.00221235,0.0293794,3.20901e-05,0.0291757,2,5885
12,2.97059e-22,1,8835,25.38,-2.95628e-06,1.84768e-05,-2.93359e-08,1.87118e-05,72,118.9,132.01,1.0833e+07,1e+06,-2.85874e-08,1.51033e-07,-5.86811e-08,0.00213299,0.0294583,1.67739e-05,0.0292032,2,5886
12,2.97059e-22,1,8836,25.38,-2.98539e-06,1.84526e-05,-2.91361e-08,1.86925e-05,72,118.9,132.01,1.0833e+07,1e+06,-2.97004e-08,1.51631e-07,-5.82735e-08,0.00218378,0.0293894,-1.83476e-05,0.0289427,2,5887
12,2.97059e-22,1,8837,25.38,-3.01568e-06,1.84256e-05,-2.8926e-08,1.86708e-05,72,118.9,132.01,1.0833e+07,1e+06,-3.128e-08,1.53026e-07,-5.78464e-08,0.00230147,0.0294138,-4.05066e-05,0.0287062,2,5888
12,2.97059e-22,1,8838,25.38,-3.04795e-06,1.83933e-05,-2.888e-08,1.86442e-05,72,118.9,132.01,1.0833e+07,1e+06,-3.37989e-08,1.56377e-07,-5.7757e-08,0.00240374,0.0297701,-4.2308e-05,0.0288356,2,5889
12,2.97059e-22,1,8839,25.38,-3.08328e-06,1.83543e-05,-2.91774e-08,1.86115e-05,72,118.9,132.01,1.0833e+07,1e+06,-3.73061e-08,1.62271e-07,-5.83535e-08,0.00244275,0.0306044,-2.81878e-05,0.029536,2,5890
12,2.97059e-22,1,8840,25.38,-3.12256e-06,1.83084e-05,-2.99515e-08,1.85728e-05,72,118.9,132.01,1.0833e+07,1e+06,-4.14788e-08,1.70715e-07,-5.98988e-08,0.00241927,0.0319578,-6.81114e-06,0.0308417,2,5891
12,2.97059e-22,1,8841,25.38,-3.16624e-06,1.82567e-05,-3.12398e-08,1.85293e-05,72,118.9,132.01,1.0833e+07,1e+06,-4.60869e-08,1.8132e-07,-6.24604e-08,0.00229388,0.03378,-5.6932e-07,0.0327019,2,5892
12,2.97059e-22,1,8842,25.38,-3.21474e-06,1.82016e-05,-3.29528e-08,1.84833e-05,72,118.9,132.01,1.0833e+07,1e+06,-5.09262e-08,1.94118e-07,-6.57648e-08,0.00212091,0.036155,0.000104376,0.0350953,2,5893
12,2.97059e-22,1,8843,25.38,-3.26809e-06,1.81464e-05,-3.52128e-08,1.84383e-05,72,118.9,132.01,1.0833e+07,1e+06,-5.62032e-08,2.07492e-07,-6.96993e-08,0.00190201,0.0385062,3.53465e-05,0.0375306,2,5894
12,3.11966e-22,1,8844,25.38,-3.32714e-06,1.80837e-05,-3.03295e-08,1.83873e-05,74.75,118.9,132.01,8.24975e+06,875000,-7.04345e-08,2.16297e-07,-6.1672e-08,0.00185939,0.037926,0.000667844,0.0376758,2,5895
12,3.41781e-22,2,8845,70.27,-3.40896e-06,1.80686e-05,-2.76466e-08,1.83874e-05,80.25,157.22,-160.07,3.08325e+06,625000,-9.20852e-08,2.24731e-07,-5.61741e-08,0.00134128,0.0314091,0.00125469,0.0317916,3,2948
12,3.56688e-22,2,8846,70.27,-3.51131e-06,1.81038e-05,-3.22749e-08,1.84412e-05,83,157.22,-160.07,500000,500000,-1.05526e-07,2.35623e-07,-6.35711e-08,0.00036402,0.0267683,0.000675302,0.0275218,3,2949
12,3.56688e-22,2,8847,70.27,-3.62001e-06,1.81377e-05,-3.45205e-08,1.84954e-05,83,157.22,-160.07,500000,500000,-1.13484e-07,2.48953e-07,-6.8927e-08,-0.000206307,0.0277989,0.00022165,0.0290285,3,2950
12,3.56688e-22,2,8848,70.27,-3.73828e-06,1.81799e-05,-3.68132e-08,1.85603e-05,83,157.22,-160.07,500000,500000,-1.22277e-07,2.6454e-07,-7.37259e-08,-0.00055246,0.0291498,5.101e-05,0.0305715,3,2951
12,3.56688e-22,2,8849,70.27,-3.86457e-06,1.82279e-05,-3.87512e-08,1.86331e-05,83,157.22,-160.07,500000,500000,-1.29893e-07,2.78302e-07,-7.75188e-08,-0.000765592,0.0304199,-2.23907e-05,0.0319477,3,2952
12,3.56688e-22,2,8850,70.27,-3.99807e-06,1.82782e-05,-4.01037e-08,1.87104e-05,83,157.22,-160.07,500000,500000,-1.3644e-07,2.90527e-07,-8.0297e-08,-0.000890208,0.0317241,1.02134e-05,0.0333415,3,2953
12,3.56688e-22,2,8851,70.27,-4.13745e-06,1.83275e-05,-4.07019e-08,1.87888e-05,83,157.22,-160.07,500000,500000,-1.40427e-07,2.97469e-07,-8.14113e-08,-0.00100463,0.0325886,2.98747e-05,0.0343684,3,2954
12,3.56688e-22,2,8852,70.27,-4.27892e-06,1.83737e-05,-4.01174e-08,1.88654e-05,83,157.22,-160.07,500000,500000,-1.40335e-07,2.9581e-07,-8.01114e-08,-0.00105731,0.0325014,5.79811e-05,0.0343319,3,2955
12,3.56688e-22,2,8853,70.27,-4.41812e-06,1.84232e-05,-3.80115e-08,1.89456e-05,83,157.22,-160.07,500000,500000,-1.37069e-07,2.8697e-07,-7.62886e-08,-0.000942425,0.0313838,0.000328766,0.0327546,3,2956
12,3.79091e-22,2,8854,70.27,-4.55306e-06,1.84946e-05,-3.66469e-08,1.90469e-05,84.1875,157.22,-160.07,1.14581e+06,531250,-1.25336e-07,2.69642e-07,-7.26519e-08,-0.00106082,0.0311395,7.35785e-06,0.0325173,3,2957
12,4.91106e-22,2,8855,70.27,-4.66879e-06,1.85464e-05,-3.03395e-08,1.91251e-05,90.125,157.22,-160.07,4.37488e+06,687500,-9.29447e-08,2.21768e-07,-6.03048e-08,-0.00211358,0.0343446,-0.00147719,0.0371801,3,2958
12,6.47928e-22,1,8856,121.22,-4.73895e-06,1.85181e-05,-1.80166e-08,1.91148e-05,98.4375,-21.83,121.47,8.89556e+06,906250,-5.62628e-08,1.70616e-07,-3.73652e-08,-0.00189552,0.0395844,-0.000117643,0.0412786,2,5896
12,7.15137e-22,1,8857,121.22,-4.78131e-06,1.84539e-05,-1.53833e-08,1.90633e-05,102,-21.83,121.47,1.0833e+07,1e+06,-4.33408e-08,1.62925e-07,-3.05791e-08,-0.00099777,0.0437445,0.00137289,0.0437056,2,5897
12,7.15137e-22,1,8858,121.22,-4.82563e-06,1.84057e-05,-1.94174e-08,1.90278e-05,102,-21.83,121.47,1.0833e+07,1e+06,-4.49132e-08,1.7457e-07,-3.82145e-08,-0.00122029,0.0462558,0.000292179,0.0468088,2,5898
12,7.15137e-22,1,8859,121.22,-4.87114e-06,1.83759e-05,-2.12078e-08,1.90105e-05,102,-21.83,121.47,1.0833e+07,1e+06,-4.45717e-08,1.81454e-07,-4.27783e-08,-0.00103303,0.047692,-1.18906e-05,0.0482564,2,5899
12,7.15137e-22,1,8860,121.22,-4.91478e-06,1.8365e-05,-2.40481e-08,1.90113e-05,102,-21.83,121.47,1.0833e+07,1e+06,-4.4082e-08,1.85571e-07,-4.77865e-08,-0.00118287,0.0483313,-0.000700349,0.0493059,2,5900
12,7.37516e-22,1,8861,121.22,-4.95931e-06,1.83631e-05,-2.25177e-08,1.9021e-05,99.25,-21.83,121.47,1.0833e+07,1e+06,-5.2947e-08,1.98022e-07,-4.57498e-08,-0.000438232,0.0493154,0.000358152,0.0498643,2,5901
12,7.82275e-22,1,8862,67.29,-5.02067e-06,1.83759e-05,-2.73946e-08,1.90494e-05,93.75,-176.48,-157.74,1.0833e+07,1e+06,-6.68889e-08,2.18869e-07,-5.4539e-08,-0.000109218,0.0475932,0.00081741,0.0477705,2,5902
12,8.04655e-22,1,8863,67.29,-5.09308e-06,1.84097e-05,-3.57391e-08,1.91013e-05,91,-176.48,-157.74,1.0833e+07,1e+06,-6.9127e-08,2.29495e-07,-7.09383e-08,-0.000251419,0.045089,-0.000507675,0.0455608,2,5903
12,8.04655e-22,1,8864,67.29,-5.15892e-06,1.84524e-05,-3.69587e-08,1.91601e-05,91,-176.48,-157.74,1.0833e+07,1e+06,-6.42021e-08,2.32966e-07,-7.45066e-08,0.00107137,0.0459534,-0.000301511,0.0457309,2,5904
12,8.04655e-22,1,8865,67.29,-5.22149e-06,1.85053e-05,-4.06257e-08,1.92279e-05,91,-176.48,-157.74,1.0833e+07,1e+06,-6.46296e-08,2.49975e-07,-8.14907e-08,0.00221079,0.0493665,-9.66932e-05,0.0485626,2,5905
12,6.82987e-22,1,8866,67.29,-5.28818e-06,1.85923e-05,-4.99618e-08,1.93298e-05,94.5,-176.48,-157.74,8.24975e+06,875000,-6.59259e-08,2.77081e-07,-1.00689e-07,0.00267577,0.0498782,-7.69238e-06,0.051151,2,5906
12,4.3965e-22,2,8867,109.29,-5.35334e-06,1.8652e-05,-7.59245e-08,1.94051e-05,101.5,165.44,68.53,3.08325e+06,625000,-6.30604e-08,3.05331e-07,-1.50954e-07,0.00175059,0.0393061,-0.000784708,0.043193,3,2959
12,3.17982e-22,2,8868,109.29,-5.4143e-06,1.86455e-05,-9.46767e-08,1.9416e-05,105,165.44,68.53,500000,500000,-6.19211e-08,3.23238e-07,-1.87277e-07,0.00133774,0.0311348,-0.00152362,0.0343585,3,2960
12,3.17982e-22,2,8869,109.29,-5.47718e-06,1.86099e-05,-9.04982e-08,1.93994e-05,105,165.44,68.53,500000,500000,-6.45541e-08,3.18928e-07,-1.81352e-07,0.00169715,0.0301867,-0.00136054,0.0319144,3,2961
12,3.17982e-22,2,8870,109.29,-5.54341e-06,1.8544e-05,-8.6449e-08,1.9355e-05,105,165.44,68.53,500000,500000,-7.30381e-08,3.18999e-07,-1.74074e-07,0.00159283,0.0294096,-0.0009537,0.0301642,3,2962
12,3.17982e-22,2,8871,109.29,-5.62326e-06,1.84392e-05,-8.5883e-08,1.92778e-05,105,165.44,68.53,500000,500000,-9.025e-08,3.3629e-07,-1.7149e-07,0.00126105,0.0303097,-0.000409078,0.0304555,3,2963
12,3.17982e-22,2,8872,109.29,-5.72391e-06,1.8282e-05,-8.43655e-08,1.91573e-05,105,165.44,68.53,500000,500000,-1.06415e-07,3.50343e-07,-1.70324e-07,0.000630792,0.0305183,-0.000382491,0.0305842,3,2964
12,3.17982e-22,2,8873,109.29,-5.83609e-06,1.80833e-05,-8.42993e-08,1.90019e-05,105,165.44,68.53,500000,500000,-1.13219e-07,3.4948e-07,-1.67399e-07,0.000133416,0.0294205,-0.00076963,0.0296624,3,2965
12,3.24166e-22,2,8874,109.29,-5.95035e-06,1.78644e-05,-7.15572e-08,1.88294e-05,106.688,165.44,68.53,500000,500000,-1.19896e-07,3.36639e-07,-1.41515e-07,0.000821322,0.0315903,-0.000965788,0.0337156,3,2966
12,3.38595e-22,2,8875,66.67,-6.07588e-06,1.77112e-05,-5.16789e-08,1.87245e-05,110.625,165.52,-172.29,500000,500000,-1.27792e-07,3.29182e-07,-1.05923e-07,0.00387434,0.035558,0.000472861,0.0368719,3,2967
12,3.48902e-22,2,8876,66.67,-6.20593e-06,1.76616e-05,-4.75786e-08,1.87203e-05,113.438,165.52,-172.29,500000,500000,-1.22569e-07,3.11141e-07,-9.42949e-08,0.00535961,0.0332676,0.000780477,0.0323013,3,2968
12,3.73126e-22,2,8877,66.67,-6.32102e-06,1.76404e-05,-4.57676e-08,1.87388e-05,114.438,165.52,-172.29,1.14581e+06,531250,-1.00459e-07,2.70982e-07,-9.03989e-08,0.00420348,0.0297556,-6.79286e-05,0.0294111,3,2969
12,4.61777e-22,2,8878,66.67,-6.40685e-06,1.76246e-05,-4.23228e-08,1.8753e-05,116.188,165.52,-172.29,3.72906e+06,656250,-5.89624e-08,2.23293e-07,-8.61053e-08,0.00348084,0.0307296,0.000417137,0.0307261,3,2970
12,5.94754e-22,1,8879,9.52003,-6.43894e-06,1.76414e-05,-4.48556e-08,1.87798e-05,118.812,63.66,-15.5,7.60394e+06,843750,-1.02243e-08,1.76767e-07,-8.99655e-08,0.00341244,0.0322557,0.000360128,0.0317087,2,5907
12,6.83405e-22,1,8880,9.52003,-6.4273e-06,1.76901e-05,-4.66592e-08,1.88216e-05,120.562,63.66,-15.5,1.01872e+07,968750,1.58974e-08,1.46247e-07,-9.2306e-08,0.00337144,0.0311726,-0.000323218,0.0300429,2,5908
12,7.05568e-22,1,8881,9.52003,-6.40715e-06,1.7758e-05,-4.52932e-08,1.88786e-05,121,63.66,-15.5,1.0833e+07,1e+06,1.75258e-08,1.38671e-07,-9.02961e-08,0.00257065,0.0305964,-0.000500402,0.0296283,2,5909
12,7.05568e-22,1,8882,9.52003,-6.39225e-06,1.78502e-05,-4.52219e-08,1.89603e-05,121,63.66,-15.5,1.0833e+07,1e+06,1.30245e-08,1.46425e-07,-9.10233e-08,0.00150831,0.0326566,-0.000246168,0.0320949,2,5910
12,7.05568e-22,1,8883,9.52003,-6.3811e-06,1.79591e-05,-4.70391e-08,1.90591e-05,121,63.66,-15.5,1.0833e+07,1e+06,1.04045e-08,1.56148e-07,-9.41755e-08,0.000859119,0.0350711,-5.3322e-05,0.0347815,2,5911
12,7.05568e-22,1,8884,9.52003,-6.37144e-06,1.80728e-05,-4.88434e-08,1.91631e-05,121,63.66,-15.5,1.0833e+07,1e+06,8.76331e-09,1.64649e-07,-9.76165e-08,0.000453271,0.0370736,4.48761e-05,0.0369604,2,5912
12,7.05568e-22,1,8885,9.52003,-6.36357e-06,1.81846e-05,-4.9854e-08,1.9266e-05,121,63.66,-15.5,1.0833e+07,1e+06,7.24278e-09,1.70242e-07,-9.97129e-08,0.000125597,0.0383434,8.21801e-05,0.0383547,2,5913
12,7.05568e-22,1,8886,9.52003,-6.35695e-06,1.82878e-05,-4.96936e-08,1.93613e-05,121,63.66,-15.5,1.0833e+07,1e+06,6.33305e-09,1.70402e-07,-9.9383e-08,-1.35093e-05,0.0383045,5.21121e-05,0.038351,2,5914
12,7.05568e-22,1,8887,9.52003,-6.35091e-06,1.83785e-05,-4.87395e-08,1.94449e-05,121,63.66,-15.5,1.0833e+07,1e+06,5.92593e-09,1.66775e-07,-9.74331e-08,-2.24871e-05,0.0373627,-2.99301e-05,0.0374108,2,5915
12,7.05568e-22,1,8888,9.52003,-6.3451e-06,1.84573e-05,-4.78639e-08,1.95176e-05,121,63.66,-15.5,1.0833e+07,1e+06,5.73598e-09,1.64164e-07,-9.57687e-08,3.57995e-05,0.0367288,-1.79924e-05,0.036723,2,5916
12,5.16183e-22,1,8889,153.51,1.08332e-08,1.86201e-05,-6.52434e-08,1.86202e-05,20.75,-89.16,129.77,6.95813e+06,812500,1.57984e-08,2.60167e-07,-1.29585e-07,0.0115309,0.0567997,-0.000373511,0.053271,2,5917
12,4.67773e-22,2,8890,115.35,2.07636e-08,1.86592e-05,-5.16028e-08,1.86593e-05,13.875,-67.69,60.87,3.72906e+06,656250,2.83082e-09,2.27348e-07,-1.04501e-07,0.00891317,0.045886,0.00116189,0.0419941,3,2971
12,4.29045e-22,2,8891,115.35,1.64949e-08,1.86448e-05,-4.95758e-08,1.86448e-05,8.375,-67.69,60.87,1.14581e+06,531250,-5.79803e-09,2.10875e-07,-9.89151e-08,0.00676987,0.0382107,-8.99648e-05,0.0356924,3,2972
12,4.19363e-22,2,8892,115.35,9.16753e-09,1.85918e-05,-5.07484e-08,1.85919e-05,7,-67.69,60.87,500000,500000,-9.04712e-09,2.13641e-07,-1.01414e-07,0.00638163,0.0370507,-0.000302896,0.0346067,3,2973
12,4.19363e-22,2,8893,115.35,-1.59936e-09,1.8509e-05,-5.20774e-08,1.85091e-05,7,-67.69,60.87,500000,500000,-1.62646e-08,2.23614e-07,-1.038e-07,0.00569949,0.0379826,-0.00039837,0.0357375,3,2974
12,4.1767e-22,2,8894,115.35,-2.33617e-08,1.84149e-05,-4.88397e-08,1.8415e-05,8.5,-67.69,60.87,500000,500000,-3.34084e-08,2.40153e-07,-9.69926e-08,0.0052238,0.0400596,0.000593066,0.0378222,3,2975
12,4.0921e-22,2,8895,115.35,-6.84161e-08,1.83275e-05,-4.11591e-08,1.83277e-05,16,-67.69,60.87,500000,500000,-6.37728e-08,2.45942e-07,-8.34974e-08,0.00431219,0.0354201,0.00151252,0.0340032,3,2976
12,3.97365e-22,2,8896,58.62,-1.50907e-07,1.82516e-05,-4.61757e-08,1.82523e-05,26.5,158.52,96.68,500000,500000,-9.72887e-08,2.61975e-07,-9.30976e-08,0.00287038,0.0265256,0.000528109,0.0260528,3,2977
12,3.92288e-22,2,8897,58.62,-2.62993e-07,1.81903e-05,-5.38925e-08,1.81923e-05,31,158.52,96.68,500000,500000,-1.16681e-07,2.8548e-07,-1.0687e-07,0.00225242,0.0237863,-0.000152226,0.0230747,3,2978
12,3.92288e-22,2,8898,58.62,-3.84269e-07,1.81491e-05,-5.2283e-08,1.81533e-05,31,158.52,96.68,500000,500000,-1.21554e-07,2.89677e-07,-1.04593e-07,0.00219954,0.0243544,1.62221e-06,0.0234046,3,2979
12,3.92288e-22,2,8899,58.62,-5.06102e-07,1.81289e-05,-5.12141e-08,1.8136e-05,31,158.52,96.68,500000,500000,-1.20406e-07,2.85858e-07,-1.02368e-07,0.00231581,0.0241767,-0.000123184,0.0232632,3,2980
12,3.92288e-22,2,8900,58.62,-6.25082e-07,1.81242e-05,-4.95874e-08,1.81351e-05,31,158.52,96.68,500000,500000,-1.17856e-07,2.79164e-07,-9.91459e-08,0.00237327,0.0237275,-0.000117053,0.0228708,3,2981
12,3.92288e-22,2,8901,58.62,-7.41815e-07,1.81306e-05,-4.78045e-08,1.81458e-05,31,158.52,96.68,500000,500000,-1.16425e-07,2.72655e-07,-9.55988e-08,0.00222512,0.0231845,-6.54906e-05,0.0224496,3,2982
12,3.92288e-22,2,8902,58.62,-8.57931e-07,1.81446e-05,-4.60396e-08,1.81649e-05,31,158.52,96.68,500000,500000,-1.16395e-07,2.67157e-07,-9.20745e-08,0.00190134,0.0226335,-3.53154e-06,0.0220815,3,2983
12,3.92288e-22,2,8903,58.62,-9.74605e-07,1.81639e-05,-4.43287e-08,1.81901e-05,31,158.52,96.68,500000,500000,-1.17078e-07,2.62178e-07,-8.86586e-08,0.001478,0.0220691,4.56381e-05,0.0217448,3,2984
12,3.92288e-22,2,8904,58.62,-1.09209e-06,1.81863e-05,-4.26485e-08,1.82192e-05,31,158.52,96.68,500000,500000,-1.17449e-07,2.56828e-07,-8.53013e-08,0.00104957,0.0214634,9.15606e-05,0.021358,3,2985
12,3.92288e-22,2,8905,58.62,-1.2095e-06,1.82086e-05,-4.10204e-08,1.82488e-05,31,158.52,96.68,500000,500000,-1.15537e-07,2.49626e-07,-8.19607e-08,0.000814729,0.0208059,0.000169212,0.0207644,3,2986
12,3.92288e-22,2,8906,58.62,-1.32316e-06,1.82259e-05,-3.92222e-08,1.82739e-05,31,158.52,96.68,500000,500000,-1.0707e-07,2.36392e-07,-7.87169e-08,0.00119344,0.0197554,0.000203955,0.0194086,3,2987
12,3.72923e-22,2,8907,58.62,-1.42364e-06,1.82311e-05,-3.60776e-08,1.82866e-05,33.25,158.52,96.68,3.08325e+06,625000,-8.39659e-08,2.12819e-07,-7.21661e-08,0.00151731,0.0242638,-0.000408103,0.0248177,3,2988
12,3.34192e-22,1,8908,151.34,-1.49109e-06,1.82748e-05,-3.65741e-08,1.83356e-05,37.75,-67.01,136.63,8.24975e+06,875000,-5.50137e-08,2.05394e-07,-7.28287e-08,0.00179401,0.0361475,-0.000289101,0.0367633,2,5918
12,3.14826e-22,1,8909,151.34,-1.53367e-06,1.835e-05,-3.98287e-08,1.8414e-05,40,-67.01,136.63,1.0833e+07,1e+06,-4.08704e-08,2.13293e-07,-7.97878e-08,0.00234046,0.0434282,0.000150255,0.0432963,2,5919
12,3.14826e-22,1,8910,151.34,-1.57283e-06,1.84047e-05,-4.02974e-08,1.84718e-05,40,-67.01,136.63,1.0833e+07,1e+06,-3.81253e-08,2.1211e-07,-8.06486e-08,0.00264568,0.0437699,-0.000148947,0.0440097,2,5920
12,3.14826e-22,1,8911,151.34,-1.60992e-06,1.84547e-05,-3.98968e-08,1.85249e-05,40,-67.01,136.63,1.0833e+07,1e+06,-3.78395e-08,2.10101e-07,-7.97469e-08,0.00264231,0.0433424,-0.000125532,0.043551,2,5921
12,3.14826e-22,1,8912,151.34,-1.64851e-06,1.85095e-05,-3.95198e-08,1.85829e-05,40,-67.01,136.63,1.0833e+07,1e+06,-4.11831e-08,2.11238e-07,-7.90428e-08,0.00208757,0.0430932,-6.63802e-05,0.0433095,2,5922
12,3.14826e-22,1,8913,151.34,-1.69229e-06,1.85771e-05,-3.96008e-08,1.8654e-05,40,-67.01,136.63,1.0833e+07,1e+06,-4.76758e-08,2.14511e-07,-7.91711e-08,0.000977698,0.0427708,-0.000293721,0.0432889,2,5923
12,3.78562e-22,1,8914,151.34,-1.74386e-06,1.86646e-05,-3.66567e-08,1.8746e-05,43,-67.01,136.63,1.0833e+07,1e+06,-5.96534e-08,2.15915e-07,-7.33074e-08,6.40117e-05,0.0408767,0.000179228,0.0413121,2,5924
12,5.06032e-22,1,8915,72.45,-1.8116e-06,1.87433e-05,-3.22048e-08,1.88307e-05,49,-130,-165.58,1.0833e+07,1e+06,-7.37486e-08,2.10088e-07,-6.44581e-08,-0.000782422,0.03614,0.00027353,0.0366643,2,5925
12,5.69767e-22,1,8916,72.45,-1.89136e-06,1.88028e-05,-2.95269e-08,1.88977e-05,52,-130,-165.58,1.0833e+07,1e+06,-7.95459e-08,1.98748e-07,-5.90492e-08,-0.00186494,0.0318848,-0.000202454,0.0330237,2,5926
12,5.69767e-22,1,8917,72.45,-1.97069e-06,1.8861e-05,-2.69333e-08,1.89637e-05,52,-130,-165.58,1.0833e+07,1e+06,-7.9507e-08,1.86322e-07,-5.30049e-08,-0.00290904,0.0294255,0.000157041,0.0308957,2,5927
12,5.54191e-22,1,8918,72.45,-2.05037e-06,1.89154e-05,-2.44772e-08,1.90263e-05,51.75,-130,-165.58,1.01872e+07,968750,-8.19642e-08,1.77475e-07,-4.86382e-08,-0.00432516,0.0270594,0.000145435,0.0297338,2,5928
12,4.91886e-22,1,8919,72.45,-2.13462e-06,1.89525e-05,-2.64744e-08,1.90724e-05,50.75,-130,-165.58,7.60394e+06,843750,-8.69711e-08,1.88271e-07,-5.41393e-08,-0.00473834,0.0260334,0.00033367,0.0298721,2,5929
12,4.23325e-22,2,8920,102.62,-2.22432e-06,1.89362e-05,-3.22161e-08,1.90665e-05,49.125,3.44,160.65,4.37488e+06,687500,-8.23766e-08,2.03375e-07,-6.46092e-08,-0.00325349,0.0269093,0.0010115,0.0295791,3,2989
12,4.15473e-22,2,8921,93.26,-2.29937e-06,1.88922e-05,-3.29811e-08,1.90316e-05,47.6875,50.58,130.77,3.08325e+06,625000,-6.20804e-08,1.961e-07,-6.59295e-08,-0.00118382,0.0298815,0.00104287,0.030582,3,2990
12,4.34113e-22,2,8922,93.26,-2.34848e-06,1.88615e-05,-3.15596e-08,1.90072e-05,46.9375,50.58,130.77,3.08325e+06,625000,-4.50247e-08,1.8561e-07,-6.36394e-08,0.000200801,0.0328532,0.000700461,0.0326548,3,2991
12,4.09217e-22,2,8923,93.26,-2.38942e-06,1.88526e-05,-3.60384e-08,1.90035e-05,47.0625,50.58,130.77,2.43744e+06,593750,-5.20949e-08,2.00109e-07,-7.19103e-08,0.000148967,0.0323268,0.000495438,0.0326553,3,2992
12,3.6568e-22,2,8924,102.62,-2.45267e-06,1.8837e-05,-4.4463e-08,1.89961e-05,47.9375,3.44,160.65,1.79162e+06,562500,-7.35091e-08,2.244e-07,-8.76992e-08,-0.00127612,0.0278778,0.000386584,0.0297032,3,2993
12,3.98429e-22,2,8925,102.62,-2.53644e-06,1.88134e-05,-4.20423e-08,1.89837e-05,49.25,3.44,160.65,3.72906e+06,656250,-7.77053e-08,2.25496e-07,-8.44269e-08,-0.000484169,0.0279207,0.000681556,0.0296586,3,2994
12,4.76525e-22,1,8926,72.45,-2.60808e-06,1.88401e-05,-3.24606e-08,1.90198e-05,50.8125,-130,-165.58,6.95812e+06,812500,-6.3013e-08,1.99994e-07,-6.56816e-08,0.00213723,0.0296633,0.000990228,0.029796,2,5930
12,5.5994e-22,1,8927,72.45,-2.66246e-06,1.89096e-05,-2.49175e-08,1.90961e-05,52.875,-130,-165.58,8.24975e+06,875000,-4.61149e-08,1.59651e-07,-4.97407e-08,0.00221106,0.0256682,0.00148466,0.0251886,2,5931
12,6.96455e-22,1,8928,113.67,-2.70031e-06,1.89498e-05,-2.01835e-08,1.91412e-05,55.3125,-67.11,135.77,8.89556e+06,906250,-3.01054e-08,1.23852e-07,-4.02731e-08,0.000510019,0.0229533,0.00160723,0.0229449,2,5932
12,8.13562e-22,1,8929,113.67,-2.72267e-06,1.89219e-05,-2.1616e-08,1.91168e-05,56.75,-67.11,135.77,1.01872e+07,968750,-2.08948e-08,1.14837e-07,-4.33972e-08,-0.00053283,0.0244471,0.000853136,0.0247801,2,5933
12,7.43236e-22,1,8930,113.67,-2.7421e-06,1.88705e-05,-2.50032e-08,1.90687e-05,59.8125,-67.11,135.77,1.0833e+07,1e+06,-2.37575e-08,1.26711e-07,-4.9931e-08,-0.000807585,0.027127,-3.62472e-05,0.0280627,2,5934
12,5.02987e-22,1,8931,25.38,-2.77019e-06,1.88164e-05,-2.57919e-08,1.90192e-05,66.375,118.9,132.01,1.0833e+07,1e+06,-3.16348e-08,1.41684e-07,-5.12812e-08,9.03101e-05,0.028898,0.000143012,0.0294148,2,5935
12,3.3138e-22,1,8932,25.38,-2.80537e-06,1.87553e-05,-2.58835e-08,1.8964e-05,71.0625,118.9,132.01,1.0833e+07,1e+06,-3.39758e-08,1.47565e-07,-5.2002e-08,0.00126889,0.0287846,0.000474932,0.0284685,2,5936
12,2.97059e-22,1,8933,25.38,-2.83814e-06,1.87071e-05,-2.76198e-08,1.89212e-05,72,118.9,132.01,1.0833e+07,1e+06,-3.15305e-08,1.46177e-07,-5.49419e-08,0.00136973,0.0282249,6.85155e-07,0.0282984,2,5937
12,2.97059e-22,1,8934,25.38,-2.86843e-06,1.86758e-05,-2.83987e-08,1.88948e-05,72,118.9,132.01,1.0833e+07,1e+06,-3.09876e-08,1.48708e-07,-5.68237e-08,0.00133936,0.0289019,-5.49534e-05,0.0291986,2,5938
12,2.97059e-22,1,8935,25.38,-2.90011e-06,1.86517e-05,-2.87264e-08,1.88759e-05,72,118.9,132.01,1.0833e+07,1e+06,-3.27737e-08,1.5253e-07,-5.74898e-08,0.00128041,0.0295726,1.24552e-05,0.029828,2,5939
12,2.97059e-22,1,8936,25.38,-2.93398e-06,1.86296e-05,-2.88662e-08,1.88592e-05,72,118.9,132.01,1.0833e+07,1e+06,-3.45744e-08,1.55338e-07,-5.77452e-08,0.00129504,0.0299382,4.68268e-06,0.0300205,2,5940
12,2.97059e-22,1,8937,25.38,-2.96926e-06,1.86068e-05,-2.88767e-08,1.88423e-05,72,118.9,132.01,1.0833e+07,1e+06,-3.57956e-08,1.57125e-07,-5.77589e-08,0.00144733,0.030086,-2.15675e-05,0.0298972,2,5941
12,2.97059e-22,1,8938,25.38,-3.00557e-06,1.85816e-05,-2.88504e-08,1.88232e-05,72,118.9,132.01,1.0833e+07,1e+06,-3.69949e-08,1.58972e-07,-5.76969e-08,0.00166606,0.0302318,-3.45555e-05,0.0297466,2,5942
12,2.97059e-22,1,8939,25.38,-3.04325e-06,1.85525e-05,-2.8903e-08,1.88005e-05,72,118.9,132.01,1.0833e+07,1e+06,-3.87454e-08,1.6188e-07,-5.77979e-08,0.00185744,0.030562,-3.23573e-05,0.0298361,2,5943
12,2.97059e-22,1,8940,25.38,-3.08306e-06,1.85187e-05,-2.91976e-08,1.87736e-05,72,118.9,132.01,1.0833e+07,1e+06,-4.12368e-08,1.6659e-07,-5.83892e-08,0.001979,0.0312352,-2.03717e-05,0.0303594,2,5944
12,2.97059e-22,1,8941,25.38,-3.12573e-06,1.84804e-05,-2.98836e-08,1.87429e-05,72,118.9,132.01,1.0833e+07,1e+06,-4.43115e-08,1.73473e-07,-5.97733e-08,0.00204273,0.0323516,1.21822e-06,0.0313974,2,5945
12,2.97059e-22,1,8942,25.38,-3.17168e-06,1.84384e-05,-3.10819e-08,1.87092e-05,72,118.9,132.01,1.0833e+07,1e+06,-4.73738e-08,1.82272e-07,-6.21834e-08,0.00211511,0.0339039,2.57326e-05,0.0328934,2,5946
12,2.97059e-22,1,8943,25.38,-3.22047e-06,1.83946e-05,-3.28094e-08,1.86744e-05,72,118.9,132.01,1.0833e+07,1e+06,-4.92054e-08,1.92511e-07,-6.5767e-08,0.0024041,0.0359187,0.000113062,0.0347353,2,5947
12,2.97059e-22,1,8944,25.38,-3.27009e-06,1.8351e-05,-3.5624e-08,1.86401e-05,72,118.9,132.01,1.0833e+07,1e+06,-5.06923e-08,2.03676e-07,-7.16427e-08,0.00261031,0.0378944,-0.000184136,0.0367664,2,5948
12,3.08239e-22,1,8945,25.38,-3.32186e-06,1.83066e-05,-3.72911e-08,1.86055e-05,74.0625,118.9,132.01,8.89556e+06,906250,-6.12613e-08,2.2354e-07,-7.42004e-08,0.00281885,0.0400625,-0.00041013,0.0399908,2,5949
12,3.34327e-22,2,8946,70.27,-3.39261e-06,1.83011e-05,-3.53683e-08,1.86129e-05,78.875,157.22,-160.07,4.37488e+06,687500,-8.38075e-08,2.29529e-07,-6.98024e-08,0.00110099,0.0342234,-0.000865022,0.0360058,3,2995
12,3.52961e-22,2,8947,70.27,-3.48947e-06,1.83378e-05,-3.29728e-08,1.86669e-05,82.3125,157.22,-160.07,1.14581e+06,531250,-1.03783e-07,2.31173e-07,-6.63654e-08,-0.000570093,0.0269631,-0.000620314,0.0290157,3,2996
12,3.56688e-22,2,8948,70.27,-3.60018e-06,1.83854e-05,-3.43263e-08,1.87346e-05,83,157.22,-160.07,500000,500000,-1.13736e-07,2.48808e-07,-6.92259e-08,-0.000297704,0.0276696,0.000151781,0.0289883,3,2997
12,3.56688e-22,2,8949,70.27,-3.71695e-06,1.84437e-05,-3.74574e-08,1.88146e-05,83,157.22,-160.07,500000,500000,-1.18916e-07,2.62839e-07,-7.48783e-08,-0.00026054,0.0291069,1.47645e-05,0.030399,3,2998
12,3.56688e-22,2,8950,70.27,-3.83801e-06,1.85054e-05,-3.93788e-08,1.88992e-05,83,157.22,-160.07,500000,500000,-1.24289e-07,2.75118e-07,-7.85808e-08,-0.000222034,0.0303849,3.70821e-05,0.0315987,3,2999
12,3.56688e-22,2,8951,70.27,-3.96552e-06,1.8569e-05,-4.02679e-08,1.89877e-05,83,157.22,-160.07,500000,500000,-1.31317e-07,2.87799e-07,-8.04058e-08,-0.000270193,0.0318582,0.000212219,0.0330419,3,3000
12,3.56688e-22,2,8952,70.27,-4.10065e-06,1.86258e-05,-3.92323e-08,1.90719e-05,83,157.22,-160.07,500000,500000,-1.38004e-07,2.93685e-07,-7.84463e-08,-0.000594936,0.0325306,0.000348713,0.0338925,3,3001
12,3.56688e-22,2,8953,70.27,-4.24153e-06,1.86691e-05,-3.62653e-08,1.91449e-05,83,157.22,-160.07,500000,500000,-1.42537e-07,2.8952e-07,-7.22226e-08,-0.00117444,0.031867,0.000557731,0.0334223,3,3002
12,3.56688e-22,2,8954,70.27,-4.38572e-06,1.87055e-05,-3.23015e-08,1.92128e-05,83,157.22,-160.07,500000,500000,-1.37239e-07,2.76157e-07,-6.51643e-08,-0.000948072,0.0305394,0.00123778,0.0314977,3,3003
12,4.23897e-22,2,8955,70.27,-4.51601e-06,1.87431e-05,-2.90773e-08,1.92795e-05,86.5625,157.22,-160.07,2.43744e+06,593750,-1.07166e-07,2.27846e-07,-5.8063e-08,-0.00185427,0.0294668,-0.000513315,0.0316884,3,3004
12,5.80719e-22,1,8956,121.22,-4.60005e-06,1.87404e-05,-2.08633e-08,1.92968e-05,94.875,-21.83,121.47,6.95812e+06,812500,-6.74497e-08,1.71248e-07,-4.18513e-08,-0.00297285,0.0333044,-0.00105942,0.0361905,2,5950
12,6.92734e-22,1,8957,121.22,-4.65091e-06,1.868e-05,-1.45606e-08,1.92503e-05,100.812,-21.83,121.47,1.01872e+07,968750,-5.00459e-08,1.57444e-07,-2.9261e-08,-0.00266935,0.040255,0.000767892,0.0416522,2,5951
12,7.15137e-22,1,8958,121.22,-4.70014e-06,1.86185e-05,-1.63925e-08,1.92026e-05,102,-21.83,121.47,1.0833e+07,1e+06,-4.92812e-08,1.65677e-07,-3.22901e-08,-0.00266012,0.043892,0.000459235,0.0451939,2,5952
12,7.15137e-22,1,8959,121.22,-4.74947e-06,1.8579e-05,-1.8269e-08,1.91764e-05,102,-21.83,121.47,1.0833e+07,1e+06,-4.89529e-08,1.72665e-07,-3.67445e-08,-0.00241291,0.0454525,6.97424e-05,0.046748,2,5953
12,7.15137e-22,1,8960,121.22,-4.79805e-06,1.85549e-05,-1.98168e-08,1.91653e-05,102,-21.83,121.47,1.0833e+07,1e+06,-4.7548e-08,1.7778e-07,-3.96947e-08,-0.00188784,0.046694,7.28362e-05,0.0476757,2,5954
12,7.15137e-22,1,8961,121.22,-4.84457e-06,1.85486e-05,-2.23328e-08,1.91709e-05,102,-21.83,121.47,1.0833e+07,1e+06,-4.65633e-08,1.82485e-07,-4.46358e-08,-0.00182535,0.047562,-0.000486554,0.0487532,2,5955
12,7.31922e-22,1,8962,121.22,-4.89117e-06,1.85616e-05,-2.25967e-08,1.91952e-05,99.9375,-21.83,121.47,1.0833e+07,1e+06,-5.31997e-08,1.95127e-07,-4.5243e-08,-0.00115806,0.0491034,-1.90224e-05,0.050168,2,5956
12,7.71086e-22,1,8963,67.29,-4.95097e-06,1.85951e-05,-2.54942e-08,1.92429e-05,95.125,-176.48,-157.74,1.0833e+07,1e+06,-6.6903e-08,2.12572e-07,-5.07993e-08,-0.00101922,0.0477529,0.000292953,0.0488169,2,5957
12,7.9906e-22,1,8964,67.29,-5.02498e-06,1.8638e-05,-3.09675e-08,1.93035e-05,91.6875,-176.48,-157.74,1.0833e+07,1e+06,-7.55524e-08,2.24643e-07,-6.17985e-08,-0.00179492,0.0451539,-8.86312e-05,0.0463213,2,5958
12,8.04655e-22,1,8965,67.29,-5.10207e-06,1.86859e-05,-3.17246e-08,1.937e-05,91,-176.48,-157.74,1.0833e+07,1e+06,-7.76471e-08,2.33483e-07,-6.39415e-08,-0.00129995,0.0461532,0.000698677,0.0464768,2,5959
12,7.9906e-22,1,8966,67.29,-5.18027e-06,1.87544e-05,-3.47425e-08,1.94568e-05,91.6875,-176.48,-157.74,1.0833e+07,1e+06,-7.75994e-08,2.4248e-07,-6.95557e-08,-0.000992597,0.0485541,-0.000309046,0.049662,2,5960
12,6.96619e-22,1,8967,67.29,-5.25727e-06,1.88596e-05,-3.92847e-08,1.95787e-05,95.6875,-176.48,-157.74,8.89556e+06,906250,-7.36965e-08,2.43913e-07,-7.86685e-08,-0.00154083,0.0464516,-0.00117831,0.0506438,2,5961
12,5.08522e-22,2,8968,109.29,-5.32767e-06,1.89474e-05,-5.33311e-08,1.96822e-05,101.625,165.44,68.53,5.02069e+06,718750,-6.57025e-08,2.55614e-07,-1.07355e-07,-0.00123652,0.0382893,-0.0006596,0.0435793,3,3005
12,3.92449e-22,2,8969,109.29,-5.38867e-06,1.89699e-05,-7.12248e-08,1.97206e-05,104.438,165.44,68.53,2.43744e+06,593750,-6.00121e-08,2.8469e-07,-1.42474e-07,0.000937423,0.0341411,-0.000354932,0.0370107,3,3006
12,3.42804e-22,2,8970,109.29,-5.44769e-06,1.89327e-05,-8.17029e-08,1.9701e-05,104.812,165.44,68.53,1.14581e+06,531250,-6.12743e-08,3.02787e-07,-1.6266e-07,0.00215595,0.0317638,-0.00068707,0.0330132,3,3007
12,3.17982e-22,2,8971,109.29,-5.51122e-06,1.88653e-05,-8.81406e-08,1.96541e-05,105,165.44,68.53,500000,500000,-6.88156e-08,3.14442e-07,-1.75884e-07,0.00151794,0.0291028,-0.00146799,0.0304784,3,3008
12,3.17982e-22,2,8972,109.29,-5.58532e-06,1.87802e-05,-9.01585e-08,1.95934e-05,105,165.44,68.53,500000,500000,-8.34678e-08,3.3394e-07,-1.80446e-07,0.000880867,0.0299494,-0.00155938,0.0313196,3,3009
12,3.17982e-22,2,8973,109.29,-5.67816e-06,1.86379e-05,-9.13078e-08,1.94839e-05,105,165.44,68.53,500000,500000,-9.95704e-08,3.51248e-07,-1.81253e-07,0.000526863,0.0304808,-0.00157007,0.0314511,3,3010
12,3.20044e-22,2,8974,109.29,-5.78446e-06,1.84326e-05,-8.25701e-08,1.93191e-05,105.562,165.44,68.53,500000,500000,-1.08192e-07,3.42414e-07,-1.64501e-07,0.000773931,0.029971,-0.00160125,0.0312578,3,3011
12,3.3035e-22,2,8975,109.29,-5.89454e-06,1.82024e-05,-6.42561e-08,1.91332e-05,108.375,165.44,68.53,500000,500000,-1.15388e-07,3.35132e-07,-1.30399e-07,0.00363581,0.0343327,-0.000622107,0.0363422,3,3012
12,3.44779e-22,2,8976,66.67,-6.01524e-06,1.80496e-05,-5.47123e-08,1.90256e-05,112.312,165.52,-172.29,500000,500000,-1.23721e-07,3.36978e-07,-1.09494e-07,0.00605152,0.0369396,0.000381933,0.0371149,3,3013
12,3.50963e-22,2,8977,66.67,-6.14198e-06,1.79829e-05,-5.28076e-08,1.90029e-05,114,165.52,-172.29,500000,500000,-1.22223e-07,3.1779e-07,-1.05135e-07,0.00530681,0.0326954,-0.000201089,0.0312369,3,3014
12,3.50963e-22,2,8978,66.67,-6.25968e-06,1.79297e-05,-4.85346e-08,1.89911e-05,114,165.52,-172.29,500000,500000,-1.1519e-07,2.93113e-07,-9.70161e-08,0.00458986,0.0297518,-0.000522424,0.0285571,3,3015
12,3.73126e-22,2,8979,66.67,-6.37236e-06,1.78773e-05,-4.38937e-08,1.89791e-05,114.438,165.52,-172.29,1.14581e+06,531250,-1.0223e-07,2.68051e-07,-8.77096e-08,0.003872,0.0291837,-2.22468e-05,0.0284162,3,3016
12,4.61777e-22,2,8980,66.67,-6.46414e-06,1.78401e-05,-4.22864e-08,1.89751e-05,116.188,165.52,-172.29,3.72906e+06,656250,-6.55316e-08,2.27455e-07,-8.50528e-08,0.00266414,0.0309485,0.00037514,0.0309599,3,3017
12,5.72591e-22,1,8981,9.52003,-6.50343e-06,1.78397e-05,-4.13947e-08,1.89882e-05,118.375,63.66,-15.5,6.95812e+06,812500,-2.07865e-08,1.81082e-07,-8.34073e-08,0.00308693,0.0311833,0.000828945,0.0304997,2,5962
12,6.39079e-22,1,8982,9.52003,-6.50572e-06,1.78934e-05,-4.21839e-08,1.90394e-05,119.688,63.66,-15.5,8.89556e+06,906250,4.24823e-09,1.54017e-07,-8.42124e-08,0.00348325,0.0305945,0.000734544,0.0292862,2,5963
12,6.83405e-22,1,8983,9.52003,-6.49493e-06,1.79952e-05,-4.58924e-08,1.91314e-05,120.562,63.66,-15.5,1.01872e+07,968750,1.33966e-08,1.4711e-07,-9.10492e-08,0.00231065,0.0319152,-0.000167394,0.0312141,2,5964
12,7.05568e-22,1,8984,9.52003,-6.47892e-06,1.81143e-05,-4.80386e-08,1.92381e-05,121,63.66,-15.5,1.0833e+07,1e+06,1.41028e-08,1.53377e-07,-9.62758e-08,0.0013996,0.0343023,-0.000406295,0.0339679,2,5965
12,7.05568e-22,1,8985,9.52003,-6.46673e-06,1.82373e-05,-4.95609e-08,1.93499e-05,121,63.66,-15.5,1.0833e+07,1e+06,1.09186e-08,1.64657e-07,-9.93002e-08,0.000778109,0.0370788,-4.75711e-05,0.036947,2,5966
12,7.05568e-22,1,8986,9.52003,-6.45709e-06,1.83556e-05,-5.08067e-08,1.94582e-05,121,63.66,-15.5,1.0833e+07,1e+06,8.43916e-09,1.72316e-07,-1.01566e-07,0.000317857,0.038848,8.79937e-05,0.0388146,2,5967
12,7.05568e-22,1,8987,9.52003,-6.44985e-06,1.84597e-05,-5.06886e-08,1.95541e-05,121,63.66,-15.5,1.0833e+07,1e+06,6.58724e-09,1.73916e-07,-1.01397e-07,1.71385e-05,0.0391166,7.88036e-05,0.0391484,2,5968
12,7.05568e-22,1,8988,9.52003,-6.44391e-06,1.85468e-05,-4.94312e-08,1.96344e-05,121,63.66,-15.5,1.0833e+07,1e+06,5.69141e-09,1.69935e-07,-9.8848e-08,-5.93216e-05,0.038097,2.11341e-05,0.038137,2,5969
12,7.05568e-22,1,8989,9.52003,-6.43846e-06,1.86218e-05,-4.79579e-08,1.97035e-05,121,63.66,-15.5,1.0833e+07,1e+06,5.4008e-09,1.64739e-07,-9.58991e-08,-3.51512e-05,0.0368535,-1.75783e-05,0.0368822,2,5970
12,4.94721e-22,2,8990,115.35,-2.15045e-09,1.88927e-05,-6.29363e-08,1.88928e-05,10,-67.69,60.87,4.37488e+06,687500,-5.52373e-09,2.66125e-07,-1.25633e-07,0.00669946,0.0536648,-0.0007698,0.0523125,3,3018
12,4.44482e-22,2,8991,115.35,-8.89701e-09,1.88943e-05,-5.52735e-08,1.88944e-05,8,-67.69,60.87,1.79163e+06,562500,-7.50557e-09,2.37423e-07,-1.10701e-07,0.00667665,0.0445459,-0.000285684,0.0424056,3,3019
12,4.19363e-22,2,8992,115.35,-1.71616e-08,1.88617e-05,-5.0762e-08,1.88618e-05,7,-67.69,60.87,500000,500000,-9.11177e-09,2.20887e-07,-1.01316e-07,0.00678834,0.0394121,-2.8126e-05,0.036822,3,3020
12,4.19363e-22,2,8993,115.35,-2.71205e-08,1.88085e-05,-4.99736e-08,1.88086e-05,7,-67.69,60.87,500000,500000,-1.34129e-08,2.18641e-07,-1.00024e-07,0.00603683,0.0381294,-0.000191049,0.0357668,3,3021
12,4.19363e-22,2,8994,115.35,-4.39873e-08,1.87346e-05,-4.97426e-08,1.87347e-05,7,-67.69,60.87,500000,500000,-2.12987e-08,2.25337e-07,-9.99454e-08,0.00515445,0.0386048,-0.000248219,0.0365185,3,3022
12,4.19363e-22,2,8995,115.35,-6.9718e-08,1.86503e-05,-4.92894e-08,1.86505e-05,7,-67.69,60.87,500000,500000,-3.15545e-08,2.34219e-07,-9.8333e-08,0.00410508,0.0397104,-0.000204736,0.037976,3,3023
12,4.12594e-22,2,8996,115.35,-1.07096e-07,1.85607e-05,-4.27543e-08,1.85611e-05,13,-67.69,60.87,500000,500000,-5.37398e-08,2.36063e-07,-8.5129e-08,0.00377367,0.0362744,0.000579408,0.0350561,3,3024
12,3.99057e-22,2,8997,58.62,-1.77198e-07,1.85006e-05,-4.45162e-08,1.85015e-05,25,158.52,96.68,500000,500000,-8.70642e-08,2.48967e-07,-8.94452e-08,0.00319878,0.0269798,0.000108625,0.0263415,3,3025
12,3.92288e-22,2,8998,58.62,-2.81225e-07,1.84675e-05,-5.11046e-08,1.84697e-05,31,158.52,96.68,500000,500000,-1.10309e-07,2.70648e-07,-1.02321e-07,0.0022216,0.0224221,-0.000391989,0.0216939,3,3026
12,3.92288e-22,2,8999,58.62,-3.97815e-07,1.84347e-05,-4.98828e-08,1.8439e-05,31,158.52,96.68,500000,500000,-1.18652e-07,2.79436e-07,-9.97249e-08,0.00196587,0.023413,0.000143957,0.0224553,3,3027
12,3.92288e-22,2,9000,58.62,-5.1853e-07,1.84129e-05,-4.93793e-08,1.84202e-05,31,158.52,96.68,500000,500000,-1.20103e-07,2.79082e-07,-9.86746e-08,0.00185978,0.023409,-6.17125e-05,0.0226355,3,3028
12,3.92288e-22,2,9001,58.62,-6.38021e-07,1.84023e-05,-4.80723e-08,1.84135e-05,31,158.52,96.68,500000,500000,-1.18617e-07,2.74592e-07,-9.61035e-08,0.00192622,0.0231769,-7.66514e-05,0.0225001,3,3029
12,3.92288e-22,2,9002,58.62,-7.55763e-07,1.84022e-05,-4.65432e-08,1.84178e-05,31,158.52,96.68,500000,500000,-1.17335e-07,2.69369e-07,-9.30758e-08,0.0018784,0.0228097,-4.38367e-05,0.022281,3,3030
12,3.92288e-22,2,9003,58.62,-8.72692e-07,1.84105e-05,-4.50518e-08,1.84313e-05,31,158.52,96.68,500000,500000,-1.16833e-07,2.64632e-07,-9.01045e-08,0.00170627,0.0224,9.98107e-06,0.0220377,3,3031
12,3.92288e-22,2,9004,58.62,-9.8943e-07,1.84246e-05,-4.37143e-08,1.84512e-05,31,158.52,96.68,500000,500000,-1.16343e-07,2.601e-07,-8.74146e-08,0.00150959,0.0219746,6.68447e-05,0.0217416,3,3032
12,3.92288e-22,2,9005,58.62,-1.10538e-06,1.84416e-05,-4.2528e-08,1.84748e-05,31,158.52,96.68,500000,500000,-1.14876e-07,2.54982e-07,-8.51342e-08,0.00137561,0.0215061,9.62295e-05,0.0213357,3,3033
12,3.92288e-22,2,9006,58.62,-1.21918e-06,1.84576e-05,-4.18457e-08,1.84979e-05,31,158.52,96.68,500000,500000,-1.12132e-07,2.49546e-07,-8.36053e-08,0.0013515,0.0210391,0.000101595,0.020799,3,3034
12,3.92288e-22,2,9007,58.62,-1.32964e-06,1.84642e-05,-4.20367e-08,1.85121e-05,31,158.52,96.68,500000,500000,-1.06916e-07,2.44469e-07,-8.39932e-08,0.00172572,0.0205776,8.46287e-05,0.0199828,3,3035
12,3.72923e-22,2,9008,58.62,-1.43302e-06,1.84535e-05,-4.04273e-08,1.85091e-05,33.25,158.52,96.68,3.08325e+06,625000,-8.81213e-08,2.35017e-07,-8.11285e-08,0.00226759,0.0274907,-0.0002701,0.0277983,3,3036
12,3.34192e-22,1,9009,151.34,-1.50589e-06,1.84903e-05,-4.01813e-08,1.85516e-05,37.75,-67.01,136.63,8.24975e+06,875000,-5.71953e-08,2.24605e-07,-8.03533e-08,0.00255723,0.0397416,-0.000169271,0.0402897,2,5971
12,3.14826e-22,1,9010,151.34,-1.54741e-06,1.85657e-05,-4.13773e-08,1.86301e-05,40,-67.01,136.63,1.0833e+07,1e+06,-3.8031e-08,2.16826e-07,-8.25829e-08,0.00310348,0.0444798,0.000108994,0.0441794,2,5972
12,3.14826e-22,1,9011,151.34,-1.58195e-06,1.86167e-05,-4.04699e-08,1.86839e-05,40,-67.01,136.63,1.0833e+07,1e+06,-3.46009e-08,2.10479e-07,-8.09806e-08,0.00343372,0.0436498,-4.28669e-05,0.0434503,2,5973
12,3.14826e-22,1,9012,151.34,-1.61661e-06,1.86645e-05,-3.98094e-08,1.87344e-05,40,-67.01,136.63,1.0833e+07,1e+06,-3.63142e-08,2.08384e-07,-7.96352e-08,0.0030078,0.042849,-3.71334e-05,0.0426604,2,5974
12,3.14826e-22,1,9013,151.34,-1.65458e-06,1.87203e-05,-3.93842e-08,1.87933e-05,40,-67.01,136.63,1.0833e+07,1e+06,-4.05936e-08,2.09125e-07,-7.87475e-08,0.00226642,0.0422585,-1.92425e-05,0.0420743,2,5975
12,3.14826e-22,1,9014,151.34,-1.69779e-06,1.87901e-05,-3.9247e-08,1.88667e-05,40,-67.01,136.63,1.0833e+07,1e+06,-4.6405e-08,2.10446e-07,-7.84799e-08,0.00122619,0.0414462,-0.000259949,0.0415182,2,5976
12,3.78562e-22,1,9015,151.34,-1.74739e-06,1.8877e-05,-3.61613e-08,1.89578e-05,43,-67.01,136.63,1.0833e+07,1e+06,-5.68206e-08,2.09059e-07,-7.23342e-08,0.000394759,0.0391124,0.000101189,0.0391853,2,5977
12,5.06032e-22,1,9016,72.45,-1.81144e-06,1.895e-05,-3.17468e-08,1.90364e-05,49,-130,-165.58,1.0833e+07,1e+06,-6.98496e-08,2.03646e-07,-6.35236e-08,-0.000274182,0.0348491,0.000259245,0.0350049,2,5978
12,5.69767e-22,1,9017,72.45,-1.88709e-06,1.90003e-05,-2.94886e-08,1.90938e-05,52,-130,-165.58,1.0833e+07,1e+06,-7.58711e-08,1.95657e-07,-5.90044e-08,-0.00117383,0.0314358,-0.000132823,0.0321308,2,5979
12,5.69767e-22,1,9018,72.45,-1.96318e-06,1.9049e-05,-2.76319e-08,1.91499e-05,52,-130,-165.58,1.0833e+07,1e+06,-7.57349e-08,1.8639e-07,-5.52006e-08,-0.00199536,0.0295424,-5.86033e-05,0.0306656,2,5980
12,5.69767e-22,1,9019,72.45,-2.03856e-06,1.90908e-05,-2.55605e-08,1.91994e-05,52,-130,-165.58,1.0833e+07,1e+06,-7.50223e-08,1.74816e-07,-5.04919e-08,-0.00286428,0.0272544,4.86072e-05,0.0287977,2,5981
12,5.54191e-22,1,9020,72.45,-2.11322e-06,1.91211e-05,-2.30531e-08,1.92375e-05,51.75,-130,-165.58,1.01872e+07,968750,-7.52683e-08,1.64271e-07,-4.58989e-08,-0.00377285,0.0248911,-4.52828e-05,0.0274594,2,5982
12,5.27699e-22,1,9021,72.45,-2.18909e-06,1.91132e-05,-2.25666e-08,1.92382e-05,51.0625,-130,-165.58,8.89556e+06,906250,-7.36603e-08,1.68853e-07,-4.61445e-08,-0.0031422,0.0261229,0.00032524,0.0284776,2,5983
12,5.21443e-22,1,9022,72.45,-2.26054e-06,1.90731e-05,-2.4749e-08,1.92066e-05,50.4375,-130,-165.58,8.24975e+06,875000,-6.9159e-08,1.79624e-07,-4.98224e-08,-0.00171626,0.0297273,0.000681665,0.0307172,2,5984
12,5.26103e-22,1,9023,72.45,-2.32741e-06,1.90439e-05,-2.68973e-08,1.91856e-05,50.25,-130,-165.58,8.24975e+06,875000,-6.74217e-08,1.86311e-07,-5.35216e-08,-0.00111667,0.0316477,0.000497345,0.0322022,2,5985
12,4.9029e-22,1,9024,72.45,-2.39539e-06,1.90476e-05,-2.95092e-08,1.91977e-05,49.9375,-130,-165.58,6.95812e+06,812500,-6.88384e-08,1.89902e-07,-5.81154e-08,-0.00124421,0.0300813,0.000295243,0.031593,2,5986
12,4.49818e-22,2,9025,102.62,-2.46509e-06,1.9042e-05,-3.01591e-08,1.9201e-05,49.8125,3.44,160.65,5.6665e+06,750000,-6.83798e-08,1.91092e-07,-6.09385e-08,-0.000661058,0.0277813,0.000842837,0.0295394,3,3037
12,4.91886e-22,1,9026,72.45,-2.53215e-06,1.90165e-05,-2.92921e-08,1.91844e-05,50.75,-130,-165.58,7.60394e+06,843750,-6.41029e-08,1.91864e-07,-5.97174e-08,0.00127394,0.0295467,0.00113841,0.0296581,2,5987
12,5.54191e-22,1,9027,72.45,-2.59329e-06,1.90218e-05,-2.8365e-08,1.91978e-05,51.75,-130,-165.58,1.01872e+07,968750,-5.78163e-08,1.76467e-07,-5.59143e-08,0.0017677,0.0288399,2.76415e-05,0.0283382,2,5988
12,6.38876e-22,1,9028,72.45,-2.64778e-06,1.90498e-05,-2.38983e-08,1.92329e-05,53.25,-130,-165.58,1.0833e+07,1e+06,-4.28617e-08,1.42355e-07,-4.77608e-08,0.000935482,0.0247711,-6.28793e-05,0.0246012,2,5989
12,7.77092e-22,1,9029,113.67,-2.67902e-06,1.90603e-05,-2.27288e-08,1.92476e-05,55.75,-67.11,135.77,1.0833e+07,1e+06,-2.27773e-08,1.16328e-07,-4.53819e-08,0.000419069,0.023478,-2.00648e-05,0.0235676,2,5990
12,8.462e-22,1,9030,113.67,-2.69333e-06,1.90339e-05,-2.45654e-08,1.92236e-05,57,-67.11,135.77,1.0833e+07,1e+06,-1.61106e-08,1.14228e-07,-4.85624e-08,-3.21804e-05,0.024716,-0.000119563,0.0249021,2,5991
12,8.11879e-22,1,9031,113.67,-2.71124e-06,1.89929e-05,-2.37294e-08,1.91854e-05,57.9375,-67.11,135.77,1.0833e+07,1e+06,-2.00269e-08,1.19968e-07,-4.78474e-08,-0.000531228,0.0260743,0.000279761,0.0264397,2,5992
12,6.40272e-22,1,9032,113.67,-2.73339e-06,1.8951e-05,-2.37912e-08,1.91471e-05,62.625,-67.11,135.77,1.0833e+07,1e+06,-2.64734e-08,1.28428e-07,-4.793e-08,-0.00043805,0.0270842,0.000133492,0.0277842,2,5993
12,4.00023e-22,1,9033,25.38,-2.76418e-06,1.88987e-05,-2.38812e-08,1.90997e-05,69.1875,118.9,132.01,1.0833e+07,1e+06,-3.40037e-08,1.37056e-07,-4.74265e-08,0.000150812,0.0271029,0.000319816,0.0275722,2,5994
12,2.97059e-22,1,9034,25.38,-2.8014e-06,1.8852e-05,-2.48048e-08,1.9059e-05,72,118.9,132.01,1.0833e+07,1e+06,-3.74006e-08,1.42981e-07,-4.95529e-08,0.000185325,0.0272859,0.000301626,0.0278307,2,5995
12,2.97059e-22,1,9035,25.38,-2.83898e-06,1.88251e-05,-2.69895e-08,1.9038e-05,72,118.9,132.01,1.0833e+07,1e+06,-3.86095e-08,1.50915e-07,-5.40416e-08,5.03098e-06,0.0289133,-3.69421e-05,0.0298548,2,5996
12,2.97059e-22,1,9036,25.38,-2.87861e-06,1.88061e-05,-2.79566e-08,1.90252e-05,72,118.9,132.01,1.0833e+07,1e+06,-4.05085e-08,1.57105e-07,-5.59312e-08,0.000110465,0.0299948,-3.35968e-05,0.0307863,2,5997
12,2.97059e-22,1,9037,25.38,-2.92e-06,1.87875e-05,-2.83906e-08,1.90131e-05,72,118.9,132.01,1.0833e+07,1e+06,-4.16483e-08,1.60703e-07,-5.68039e-08,0.000368741,0.0305248,-3.60939e-05,0.0309739,2,5998
12,2.97059e-22,1,9038,25.38,-2.96191e-06,1.87668e-05,-2.85944e-08,1.89991e-05,72,118.9,132.01,1.0833e+07,1e+06,-4.20832e-08,1.62712e-07,-5.71813e-08,0.000720155,0.0307648,-3.44813e-05,0.03083,2,5999
12,2.97059e-22,1,9039,25.38,-3.00417e-06,1.87435e-05,-2.86911e-08,1.89828e-05,72,118.9,132.01,1.0833e+07,1e+06,-4.26945e-08,1.64516e-07,-5.73794e-08,0.00102714,0.0309558,-3.912e-05,0.0307086,2,6000
12,2.97059e-22,1,9040,25.38,-3.0473e-06,1.87171e-05,-2.88127e-08,1.89635e-05,72,118.9,132.01,1.0833e+07,1e+06,-4.39084e-08,1.67055e-07,-5.76239e-08,0.00125409,0.0312634,-3.8173e-05,0.0307896,2,6001
12,2.97059e-22,1,9041,25.38,-3.09199e-06,1.86875e-05,-2.91401e-08,1.89415e-05,72,118.9,132.01,1.0833e+07,1e+06,-4.57444e-08,1.70771e-07,-5.82402e-08,0.00138404,0.0317786,-5.70035e-05,0.0311838,2,6002
12,2.97059e-22,1,9042,25.38,-3.13879e-06,1.86553e-05,-2.98214e-08,1.89175e-05,72,118.9,132.01,1.0833e+07,1e+06,-4.80294e-08,1.76534e-07,-5.96752e-08,0.00148908,0.0327153,-8.59565e-05,0.032057,2,6003
12,2.97059e-22,1,9043,25.38,-3.18804e-06,1.86213e-05,-3.09642e-08,1.88922e-05,72,118.9,132.01,1.0833e+07,1e+06,-5.02539e-08,1.84211e-07,-6.19733e-08,0.00168258,0.0340774,-7.7995e-05,0.033318,2,6004
12,2.97059e-22,1,9044,25.38,-3.2393e-06,1.85866e-05,-3.25835e-08,1.88668e-05,72,118.9,132.01,1.0833e+07,1e+06,-5.18754e-08,1.92902e-07,-6.50791e-08,0.0019787,0.0357259,-5.76462e-05,0.0348234,2,6005
12,2.97059e-22,1,9045,25.38,-3.29179e-06,1.85537e-05,-3.46439e-08,1.88435e-05,72,118.9,132.01,1.0833e+07,1e+06,-5.27225e-08,2.03084e-07,-6.98281e-08,0.00231546,0.0377144,-0.000109703,0.0366879,2,6006
12,3.00786e-22,1,9046,25.38,-3.34474e-06,1.85308e-05,-3.83957e-08,1.88303e-05,72.6875,118.9,132.01,1.01872e+07,968750,-5.54735e-08,2.18689e-07,-7.61448e-08,0.00269417,0.0404282,-0.000426143,0.0398013,2,6007
12,3.1942e-22,1,9047,25.38,-3.40274e-06,1.85277e-05,-3.58226e-08,1.88376e-05,76.125,118.9,132.01,6.95812e+06,812500,-7.1431e-08,2.21136e-07,-7.14416e-08,0.0013103,0.036885,-0.001112,0.0383373,2,6008
12,3.45508e-22,2,9048,70.27,-3.4876e-06,1.85661e-05,-3.24658e-08,1.88909e-05,80.9375,157.22,-160.07,2.43744e+06,593750,-9.73665e-08,2.28308e-07,-6.54692e-08,-0.000185133,0.0294053,-0.000560566,0.0315152,3,3038
12,3.56688e-22,2,9049,70.27,-3.59747e-06,1.86353e-05,-3.56313e-08,1.89794e-05,83,157.22,-160.07,500000,500000,-1.1208e-07,2.49513e-07,-7.11952e-08,-0.000177632,0.027746,0.000119193,0.0290522,3,3039
12,3.56688e-22,2,9050,70.27,-3.71176e-06,1.87056e-05,-3.77188e-08,1.90704e-05,83,157.22,-160.07,500000,500000,-1.15996e-07,2.60419e-07,-7.54487e-08,-0.000141598,0.0289985,-2.58754e-05,0.0303155,3,3040
12,3.56688e-22,2,9051,70.27,-3.82947e-06,1.87781e-05,-3.80335e-08,1.91646e-05,83,157.22,-160.07,500000,500000,-1.19496e-07,2.69635e-07,-7.62673e-08,0.000182442,0.0303076,0.000388417,0.031185,3,3041
12,3.58042e-22,2,9052,70.27,-3.95075e-06,1.88538e-05,-3.82831e-08,1.92633e-05,82.75,157.22,-160.07,500000,500000,-1.2063e-07,2.73732e-07,-7.70276e-08,-2.16982e-05,0.0319595,-0.000138604,0.033198,3,3042
12,3.60751e-22,2,9053,70.27,-4.07073e-06,1.89149e-05,-3.64781e-08,1.9348e-05,82.25,157.22,-160.07,500000,500000,-1.21183e-07,2.6608e-07,-7.23578e-08,-0.00108769,0.032537,-0.00112789,0.0348056,3,3043
12,3.62105e-22,2,9054,70.27,-4.19312e-06,1.89528e-05,-3.21391e-08,1.94111e-05,82,157.22,-160.07,500000,500000,-1.25997e-07,2.57225e-07,-6.33122e-08,-0.0022357,0.0317163,-0.00109142,0.0344898,3,3044
12,3.56207e-22,2,9055,70.27,-4.32272e-06,1.89755e-05,-2.97921e-08,1.94617e-05,82.0625,157.22,-160.07,500000,500000,-1.24159e-07,2.48372e-07,-5.89754e-08,-0.00281414,0.0302871,-0.000203491,0.0330872,3,3045
12,4.38566e-22,2,9056,70.27,-4.44144e-06,1.89503e-05,-2.36929e-08,1.94639e-05,87.125,157.22,-160.07,3.08325e+06,625000,-9.86018e-08,1.93979e-07,-4.82394e-08,-0.00530975,0.0275351,-0.00138911,0.03246,3,3046
12,6.2098e-22,1,9057,121.22,-4.51992e-06,1.88889e-05,-1.32894e-08,1.94222e-05,97.0625,-21.83,121.47,8.24975e+06,875000,-6.58266e-08,1.46589e-07,-2.77897e-08,-0.00586017,0.03244,-0.000355147,0.0365988,2,6009
12,7.15137e-22,1,9058,121.22,-4.57309e-06,1.8833e-05,-1.1727e-08,1.93803e-05,102,-21.83,121.47,1.0833e+07,1e+06,-5.43558e-08,1.54911e-07,-2.32161e-08,-0.00416924,0.0410459,0.0014603,0.0427963,2,6010
12,7.15137e-22,1,9059,121.22,-4.62864e-06,1.87853e-05,-1.56263e-08,1.93471e-05,102,-21.83,121.47,1.0833e+07,1e+06,-5.54816e-08,1.66301e-07,-3.07578e-08,-0.00422249,0.0436929,0.000216007,0.0460118,2,6011
12,7.15137e-22,1,9060,121.22,-4.68406e-06,1.8751e-05,-1.6906e-08,1.93272e-05,102,-21.83,121.47,1.0833e+07,1e+06,-5.48214e-08,1.71557e-07,-3.38502e-08,-0.00389018,0.0449442,3.18507e-05,0.0471031,2,6012
12,7.15137e-22,1,9061,121.22,-4.73828e-06,1.87314e-05,-1.81195e-08,1.93214e-05,102,-21.83,121.47,1.0833e+07,1e+06,-5.37522e-08,1.7553e-07,-3.61986e-08,-0.00349342,0.0458702,4.45266e-05,0.0477528,2,6013
12,7.15137e-22,1,9062,121.22,-4.79156e-06,1.873e-05,-1.97307e-08,1.93332e-05,102,-21.83,121.47,1.0833e+07,1e+06,-5.3311e-08,1.80486e-07,-3.97938e-08,-0.00336853,0.0468539,-0.000170783,0.0487332,2,6014
12,7.20732e-22,1,9063,121.22,-4.8449e-06,1.87534e-05,-2.14468e-08,1.93691e-05,101.312,-21.83,121.47,1.0833e+07,1e+06,-5.54127e-08,1.88289e-07,-4.24019e-08,-0.00303084,0.0481145,-0.000235817,0.0500333,2,6015
12,7.43111e-22,1,9064,121.22,-4.90238e-06,1.8801e-05,-2.16265e-08,1.94297e-05,98.5625,-21.83,121.47,1.0833e+07,1e+06,-6.36439e-08,1.9806e-07,-4.35268e-08,-0.00269313,0.0478021,-5.56505e-05,0.0499097,2,6016
12,7.71086e-22,1,9065,67.29,-4.97219e-06,1.8859e-05,-2.50025e-08,1.95035e-05,95.125,-176.48,-157.74,1.0833e+07,1e+06,-7.60077e-08,2.10802e-07,-5.02687e-08,-0.00366674,0.0462596,-0.000693758,0.0492271,2,6017
12,7.82275e-22,1,9066,67.29,-5.0544e-06,1.89194e-05,-2.71629e-08,1.95829e-05,93.75,-176.48,-157.74,1.0833e+07,1e+06,-8.57455e-08,2.2155e-07,-5.38909e-08,-0.00483915,0.0463573,-0.000913652,0.0499028,2,6018
12,7.71086e-22,1,9067,67.29,-5.14368e-06,1.89903e-05,-2.74586e-08,1.96746e-05,95.125,-176.48,-157.74,1.0833e+07,1e+06,-8.66185e-08,2.20285e-07,-5.40902e-08,-0.0058088,0.0471185,-0.00186405,0.0521113,2,6019
12,7.18289e-22,1,9068,121.22,-5.22764e-06,1.90801e-05,-2.45685e-08,1.97833e-05,98.75,-21.83,121.47,1.01872e+07,968750,-7.67437e-08,2.00402e-07,-4.81075e-08,-0.00616316,0.0441576,-0.00121612,0.0500673,2,6020
12,6.46265e-22,1,9069,121.22,-5.29717e-06,1.91632e-05,-2.3267e-08,1.98819e-05,101.875,-21.83,121.47,8.89556e+06,906250,-6.31911e-08,1.86557e-07,-4.81877e-08,-0.00473981,0.0390764,0.000722866,0.0437397,2,6021
12,5.66204e-22,1,9070,121.22,-5.35402e-06,1.92149e-05,-3.1325e-08,1.99469e-05,103.125,-21.83,121.47,6.95812e+06,812500,-5.89122e-08,2.02738e-07,-6.52849e-08,-0.00277613,0.0369201,0.001126,0.0402233,2,6022
12,4.66915e-22,2,9071,109.29,-5.41499e-06,1.92155e-05,-4.72867e-08,1.9964e-05,103.875,165.44,68.53,4.37488e+06,687500,-6.54254e-08,2.36939e-07,-9.42165e-08,-0.00156474,0.0340061,0.000919504,0.0367518,3,3047
12,4.17271e-22,2,9072,109.29,-5.48487e-06,1.91729e-05,-6.10047e-08,1.99421e-05,104.25,165.44,68.53,3.08325e+06,625000,-6.79501e-08,2.61914e-07,-1.20445e-07,-0.000629949,0.0316837,-0.000265706,0.0341102,3,3048
12,4.17271e-22,2,9073,109.29,-5.55089e-06,1.91071e-05,-6.55816e-08,1.98972e-05,104.25,165.44,68.53,3.08325e+06,625000,-6.69855e-08,2.75503e-07,-1.30867e-07,0.000641313,0.0327777,-0.000829828,0.0343151,3,3049
12,3.9451e-22,2,9074,109.29,-5.61884e-06,1.89845e-05,-6.834e-08,1.97986e-05,105,165.44,68.53,2.43744e+06,593750,-7.69292e-08,2.98456e-07,-1.34838e-07,0.00234398,0.0345165,-0.000219961,0.0349424,3,3050
12,3.53111e-22,2,9075,109.29,-5.70475e-06,1.87681e-05,-6.07736e-08,1.96161e-05,107.625,165.44,68.53,1.14581e+06,531250,-9.6302e-08,3.15916e-07,-1.22202e-07,0.00463508,0.0357304,0.000699802,0.0360713,3,3051
12,3.40657e-22,2,9076,66.67,-5.81145e-06,1.85346e-05,-5.18443e-08,1.94244e-05,111.188,165.52,-172.29,500000,500000,-1.11721e-07,3.29082e-07,-1.05919e-07,0.00719639,0.037628,0.00175845,0.0371593,3,3052
12,3.48902e-22,2,9077,66.67,-5.92819e-06,1.83852e-05,-5.24962e-08,1.93174e-05,113.438,165.52,-172.29,500000,500000,-1.18162e-07,3.30571e-07,-1.04234e-07,0.00726513,0.0364438,0.00150853,0.0344539,3,3053
12,3.50963e-22,2,9078,66.67,-6.04777e-06,1.82972e-05,-5.20897e-08,1.92708e-05,114,165.52,-172.29,500000,500000,-1.18631e-07,3.12965e-07,-1.03588e-07,0.0055457,0.0323002,8.60951e-05,0.0303731,3,3054
12,3.50963e-22,2,9079,66.67,-6.16545e-06,1.82267e-05,-4.85037e-08,1.92413e-05,114,165.52,-172.29,500000,500000,-1.15992e-07,2.96432e-07,-9.73492e-08,0.00484687,0.0301555,-0.00027053,0.0285133,3,3055
12,3.50963e-22,2,9080,66.67,-6.27975e-06,1.81607e-05,-4.62408e-08,1.92158e-05,114,165.52,-172.29,500000,500000,-1.12931e-07,2.83774e-07,-9.21777e-08,0.00450105,0.0286819,-0.000300629,0.027141,3,3056
12,3.73126e-22,2,9081,66.67,-6.39131e-06,1.80963e-05,-4.46907e-08,1.91919e-05,114.438,165.52,-172.29,1.14581e+06,531250,-1.037e-07,2.68269e-07,-8.88939e-08,0.00345838,0.0288684,-0.00032308,0.0281806,3,3057
12,4.17451e-22,2,9082,66.67,-6.48715e-06,1.80523e-05,-4.14605e-08,1.91826e-05,115.312,165.52,-172.29,2.43744e+06,593750,-8.35083e-08,2.44605e-07,-8.34673e-08,0.00318682,0.0294223,0.000437657,0.0288266,3,3058
12,4.8394e-22,2,9083,66.67,-6.55833e-06,1.80661e-05,-3.98182e-08,1.92197e-05,116.625,165.52,-172.29,4.37488e+06,687500,-5.03155e-08,2.09389e-07,-8.0512e-08,0.00353846,0.0298154,0.00118199,0.0289248,3,3059
12,5.94754e-22,1,9084,9.52003,-6.58778e-06,1.81445e-05,-4.3964e-08,1.93034e-05,118.812,63.66,-15.5,7.60394e+06,843750,-8.54533e-09,1.7025e-07,-8.7457e-08,0.00308717,0.0313108,0.000537065,0.0308189,2,6023
12,6.83405e-22,1,9085,9.52003,-6.57542e-06,1.82659e-05,-4.89822e-08,1.94134e-05,120.562,63.66,-15.5,1.01872e+07,968750,1.49359e-08,1.54967e-07,-9.71812e-08,0.00238573,0.0336407,-0.000364082,0.0332427,2,6024
12,7.05568e-22,1,9086,9.52004,-6.55791e-06,1.84021e-05,-5.11773e-08,1.95358e-05,121,63.66,-15.5,1.0833e+07,1e+06,1.43436e-08,1.64509e-07,-1.02649e-07,0.00122237,0.0369353,-0.000384102,0.0368518,2,6025
12,7.05568e-22,1,9087,9.52004,-6.54673e-06,1.85292e-05,-5.21857e-08,1.96518e-05,121,63.66,-15.5,1.0833e+07,1e+06,9.45608e-09,1.7617e-07,-1.04651e-07,0.000383844,0.0397351,1.97788e-05,0.0398014,2,6026
12,7.05568e-22,1,9088,9.52004,-6.539e-06,1.86357e-05,-5.20171e-08,1.97497e-05,121,63.66,-15.5,1.0833e+07,1e+06,6.64868e-09,1.78836e-07,-1.04002e-07,-9.73414e-06,0.0402725,0.000128215,0.0403246,2,6027
12,7.05568e-22,1,9089,9.52003,-6.53344e-06,1.87183e-05,-5.02069e-08,1.98258e-05,121,63.66,-15.5,1.0833e+07,1e+06,5.31241e-09,1.73401e-07,-1.00423e-07,-0.000140995,0.0388923,5.70495e-05,0.0389578,2,6028
12,7.05568e-22,1,9090,9.52003,-6.52838e-06,1.87868e-05,-4.80019e-08,1.98889e-05,121,63.66,-15.5,1.0833e+07,1e+06,5.09235e-09,1.65032e-07,-9.59409e-08,-9.64892e-05,0.0369007,-3.19521e-05,0.0369669,2,6029
12,5.65669e-22,1,9091,90.39,-2.29293e-09,1.91523e-05,-5.48604e-08,1.91524e-05,5.125,73.97,-52.09,6.31231e+06,781250,-7.46222e-09,2.3517e-07,-1.09882e-07,0.00438111,0.049994,-0.000140007,0.048718,2,6030
12,4.68132e-22,2,9092,115.35,-1.26315e-08,1.91341e-05,-5.5088e-08,1.91341e-05,6.375,-67.69,60.87,2.43744e+06,593750,-1.42709e-08,2.34993e-07,-1.091e-07,0.00484958,0.0443713,-0.000984216,0.0432643,3,3060
12,4.19363e-22,2,9093,115.35,-3.08348e-08,1.90865e-05,-4.87703e-08,1.90866e-05,7,-67.69,60.87,500000,500000,-1.90843e-08,2.2941e-07,-9.854e-08,0.00570596,0.0408355,0.000185206,0.0385683,3,3061
12,4.19363e-22,2,9094,115.35,-5.08e-08,1.90291e-05,-4.8364e-08,1.90292e-05,7,-67.69,60.87,500000,500000,-2.06649e-08,2.22362e-07,-9.66164e-08,0.00515518,0.0388618,-9.32722e-05,0.0368194,3,3062
12,4.19363e-22,2,9095,115.35,-7.21646e-08,1.89597e-05,-4.83003e-08,1.89599e-05,7,-67.69,60.87,500000,500000,-2.35336e-08,2.24544e-07,-9.6616e-08,0.00488099,0.0388529,-9.71279e-05,0.0368447,3,3063
12,4.19363e-22,2,9096,115.35,-9.78671e-08,1.88834e-05,-4.86776e-08,1.88837e-05,7,-67.69,60.87,500000,500000,-3.16758e-08,2.32731e-07,-9.73699e-08,0.00383507,0.0397747,-0.000269208,0.0382631,3,3064
12,4.12594e-22,2,9097,115.35,-1.35516e-07,1.87996e-05,-4.33007e-08,1.88001e-05,13,-67.69,60.87,500000,500000,-5.46715e-08,2.41984e-07,-8.6487e-08,0.00385365,0.037548,0.000743538,0.0361912,3,3065
12,3.99057e-22,2,9098,58.62,-2.0721e-07,1.87496e-05,-4.48572e-08,1.87508e-05,25,158.52,96.68,500000,500000,-8.60941e-08,2.51832e-07,-8.97704e-08,0.00363312,0.0279161,0.000205171,0.0269644,3,3066
12,3.92288e-22,2,9099,58.62,-3.07704e-07,1.87316e-05,-5.00649e-08,1.87342e-05,31,158.52,96.68,500000,500000,-1.04575e-07,2.61546e-07,-1.00326e-07,0.00252553,0.0217712,-0.000619,0.0209977,3,3067
12,3.92288e-22,2,9100,58.62,-4.1636e-07,1.8708e-05,-4.80822e-08,1.87127e-05,31,158.52,96.68,500000,500000,-1.11073e-07,2.66712e-07,-9.60882e-08,0.00226337,0.0225126,0.000116177,0.0214186,3,3068
12,3.92288e-22,2,9101,58.62,-5.29851e-07,1.86871e-05,-4.73216e-08,1.86946e-05,31,158.52,96.68,500000,500000,-1.14106e-07,2.67057e-07,-9.457e-08,0.00193952,0.0224776,-1.39945e-05,0.0216377,3,3069
12,3.92288e-22,2,9102,58.62,-6.44573e-07,1.86734e-05,-4.61839e-08,1.86846e-05,31,158.52,96.68,500000,500000,-1.1525e-07,2.65695e-07,-9.23496e-08,0.00183539,0.0224512,-2.55579e-06,0.0218,3,3070
12,3.92288e-22,2,9103,58.62,-7.60351e-07,1.86693e-05,-4.50872e-08,1.86849e-05,31,158.52,96.68,500000,500000,-1.16363e-07,2.64076e-07,-9.01734e-08,0.00168926,0.0223464,1.59736e-05,0.0219381,3,3071
12,3.92288e-22,2,9104,58.62,-8.77299e-07,1.86739e-05,-4.41327e-08,1.86945e-05,31,158.52,96.68,500000,500000,-1.17282e-07,2.62292e-07,-8.82768e-08,0.00150756,0.0221687,3.83516e-05,0.0219698,3,3072
12,3.92288e-22,2,9105,58.62,-9.94915e-07,1.86841e-05,-4.34248e-08,1.87106e-05,31,158.52,96.68,500000,500000,-1.1723e-07,2.60095e-07,-8.68832e-08,0.00139104,0.0219505,5.89562e-05,0.0218372,3,3073
12,3.92288e-22,2,9106,58.62,-1.11176e-06,1.86963e-05,-4.31001e-08,1.87294e-05,31,158.52,96.68,500000,500000,-1.15192e-07,2.57103e-07,-8.61801e-08,0.00147993,0.0217432,7.257e-05,0.0215283,3,3074
12,3.92288e-22,2,9107,58.62,-1.2253e-06,1.87077e-05,-4.3106e-08,1.87479e-05,31,158.52,96.68,500000,500000,-1.11839e-07,2.53666e-07,-8.70179e-08,0.00166588,0.0213931,-0.00014859,0.021081,3,3075
12,3.92288e-22,2,9108,58.62,-1.33544e-06,1.87148e-05,-4.57171e-08,1.87625e-05,31,158.52,96.68,500000,500000,-1.09162e-07,2.55823e-07,-9.10723e-08,0.00211587,0.0214656,-0.000345331,0.0209093,3,3076
12,3.72923e-22,2,9109,58.62,-1.44362e-06,1.87011e-05,-4.67158e-08,1.87568e-05,33.25,158.52,96.68,3.08325e+06,625000,-9.21102e-08,2.57713e-07,-9.2265e-08,0.00297778,0.0306662,-0.000619865,0.0311446,3,3077
12,3.34192e-22,1,9110,151.34,-1.51966e-06,1.87241e-05,-4.46092e-08,1.87857e-05,37.75,-67.01,136.63,8.24975e+06,875000,-5.64724e-08,2.39403e-07,-8.95388e-08,0.00338448,0.0424861,-0.000677837,0.0433361,2,6031
12,3.14826e-22,1,9111,151.34,-1.55657e-06,1.87837e-05,-4.27022e-08,1.88481e-05,40,-67.01,136.63,1.0833e+07,1e+06,-3.30321e-08,2.16167e-07,-8.57366e-08,0.00396078,0.0445595,-0.00024049,0.0441691,2,6032
12,3.14826e-22,1,9112,151.34,-1.58572e-06,1.88256e-05,-4.07475e-08,1.88923e-05,40,-67.01,136.63,1.0833e+07,1e+06,-3.02245e-08,2.07479e-07,-8.15626e-08,0.00433692,0.0430932,4.04899e-06,0.0423443,2,6033
12,3.14826e-22,1,9113,151.34,-1.61702e-06,1.88715e-05,-3.98302e-08,1.89407e-05,40,-67.01,136.63,1.0833e+07,1e+06,-3.34935e-08,2.05425e-07,-7.96666e-08,0.00363116,0.0420637,4.03323e-05,0.0413142,2,6034
12,3.14826e-22,1,9114,151.34,-1.65271e-06,1.89278e-05,-3.92288e-08,1.89999e-05,40,-67.01,136.63,1.0833e+07,1e+06,-3.82016e-08,2.05325e-07,-7.84501e-08,0.00275588,0.0411769,2.25672e-05,0.0404891,2,6035
12,3.14826e-22,1,9115,151.34,-1.69342e-06,1.8998e-05,-3.89132e-08,1.90733e-05,40,-67.01,136.63,1.0833e+07,1e+06,-4.33574e-08,2.0492e-07,-7.78243e-08,0.00175389,0.0400015,-0.000246851,0.0396052,2,6036
12,3.78562e-22,1,9116,151.34,-1.73942e-06,1.90827e-05,-3.58389e-08,1.91619e-05,43,-67.01,136.63,1.0833e+07,1e+06,-5.26386e-08,2.02406e-07,-7.16798e-08,0.00104039,0.0376135,5.38893e-05,0.0372637,2,6037
12,5.06032e-22,1,9117,72.45,-1.7987e-06,1.91506e-05,-3.15223e-08,1.92349e-05,49,-130,-165.58,1.0833e+07,1e+06,-6.47771e-08,1.97825e-07,-6.30659e-08,0.000573239,0.0338674,0.000249311,0.0335543,2,6038
12,5.69767e-22,1,9118,72.45,-1.86898e-06,1.91941e-05,-2.95043e-08,1.92849e-05,52,-130,-165.58,1.0833e+07,1e+06,-6.99596e-08,1.91501e-07,-5.90165e-08,1.7907e-05,0.0310495,-7.39239e-05,0.0310986,2,6039
12,5.69767e-22,1,9119,72.45,-1.93862e-06,1.92338e-05,-2.79873e-08,1.93313e-05,52,-130,-165.58,1.0833e+07,1e+06,-6.81897e-08,1.82625e-07,-5.60046e-08,-0.00035153,0.0293798,-6.41158e-05,0.029636,2,6040
12,5.69767e-22,1,9120,72.45,-2.00536e-06,1.92651e-05,-2.64082e-08,1.93692e-05,52,-130,-165.58,1.0833e+07,1e+06,-6.42856e-08,1.71721e-07,-5.27492e-08,-0.000360457,0.0275601,-9.19601e-05,0.0278377,2,6041
12,5.69767e-22,1,9121,72.45,-2.06719e-06,1.9281e-05,-2.45363e-08,1.93916e-05,52,-130,-165.58,1.0833e+07,1e+06,-6.01624e-08,1.6036e-07,-4.9171e-08,-0.000333023,0.0257832,-0.000156446,0.0261015,2,6042
12,5.69767e-22,1,9122,72.45,-2.12568e-06,1.9274e-05,-2.46204e-08,1.93908e-05,52,-130,-165.58,1.0833e+07,1e+06,-6.10382e-08,1.6226e-07,-4.93351e-08,-0.000396839,0.0263445,-0.00022764,0.0267393,2,6043
12,5.69767e-22,1,9123,72.45,-2.18926e-06,1.92514e-05,-2.69285e-08,1.93755e-05,52,-130,-165.58,1.0833e+07,1e+06,-6.79517e-08,1.7734e-07,-5.37524e-08,-0.000862598,0.0287892,-0.000348095,0.0294576,2,6044
12,5.69767e-22,1,9124,72.45,-2.26159e-06,1.92342e-05,-2.87602e-08,1.93667e-05,52,-130,-165.58,1.0833e+07,1e+06,-7.3863e-08,1.87317e-07,-5.69262e-08,-0.00148391,0.0298973,-0.000392751,0.0308568,2,6045
12,5.54191e-22,1,9125,72.45,-2.33699e-06,1.92324e-05,-2.78028e-08,1.93739e-05,51.75,-130,-165.58,1.01872e+07,968750,-7.26621e-08,1.80762e-07,-5.56467e-08,-0.00191005,0.0280212,-0.000465654,0.0296847,2,6046
12,5.38615e-22,1,9126,72.45,-2.40691e-06,1.92192e-05,-2.62e-08,1.93693e-05,51.5,-130,-165.58,9.54138e+06,937500,-6.74934e-08,1.75834e-07,-5.32892e-08,-0.00104096,0.0276029,5.33579e-05,0.0289878,2,6047
12,5.54191e-22,1,9127,72.45,-2.47198e-06,1.91972e-05,-2.74466e-08,1.93557e-05,51.75,-130,-165.58,1.01872e+07,968750,-6.525e-08,1.80082e-07,-5.46099e-08,8.08645e-05,0.0291847,0.000268699,0.0293964,2,6048
12,5.69767e-22,1,9128,72.45,-2.53741e-06,1.9193e-05,-2.66689e-08,1.936e-05,52,-130,-165.58,1.0833e+07,1e+06,-6.29277e-08,1.70214e-07,-5.32131e-08,-0.000216785,0.0272566,-0.00023591,0.0275128,2,6049
12,6.38876e-22,1,9129,72.45,-2.59783e-06,1.91943e-05,-2.32992e-08,1.93693e-05,53.25,-130,-165.58,1.0833e+07,1e+06,-4.92012e-08,1.46651e-07,-4.67926e-08,-0.000429504,0.0253296,0.000210333,0.0256598,2,6050
12,7.77092e-22,1,9130,113.67,-2.63581e-06,1.91825e-05,-2.40012e-08,1.93627e-05,55.75,-67.11,135.77,1.0833e+07,1e+06,-2.8567e-08,1.2613e-07,-4.78706e-08,-0.000597304,0.0252958,-6.62584e-05,0.0258241,2,6051
12,8.462e-22,1,9131,113.67,-2.65497e-06,1.91504e-05,-2.51551e-08,1.93336e-05,57,-67.11,135.77,1.0833e+07,1e+06,-1.93047e-08,1.18332e-07,-5.04513e-08,-0.000795249,0.0252926,-0.000418593,0.0259546,2,6052
12,8.462e-22,1,9132,113.67,-2.67442e-06,1.91104e-05,-2.35563e-08,1.92967e-05,57,-67.11,135.77,1.0833e+07,1e+06,-2.07575e-08,1.17444e-07,-4.70227e-08,-0.00105134,0.0253988,0.000270651,0.0258489,2,6053
12,7.08915e-22,1,9133,113.67,-2.69648e-06,1.90732e-05,-2.32432e-08,1.92629e-05,60.75,-67.11,135.77,1.0833e+07,1e+06,-2.72742e-08,1.20211e-07,-4.5795e-08,-0.00172207,0.0253539,-0.000263778,0.0268211,2,6054
12,4.34344e-22,1,9134,25.38,-2.72897e-06,1.90294e-05,-2.09033e-08,1.92241e-05,68.25,118.9,132.01,1.0833e+07,1e+06,-3.84977e-08,1.27452e-07,-4.20723e-08,-0.0016163,0.0248623,-6.59142e-06,0.0264977,2,6055
12,2.97059e-22,1,9135,25.38,-2.77348e-06,1.89931e-05,-2.12728e-08,1.91946e-05,72,118.9,132.01,1.0833e+07,1e+06,-4.62544e-08,1.40967e-07,-4.30817e-08,-0.00137017,0.0263401,0.000623632,0.0275242,2,6056
12,2.97059e-22,1,9136,25.38,-2.82148e-06,1.89776e-05,-2.55752e-08,1.91863e-05,72,118.9,132.01,1.0833e+07,1e+06,-4.81366e-08,1.54813e-07,-5.09515e-08,-0.00144985,0.0290699,2.80426e-06,0.0306349,2,6057
12,2.97059e-22,1,9137,25.38,-2.86975e-06,1.8966e-05,-2.7393e-08,1.91819e-05,72,118.9,132.01,1.0833e+07,1e+06,-4.7799e-08,1.62085e-07,-5.48105e-08,-0.000851555,0.0304506,-0.000117064,0.0316301,2,6058
12,2.97059e-22,1,9138,25.38,-2.91708e-06,1.8951e-05,-2.81893e-08,1.91742e-05,72,118.9,132.01,1.0833e+07,1e+06,-4.71572e-08,1.65861e-07,-5.63431e-08,-0.000187608,0.0311467,-4.72572e-05,0.031743,2,6059
12,2.97059e-22,1,9139,25.38,-2.96406e-06,1.89323e-05,-2.84738e-08,1.91629e-05,72,118.9,132.01,1.0833e+07,1e+06,-4.69619e-08,1.67579e-07,-5.69566e-08,0.000225802,0.0313813,-5.05388e-05,0.031604,2,6060
12,2.97059e-22,1,9140,25.38,-3.011e-06,1.89107e-05,-2.86406e-08,1.91489e-05,72,118.9,132.01,1.0833e+07,1e+06,-4.74548e-08,1.68915e-07,-5.72022e-08,0.000443846,0.0314985,-8.96651e-05,0.0315123,2,6061
12,2.97059e-22,1,9141,25.38,-3.05897e-06,1.88866e-05,-2.88005e-08,1.91328e-05,72,118.9,132.01,1.0833e+07,1e+06,-4.89443e-08,1.71565e-07,-5.78651e-08,0.000484748,0.0318056,-0.00019133,0.0317658,2,6062
12,2.97059e-22,1,9142,25.38,-3.10889e-06,1.88603e-05,-2.91429e-08,1.91148e-05,72,118.9,132.01,1.0833e+07,1e+06,-5.10197e-08,1.7451e-07,-5.875e-08,0.00036866,0.0320882,-0.00036537,0.0321234,2,6063
12,2.97059e-22,1,9143,25.38,-3.16101e-06,1.88335e-05,-3.01217e-08,1.90969e-05,72,118.9,132.01,1.0833e+07,1e+06,-5.35516e-08,1.78688e-07,-5.99196e-08,0.000259267,0.032651,-0.000582627,0.0328291,2,6064
12,2.97059e-22,1,9144,25.38,-3.21599e-06,1.88068e-05,-3.12525e-08,1.90798e-05,72,118.9,132.01,1.0833e+07,1e+06,-5.63479e-08,1.854e-07,-6.20973e-08,0.000291124,0.0337268,-0.000828567,0.0340151,2,6065
12,2.97059e-22,1,9145,25.38,-3.27371e-06,1.87804e-05,-3.2448e-08,1.90636e-05,72,118.9,132.01,1.0833e+07,1e+06,-5.84192e-08,1.9283e-07,-6.49478e-08,0.000439897,0.0349919,-0.000999285,0.035292,2,6066
12,2.97059e-22,1,9146,25.38,-3.33283e-06,1.87572e-05,-3.41413e-08,1.9051e-05,72,118.9,132.01,1.0833e+07,1e+06,-5.86966e-08,2.00867e-07,-6.81468e-08,0.000870444,0.0366965,-0.000873424,0.0367471,2,6067
12,2.97059e-22,1,9147,25.38,-3.3911e-06,1.87439e-05,-3.60435e-08,1.90483e-05,72,118.9,132.01,1.0833e+07,1e+06,-5.62942e-08,2.0772e-07,-7.1779e-08,0.00169811,0.0383646,-0.00058185,0.0377659,2,6068
12,3.14535e-22,1,9148,25.38,-3.44542e-06,1.87434e-05,-3.40587e-08,1.90574e-05,74.3125,118.9,132.01,8.24975e+06,875000,-6.16413e-08,2.13818e-07,-6.86455e-08,0.00225735,0.0382846,-0.000441675,0.0383507,2,6069
12,3.46918e-22,2,9149,70.27,-3.51439e-06,1.87944e-05,-3.26075e-08,1.91202e-05,79.375,157.22,-160.07,3.08325e+06,625000,-8.26715e-08,2.25735e-07,-6.52588e-08,0.00161212,0.0328263,7.17029e-05,0.0336561,3,3078
12,3.59257e-22,2,9150,70.27,-3.61076e-06,1.88845e-05,-3.61504e-08,1.92266e-05,82.5625,157.22,-160.07,500000,500000,-1.03385e-07,2.43344e-07,-7.15823e-08,0.000338382,0.0281388,0.00010458,0.029209,3,3079
12,3.56688e-22,2,9151,70.27,-3.72115e-06,1.89646e-05,-3.62986e-08,1.93262e-05,83,157.22,-160.07,500000,500000,-1.13745e-07,2.55468e-07,-7.32572e-08,-0.000145343,0.0286415,0.000122351,0.0298987,3,3080
12,3.58042e-22,2,9152,70.27,-3.83825e-06,1.90447e-05,-3.40213e-08,1.94276e-05,82.75,157.22,-160.07,500000,500000,-1.16781e-07,2.56749e-07,-6.85065e-08,-0.000399171,0.030015,0.000255158,0.0312813,3,3081
12,3.6346e-22,2,9153,70.27,-3.95472e-06,1.91165e-05,-3.10436e-08,1.95213e-05,81.75,157.22,-160.07,500000,500000,-1.11647e-07,2.41161e-07,-6.08963e-08,-0.00179893,0.0315736,-0.0010925,0.0342364,3,3082
12,3.70231e-22,2,9154,134.44,-4.06155e-06,1.9158e-05,-2.21908e-08,1.95838e-05,80.5,-107.77,-162.59,500000,500000,-1.06666e-07,2.18348e-07,-4.43837e-08,-0.00312015,0.0324455,-0.00119468,0.0356709,3,3083
12,3.7294e-22,2,9155,134.44,-4.16805e-06,1.91835e-05,-1.49882e-08,1.96311e-05,80,-107.77,-162.59,500000,500000,-1.08672e-07,2.08039e-07,-3.10248e-08,-0.00363758,0.0323002,-9.56176e-05,0.0351007,3,3084
12,3.55244e-22,2,9156,134.44,-4.27889e-06,1.92022e-05,-2.04948e-08,1.96732e-05,80.1875,-107.77,-162.59,500000,500000,-1.04341e-07,2.05893e-07,-4.07038e-08,-0.0047494,0.0302309,-4.69744e-05,0.0338629,3,3085
12,4.23097e-22,2,9157,94.89,-4.37673e-06,1.91311e-05,-2.26283e-08,1.96253e-05,85.875,-138.97,-33.48,3.08325e+06,625000,-8.57334e-08,1.72933e-07,-4.52131e-08,-0.00738051,0.0268999,-0.00114559,0.032843,3,3086
12,6.11892e-22,1,9158,121.22,-4.45036e-06,1.90336e-05,-1.43143e-08,1.9547e-05,96.6875,-21.83,121.47,8.24975e+06,875000,-6.7126e-08,1.4606e-07,-2.86493e-08,-0.00756144,0.0325486,-0.000391149,0.0377498,2,6070
12,7.15137e-22,1,9159,121.22,-4.51098e-06,1.89898e-05,-1.2084e-08,1.95183e-05,102,-21.83,121.47,1.0833e+07,1e+06,-6.0297e-08,1.56888e-07,-2.40123e-08,-0.00578414,0.0411316,0.000629429,0.0442551,2,6071
12,7.15137e-22,1,9160,121.22,-4.57095e-06,1.89511e-05,-1.45458e-08,1.94946e-05,102,-21.83,121.47,1.0833e+07,1e+06,-5.96781e-08,1.65701e-07,-2.92075e-08,-0.00531682,0.0433602,3.35329e-05,0.0464285,2,6072
12,7.15137e-22,1,9161,121.22,-4.63034e-06,1.89221e-05,-1.56821e-08,1.94804e-05,102,-21.83,121.47,1.0833e+07,1e+06,-5.9143e-08,1.70269e-07,-3.13052e-08,-0.00497285,0.0444905,4.92969e-05,0.0472947,2,6073
12,7.15137e-22,1,9162,121.22,-4.68924e-06,1.8906e-05,-1.67088e-08,1.94788e-05,102,-21.83,121.47,1.0833e+07,1e+06,-5.89759e-08,1.73163e-07,-3.3382e-08,-0.00489561,0.044984,-3.35007e-05,0.047711,2,6074
12,7.15137e-22,1,9163,121.22,-4.74829e-06,1.89096e-05,-1.78864e-08,1.94966e-05,102,-21.83,121.47,1.0833e+07,1e+06,-5.99299e-08,1.77936e-07,-3.57284e-08,-0.00500812,0.0458392,-4.62177e-05,0.0485922,2,6075
12,7.15137e-22,1,9164,121.22,-4.8091e-06,1.89381e-05,-1.88664e-08,1.95392e-05,102,-21.83,121.47,1.0833e+07,1e+06,-6.2091e-08,1.83584e-07,-3.75814e-08,-0.00530687,0.0468654,3.64249e-05,0.0497238,2,6076
12,7.20732e-22,1,9165,121.22,-4.87247e-06,1.89912e-05,-1.80737e-08,1.96063e-05,101.312,-21.83,121.47,1.0833e+07,1e+06,-6.62232e-08,1.88312e-07,-3.63534e-08,-0.00531209,0.0473904,0.00042047,0.0503373,2,6077
12,7.31922e-22,1,9166,121.22,-4.94154e-06,1.90596e-05,-1.89072e-08,1.96898e-05,99.9375,-21.83,121.47,1.0833e+07,1e+06,-7.27706e-08,1.93402e-07,-3.80067e-08,-0.0058675,0.0469502,-0.000125619,0.0508096,2,6078
12,7.37516e-22,1,9167,121.22,-5.01801e-06,1.9129e-05,-1.99157e-08,1.97762e-05,99.25,-21.83,121.47,1.0833e+07,1e+06,-7.88639e-08,1.96891e-07,-3.92689e-08,-0.00690067,0.0465358,-0.000595165,0.0513178,2,6079
12,7.31922e-22,1,9168,121.22,-5.09927e-06,1.9195e-05,-1.84129e-08,1.98608e-05,99.9375,-21.83,121.47,1.0833e+07,1e+06,-7.87883e-08,1.92337e-07,-3.68002e-08,-0.00744106,0.0459064,-0.000421497,0.051006,2,6080
12,7.20732e-22,1,9169,121.22,-5.17559e-06,1.92604e-05,-1.56304e-08,1.99437e-05,101.312,-21.83,121.47,1.0833e+07,1e+06,-7.03479e-08,1.75445e-07,-3.15802e-08,-0.0071095,0.0429448,0.000606661,0.0473002,2,6081
12,7.15137e-22,1,9170,121.22,-5.23997e-06,1.93205e-05,-1.4757e-08,2.00185e-05,102,-21.83,121.47,1.0833e+07,1e+06,-6.13022e-08,1.58977e-07,-2.89272e-08,-0.00642383,0.0393489,0.00115271,0.04292,2,6082
12,6.90315e-22,1,9171,121.22,-5.29819e-06,1.93754e-05,-1.5525e-08,2.00867e-05,102.188,-21.83,121.47,1.01872e+07,968750,-5.95591e-08,1.53839e-07,-3.06671e-08,-0.00616941,0.0365183,0.000738566,0.0404872,2,6083
12,6.4067e-22,1,9172,121.22,-5.35909e-06,1.94066e-05,-1.84364e-08,2.01329e-05,102.562,-21.83,121.47,8.89556e+06,906250,-6.00224e-08,1.6296e-07,-3.76388e-08,-0.00492867,0.0344065,0.00102371,0.0380236,2,6084
12,6.15848e-22,1,9173,121.22,-5.41824e-06,1.93892e-05,-2.37555e-08,2.0132e-05,102.75,-21.83,121.47,8.24975e+06,875000,-5.2731e-08,1.75146e-07,-4.81157e-08,-0.0021413,0.0348244,0.0011347,0.0366662,2,6085
12,6.15848e-22,1,9174,121.22,-5.46455e-06,1.93312e-05,-2.77294e-08,2.00887e-05,102.75,-21.83,121.47,8.24975e+06,875000,-4.0829e-08,1.80675e-07,-5.53267e-08,0.000849111,0.036626,0.00100633,0.0366431,2,6086
12,5.70327e-22,1,9175,121.22,-5.4999e-06,1.92348e-05,-3.13005e-08,2.00057e-05,104.25,-21.83,121.47,6.95812e+06,812500,-4.51784e-08,2.03845e-07,-6.45335e-08,0.00303929,0.0389398,0.000527744,0.0387954,2,6087
12,4.58584e-22,2,9176,66.67,-5.55491e-06,1.90644e-05,-3.88456e-08,1.98573e-05,108.562,165.52,-172.29,3.72906e+06,656250,-7.90742e-08,2.61876e-07,-7.7695e-08,0.00516782,0.040297,0.000389305,0.040574,3,3087
12,3.71663e-22,2,9177,66.67,-5.65805e-06,1.88606e-05,-4.79997e-08,1.96911e-05,112.688,165.52,-172.29,1.14581e+06,531250,-1.18861e-07,3.13802e-07,-9.33134e-08,0.00563571,0.0369569,0.000267325,0.0367267,3,3088
12,3.50963e-22,2,9178,66.67,-5.79263e-06,1.87108e-05,-4.97022e-08,1.9587e-05,114,165.52,-172.29,500000,500000,-1.35901e-07,3.25579e-07,-9.94977e-08,0.0045373,0.0331786,-2.04975e-05,0.0321196,3,3089
12,3.50963e-22,2,9179,66.67,-5.92985e-06,1.86088e-05,-4.77159e-08,1.95308e-05,114,165.52,-172.29,500000,500000,-1.31728e-07,3.12929e-07,-9.6139e-08,0.00421136,0.0314928,-0.000147731,0.0301144,3,3090
12,3.50963e-22,2,9180,66.67,-6.05608e-06,1.85226e-05,-4.64717e-08,1.94876e-05,114,165.52,-172.29,500000,500000,-1.20583e-07,2.94192e-07,-9.28547e-08,0.00428859,0.0296696,-0.000202545,0.0281907,3,3091
12,3.50963e-22,2,9181,66.67,-6.17101e-06,1.84448e-05,-4.55076e-08,1.94498e-05,114,165.52,-172.29,500000,500000,-1.12981e-07,2.81761e-07,-9.11124e-08,0.00434238,0.0283643,-0.000241569,0.02678,3,3092
12,3.50963e-22,2,9182,66.67,-6.28205e-06,1.83766e-05,-4.53671e-08,1.94208e-05,114,165.52,-172.29,500000,500000,-1.13641e-07,2.797e-07,-9.08792e-08,0.0040901,0.0278281,-0.00049277,0.026424,3,3093
12,3.50963e-22,2,9183,66.67,-6.39829e-06,1.83289e-05,-4.50505e-08,1.94136e-05,114,165.52,-172.29,500000,500000,-1.1812e-07,2.80352e-07,-8.91899e-08,0.0036166,0.027515,-0.000600177,0.0263993,3,3094
12,3.73126e-22,2,9184,66.67,-6.51829e-06,1.83122e-05,-4.18578e-08,1.94377e-05,114.438,165.52,-172.29,1.14581e+06,531250,-1.08682e-07,2.64162e-07,-8.3474e-08,0.00297015,0.0275405,-6.11982e-05,0.0269174,3,3095
12,4.61777e-22,2,9185,66.67,-6.61566e-06,1.83357e-05,-4.03177e-08,1.94927e-05,116.188,165.52,-172.29,3.72906e+06,656250,-6.81924e-08,2.25045e-07,-8.20051e-08,0.00247647,0.0299456,0.000692205,0.0300947,3,3096
12,5.94754e-22,1,9186,9.52003,-6.65467e-06,1.84242e-05,-4.5853e-08,1.95892e-05,118.812,63.66,-15.5,7.60394e+06,843750,-1.49389e-08,1.83262e-07,-9.15384e-08,0.00227915,0.033433,0.000406194,0.033866,2,6088
12,6.83405e-22,1,9187,9.52004,-6.64554e-06,1.85663e-05,-5.2632e-08,1.97198e-05,120.562,63.66,-15.5,1.01872e+07,968750,1.2015e-08,1.69934e-07,-1.04308e-07,0.0015808,0.0369379,-0.000435545,0.0372498,2,6089
12,7.05568e-22,1,9188,9.52004,-6.63064e-06,1.87079e-05,-5.49575e-08,1.98483e-05,121,63.66,-15.5,1.0833e+07,1e+06,1.13305e-08,1.81302e-07,-1.103e-07,0.000430663,0.0407491,-0.000367644,0.0410635,2,6090
12,7.05568e-22,1,9189,9.52004,-6.62288e-06,1.88174e-05,-5.40528e-08,1.99489e-05,121,63.66,-15.5,1.0833e+07,1e+06,6.47778e-09,1.86161e-07,-1.08435e-07,-0.000196944,0.0418971,3.94233e-05,0.0421346,2,6091
12,7.05568e-22,1,9190,9.52004,-6.61768e-06,1.88936e-05,-5.12637e-08,2.00191e-05,121,63.66,-15.5,1.0833e+07,1e+06,4.85974e-09,1.77688e-07,-1.02442e-07,-0.0002444,0.0398645,8.84166e-05,0.0399711,2,6092
12,7.05568e-22,1,9191,9.52003,-6.61316e-06,1.89519e-05,-4.78241e-08,2.00726e-05,121,63.66,-15.5,1.0833e+07,1e+06,4.60924e-09,1.64611e-07,-9.55764e-08,-0.000195208,0.0367673,-6.73515e-05,0.036902,2,6093
12,6.44618e-22,1,9192,153.16,-1.27667e-10,1.93631e-05,-4.1127e-08,1.93631e-05,7.125,-104.67,-152.95,8.89556e+06,906250,-5.33647e-09,1.97546e-07,-8.31659e-08,0.00400787,0.0479252,0.000877742,0.0459964,2,6094
12,5.24272e-22,2,9193,115.35,-1.05453e-08,1.93643e-05,-4.79532e-08,1.93644e-05,7.25,-67.69,60.87,4.37488e+06,687500,-1.79724e-08,2.15629e-07,-9.49537e-08,0.00319365,0.0436683,-0.00109954,0.0431965,3,3097
12,4.37257e-22,2,9194,115.35,-3.60725e-08,1.93206e-05,-4.7144e-08,1.93207e-05,7.125,-67.69,60.87,1.14581e+06,531250,-2.72633e-08,2.31298e-07,-9.41053e-08,0.00434098,0.0419061,0.00013882,0.0401881,3,3098
12,4.19363e-22,2,9195,115.35,-6.50719e-08,1.92533e-05,-4.64393e-08,1.92534e-05,7,-67.69,60.87,500000,500000,-2.77516e-08,2.26381e-07,-9.31714e-08,0.00447231,0.0395265,8.26062e-05,0.0376595,3,3099
12,4.19363e-22,2,9196,115.35,-9.15757e-08,1.91837e-05,-4.67552e-08,1.9184e-05,7,-67.69,60.87,500000,500000,-2.6998e-08,2.23375e-07,-9.33842e-08,0.00438754,0.038757,-9.34848e-05,0.0369868,3,3100
12,4.19363e-22,2,9197,115.35,-1.19068e-07,1.91157e-05,-4.80528e-08,1.91162e-05,7,-67.69,60.87,500000,500000,-3.34749e-08,2.32088e-07,-9.59738e-08,0.00342459,0.0398411,-0.00036224,0.0386293,3,3101
12,4.12594e-22,2,9198,115.35,-1.58525e-07,1.90447e-05,-4.38069e-08,1.90454e-05,13,-67.69,60.87,500000,500000,-5.73112e-08,2.48185e-07,-8.77137e-08,0.00371478,0.0386654,0.000740771,0.037417,3,3102
12,3.99057e-22,2,9199,58.62,-2.3369e-07,1.90043e-05,-4.60454e-08,1.90058e-05,25,158.52,96.68,500000,500000,-8.78491e-08,2.59087e-07,-9.24226e-08,0.00380956,0.0290364,9.87637e-05,0.0280696,3,3103
12,3.92288e-22,2,9200,58.62,-3.34224e-07,1.89906e-05,-5.03116e-08,1.89936e-05,31,158.52,96.68,500000,500000,-1.00662e-07,2.57099e-07,-1.00468e-07,0.00276072,0.0215243,-0.000889651,0.0208018,3,3104
12,3.92288e-22,2,9201,58.62,-4.35015e-07,1.89681e-05,-4.64377e-08,1.89731e-05,31,158.52,96.68,500000,500000,-1.01907e-07,2.52323e-07,-9.26996e-08,0.00262738,0.0215147,-1.64047e-05,0.0203544,3,3105
12,3.92288e-22,2,9202,58.62,-5.38038e-07,1.8947e-05,-4.48994e-08,1.89547e-05,31,158.52,96.68,500000,500000,-1.05237e-07,2.52017e-07,-8.98658e-08,0.00229293,0.021473,2.44239e-05,0.0205143,3,3106
12,3.92288e-22,2,9203,58.62,-6.45488e-07,1.89337e-05,-4.39955e-08,1.89448e-05,31,158.52,96.68,500000,500000,-1.10169e-07,2.54857e-07,-8.79999e-08,0.0019268,0.0216811,8.78112e-05,0.0210314,3,3107
12,3.92288e-22,2,9204,58.62,-7.58377e-07,1.89304e-05,-4.35415e-08,1.89456e-05,31,158.52,96.68,500000,500000,-1.15057e-07,2.5834e-07,-8.70786e-08,0.00154542,0.0218713,7.70958e-05,0.0215995,3,3108
12,3.92288e-22,2,9205,58.62,-8.75602e-07,1.89351e-05,-4.33429e-08,1.89554e-05,31,158.52,96.68,500000,500000,-1.18511e-07,2.60979e-07,-8.66915e-08,0.00126472,0.0219888,6.14345e-05,0.0219731,3,3109
12,3.92288e-22,2,9206,58.62,-9.95398e-07,1.89448e-05,-4.33933e-08,1.8971e-05,31,158.52,96.68,500000,500000,-1.20346e-07,2.62556e-07,-8.68362e-08,0.00109144,0.0220234,3.15596e-05,0.0220977,3,3110
12,3.92288e-22,2,9207,58.62,-1.11629e-06,1.89558e-05,-4.37897e-08,1.89887e-05,31,158.52,96.68,500000,500000,-1.20971e-07,2.63618e-07,-8.74178e-08,0.00103051,0.022035,2.02562e-05,0.0220124,3,3111
12,3.92288e-22,2,9208,58.62,-1.23734e-06,1.89649e-05,-4.45043e-08,1.90053e-05,31,158.52,96.68,500000,500000,-1.19906e-07,2.63786e-07,-8.89049e-08,0.00116264,0.0219495,-0.000132448,0.0217603,3,3112
12,3.87447e-22,2,9209,58.62,-1.35611e-06,1.89759e-05,-4.31093e-08,1.90243e-05,31.5625,158.52,96.68,1.14581e+06,531250,-1.11433e-07,2.57945e-07,-8.68119e-08,0.00158487,0.0237247,-1.65826e-05,0.0237301,3,3113
12,3.6324e-22,2,9210,58.62,-1.46021e-06,1.89689e-05,-4.31845e-08,1.90251e-05,34.375,158.52,96.68,4.37488e+06,687500,-8.34244e-08,2.5682e-07,-8.63684e-08,0.00365965,0.0355774,0.00052862,0.0358548,3,3114
12,3.2935e-22,1,9211,151.34,-1.52295e-06,1.89691e-05,-4.5018e-08,1.90302e-05,38.3125,-67.01,136.63,8.89556e+06,906250,-4.5878e-08,2.3966e-07,-8.94836e-08,0.00504377,0.0453486,0.000111666,0.0453185,2,6095
12,3.14826e-22,1,9212,151.34,-1.55196e-06,1.8998e-05,-4.32454e-08,1.90614e-05,40,-67.01,136.63,1.0833e+07,1e+06,-2.76151e-08,2.12669e-07,-8.65482e-08,0.00497017,0.0441316,-0.000272595,0.0433234,2,6096
12,3.14826e-22,1,9213,151.34,-1.57818e-06,1.90317e-05,-4.08232e-08,1.9097e-05,40,-67.01,136.63,1.0833e+07,1e+06,-2.8258e-08,2.05367e-07,-8.17634e-08,0.00480355,0.0424095,4.93777e-05,0.0411914,2,6097
12,3.14826e-22,1,9214,151.34,-1.60848e-06,1.90754e-05,-3.96892e-08,1.91431e-05,40,-67.01,136.63,1.0833e+07,1e+06,-3.22481e-08,2.02651e-07,-7.93861e-08,0.00390399,0.0411532,5.97299e-05,0.0400227,2,6098
12,3.14826e-22,1,9215,151.34,-1.64268e-06,1.91309e-05,-3.89029e-08,1.92014e-05,40,-67.01,136.63,1.0833e+07,1e+06,-3.6057e-08,2.01007e-07,-7.78057e-08,0.00313778,0.0400183,4.12852e-05,0.03895,2,6099
12,3.14826e-22,1,9216,151.34,-1.68059e-06,1.91999e-05,-3.84606e-08,1.92734e-05,40,-67.01,136.63,1.0833e+07,1e+06,-3.98624e-08,1.98831e-07,-7.69367e-08,0.00231668,0.0385859,-0.000239639,0.0377983,2,6100
12,3.78562e-22,1,9217,151.34,-1.72241e-06,1.92819e-05,-3.54668e-08,1.93587e-05,43,-67.01,136.63,1.0833e+07,1e+06,-4.79594e-08,1.95609e-07,-7.09511e-08,0.00177149,0.0362356,1.20775e-05,0.0354983,2,6101
12,5.06032e-22,1,9218,72.45,-1.77651e-06,1.93456e-05,-3.1302e-08,1.94271e-05,49,-130,-165.58,1.0833e+07,1e+06,-5.92271e-08,1.92264e-07,-6.26523e-08,0.00156636,0.0330711,0.000252133,0.0322647,2,6102
12,5.69767e-22,1,9219,72.45,-1.84086e-06,1.93833e-05,-2.94074e-08,1.94706e-05,52,-130,-165.58,1.0833e+07,1e+06,-6.34644e-08,1.86895e-07,-5.88226e-08,0.0013194,0.0307336,-2.68415e-05,0.0301342,2,6103
12,5.69767e-22,1,9220,72.45,-1.90344e-06,1.94142e-05,-2.80503e-08,1.95073e-05,52,-130,-165.58,1.0833e+07,1e+06,-6.03172e-08,1.77538e-07,-5.59337e-08,0.00126731,0.0291565,-4.3713e-05,0.0286085,2,6104
12,5.69767e-22,1,9221,72.45,-1.96149e-06,1.94343e-05,-2.65443e-08,1.9533e-05,52,-130,-165.58,1.0833e+07,1e+06,-5.60298e-08,1.67136e-07,-5.31297e-08,0.00139518,0.0274743,-0.000130844,0.0269193,2,6105
12,5.69767e-22,1,9222,72.45,-2.0155e-06,1.94418e-05,-2.54267e-08,1.9546e-05,52,-130,-165.58,1.0833e+07,1e+06,-5.40018e-08,1.61145e-07,-5.09242e-08,0.00136629,0.0265983,-9.70022e-05,0.0260302,2,6106
12,5.69767e-22,1,9223,72.45,-2.0695e-06,1.94377e-05,-2.54134e-08,1.95476e-05,52,-130,-165.58,1.0833e+07,1e+06,-5.63856e-08,1.64396e-07,-5.07766e-08,0.0010611,0.0272633,4.64569e-05,0.0267514,2,6107
12,5.69767e-22,1,9224,72.45,-2.12827e-06,1.94277e-05,-2.64243e-08,1.9544e-05,52,-130,-165.58,1.0833e+07,1e+06,-6.17746e-08,1.73424e-07,-5.28575e-08,0.000484752,0.0285876,7.04773e-05,0.0283328,2,6108
12,5.69767e-22,1,9225,72.45,-2.19305e-06,1.94186e-05,-2.7353e-08,1.9542e-05,52,-130,-165.58,1.0833e+07,1e+06,-6.54999e-08,1.7854e-07,-5.4743e-08,-2.47177e-05,0.0289763,-5.38292e-05,0.0290067,2,6109
12,5.69767e-22,1,9226,72.45,-2.25927e-06,1.94092e-05,-2.69934e-08,1.95402e-05,52,-130,-165.58,1.0833e+07,1e+06,-6.5995e-08,1.74547e-07,-5.41324e-08,-0.000553925,0.0278112,-0.000281655,0.0282682,2,6110
12,5.69767e-22,1,9227,72.45,-2.32504e-06,1.93937e-05,-2.69763e-08,1.95326e-05,52,-130,-165.58,1.0833e+07,1e+06,-6.72959e-08,1.74775e-07,-5.36566e-08,-0.000886186,0.0277788,-0.000212986,0.0284158,2,6111
12,5.69767e-22,1,9228,72.45,-2.39386e-06,1.93767e-05,-2.70613e-08,1.9524e-05,52,-130,-165.58,1.0833e+07,1e+06,-6.93983e-08,1.78121e-07,-5.40888e-08,-0.00114416,0.0283111,-8.52799e-05,0.0290116,2,6112
12,5.69767e-22,1,9229,72.45,-2.46383e-06,1.93622e-05,-2.54247e-08,1.95184e-05,52,-130,-165.58,1.0833e+07,1e+06,-6.74809e-08,1.69328e-07,-5.12095e-08,-0.00144306,0.0266495,-0.000105487,0.0275403,2,6113
12,6.38876e-22,1,9230,72.45,-2.52882e-06,1.93431e-05,-2.31416e-08,1.95077e-05,53.25,-130,-165.58,1.0833e+07,1e+06,-5.42795e-08,1.49712e-07,-4.64049e-08,-0.00155708,0.0256268,0.000233338,0.0265184,2,6114
12,7.77092e-22,1,9231,113.67,-2.57239e-06,1.93125e-05,-2.41503e-08,1.94831e-05,55.75,-67.11,135.77,1.0833e+07,1e+06,-3.48053e-08,1.30814e-07,-4.76151e-08,-0.00202691,0.0260236,-7.93815e-06,0.0272625,2,6115
12,8.462e-22,1,9232,113.67,-2.59843e-06,1.92706e-05,-2.41103e-08,1.9445e-05,57,-67.11,135.77,1.0833e+07,1e+06,-2.65882e-08,1.21308e-07,-4.76123e-08,-0.00249167,0.0258275,1.52148e-05,0.0272291,2,6116
12,8.462e-22,1,9233,113.67,-2.62557e-06,1.92277e-05,-2.01091e-08,1.94062e-05,57,-67.11,135.77,1.0833e+07,1e+06,-2.9287e-08,1.17742e-07,-4.07658e-08,-0.00304728,0.025467,0.00121989,0.0266561,2,6117
12,7.06801e-22,1,9234,113.67,-2.65701e-06,1.91914e-05,-1.85012e-08,1.93745e-05,60.1875,-67.11,135.77,1.01872e+07,968750,-4.13605e-08,1.21117e-07,-3.79425e-08,-0.0044924,0.0246555,0.000501013,0.0275898,2,6118
12,4.28004e-22,1,9235,25.38,-2.70829e-06,1.91536e-05,-1.83421e-08,1.93441e-05,66.5625,118.9,132.01,8.89556e+06,906250,-5.78092e-08,1.3599e-07,-3.66759e-08,-0.00386438,0.0235485,1.15972e-05,0.0267351,2,6119
12,2.90719e-22,1,9236,25.38,-2.77263e-06,1.91339e-05,-2.0643e-08,1.93338e-05,70.3125,118.9,132.01,8.89556e+06,906250,-5.94389e-08,1.52332e-07,-4.08149e-08,-0.00172397,0.0257265,0.000737288,0.0271809,2,6120
12,2.94945e-22,1,9237,25.38,-2.82717e-06,1.91347e-05,-2.52601e-08,1.93425e-05,71.4375,118.9,132.01,1.01872e+07,968750,-5.15167e-08,1.60097e-07,-5.05035e-08,-0.00100652,0.029279,0.000256561,0.0303761,2,6121
12,2.97059e-22,1,9238,25.38,-2.87566e-06,1.91303e-05,-2.77168e-08,1.93452e-05,72,118.9,132.01,1.0833e+07,1e+06,-4.85571e-08,1.65065e-07,-5.54159e-08,-0.000565987,0.030922,-7.2646e-05,0.0317162,2,6122
12,2.97059e-22,1,9239,25.38,-2.92428e-06,1.91192e-05,-2.84682e-08,1.93416e-05,72,118.9,132.01,1.0833e+07,1e+06,-4.88621e-08,1.69303e-07,-5.6976e-08,-0.000169435,0.0316838,-5.51848e-05,0.0321762,2,6123
12,2.97059e-22,1,9240,25.38,-2.97338e-06,1.9102e-05,-2.87107e-08,1.9332e-05,72,118.9,132.01,1.0833e+07,1e+06,-4.9547e-08,1.71106e-07,-5.75442e-08,-3.29864e-05,0.0318756,-0.000110868,0.0322142,2,6124
12,2.97059e-22,1,9241,25.38,-3.02338e-06,1.90814e-05,-2.87533e-08,1.93194e-05,72,118.9,132.01,1.0833e+07,1e+06,-5.05884e-08,1.7127e-07,-5.79841e-08,-0.000236927,0.0316599,-0.000343958,0.0321378,2,6125
12,2.97059e-22,1,9242,25.38,-3.07456e-06,1.90602e-05,-2.93889e-08,1.93066e-05,72,118.9,132.01,1.0833e+07,1e+06,-5.32832e-08,1.73215e-07,-5.8114e-08,-0.000582543,0.0317649,-0.000539257,0.0324204,2,6126
12,3.03354e-22,1,9243,25.38,-3.12994e-06,1.90365e-05,-2.80708e-08,1.92921e-05,72.25,118.9,132.01,1.01872e+07,968750,-5.83098e-08,1.76443e-07,-5.51828e-08,-0.00107252,0.0324059,-0.000476744,0.0333972,2,6127
12,3.15945e-22,1,9244,25.38,-3.19118e-06,1.90127e-05,-2.39573e-08,1.92787e-05,72.75,118.9,132.01,8.89556e+06,906250,-6.31391e-08,1.81586e-07,-4.84686e-08,-0.000754705,0.0337541,0.000390769,0.0344016,2,6128
12,3.22241e-22,1,9245,25.38,-3.25622e-06,1.89921e-05,-2.22758e-08,1.92692e-05,73,118.9,132.01,8.24975e+06,875000,-6.55545e-08,1.88547e-07,-4.50638e-08,9.80501e-05,0.0353485,0.00121481,0.0352205,2,6129
12,3.22241e-22,1,9246,25.38,-3.32229e-06,1.89723e-05,-2.35079e-08,1.9261e-05,73,118.9,132.01,8.24975e+06,875000,-6.56647e-08,1.94078e-07,-4.69624e-08,0.000584495,0.036495,0.00123734,0.0361159,2,6130
12,3.22241e-22,1,9247,25.38,-3.38755e-06,1.89555e-05,-2.48797e-08,1.92558e-05,73,118.9,132.01,8.24975e+06,875000,-6.40229e-08,1.99339e-07,-4.97537e-08,0.00125834,0.0377338,0.00130399,0.0370008,2,6131
12,3.22241e-22,1,9248,25.38,-3.45034e-06,1.89462e-05,-2.60653e-08,1.92579e-05,73,118.9,132.01,8.24975e+06,875000,-6.05156e-08,2.03637e-07,-5.27472e-08,0.00218823,0.0388763,0.0015101,0.0375314,2,6132
12,3.38559e-22,1,9249,25.38,-3.50858e-06,1.89553e-05,-2.82651e-08,1.92773e-05,74.1875,118.9,132.01,6.31231e+06,781250,-5.96437e-08,2.1233e-07,-5.60128e-08,0.00320263,0.0401712,0.000969011,0.0391724,2,6133
12,3.66057e-22,2,9250,46.91,-3.56962e-06,1.90176e-05,-2.8091e-08,1.93497e-05,77.4375,-42.47,175.69,2.43744e+06,593750,-6.91657e-08,2.18081e-07,-5.65469e-08,0.00328678,0.0362252,0.000575739,0.0356799,3,3115
12,3.70886e-22,2,9251,70.27,-3.64691e-06,1.9122e-05,-3.10323e-08,1.94667e-05,80.5625,157.22,-160.07,500000,500000,-8.61243e-08,2.22759e-07,-6.23448e-08,0.00111904,0.0300774,-0.000143358,0.0307258,3,3116
12,3.6332e-22,2,9252,70.27,-3.74187e-06,1.92166e-05,-3.40096e-08,1.95775e-05,81.8125,157.22,-160.07,500000,500000,-1.01183e-07,2.30216e-07,-6.64816e-08,-0.00137877,0.0287454,-0.00122025,0.0312245,3,3117
12,3.64814e-22,2,9253,70.27,-3.84928e-06,1.92916e-05,-2.86288e-08,1.96719e-05,81.5,157.22,-160.07,500000,500000,-1.07143e-07,2.23006e-07,-5.65069e-08,-0.00298664,0.0294213,-0.00162359,0.0329547,3,3118
12,3.71585e-22,2,9254,134.44,-3.95616e-06,1.93361e-05,-1.82008e-08,1.97367e-05,80.25,-107.77,-162.59,500000,500000,-1.03789e-07,2.01456e-07,-3.67416e-08,-0.00404685,0.0306307,-0.00111666,0.0343443,3,3119
12,3.77003e-22,2,9255,134.44,-4.05686e-06,1.93516e-05,-7.60395e-09,1.97723e-05,79.25,-107.77,-162.59,500000,500000,-1.02073e-07,1.8693e-07,-1.61794e-08,-0.00391749,0.0317671,0.000857701,0.0340728,3,3120
12,3.78357e-22,2,9256,134.44,-4.1603e-06,1.93688e-05,-2.82499e-09,1.98106e-05,79,-107.77,-162.59,500000,500000,-1.03084e-07,1.82464e-07,-6.50051e-09,-0.00348269,0.0318387,0.00210766,0.0330929,3,3121
12,3.54762e-22,2,9257,134.44,-4.26302e-06,1.93873e-05,-1.30856e-08,1.98505e-05,79.25,-107.77,-162.59,500000,500000,-9.40067e-08,1.80978e-07,-2.60193e-08,-0.0046242,0.0289357,0.00116661,0.0315347,3,3122
12,4.15362e-22,2,9258,94.89,-4.34832e-06,1.92962e-05,-2.26391e-08,1.97801e-05,85.25,-138.97,-33.48,3.08325e+06,625000,-7.34704e-08,1.68219e-07,-4.4999e-08,-0.00586791,0.0277746,3.82471e-05,0.0319667,3,3123
12,6.07347e-22,1,9259,121.22,-4.40996e-06,1.9181e-05,-1.59497e-08,1.96815e-05,96.5,-21.83,121.47,8.24975e+06,875000,-5.81833e-08,1.50783e-07,-3.2313e-08,-0.0053202,0.0339619,0.000457272,0.037325,2,6134
12,7.15137e-22,1,9260,121.22,-4.46468e-06,1.91467e-05,-1.24209e-08,1.96604e-05,102,-21.83,121.47,1.0833e+07,1e+06,-5.72755e-08,1.56121e-07,-2.43907e-08,-0.00499309,0.0411579,0.000742435,0.0437896,2,6135
12,7.15137e-22,1,9261,121.22,-4.52452e-06,1.91167e-05,-1.40609e-08,1.96448e-05,102,-21.83,121.47,1.0833e+07,1e+06,-6.06968e-08,1.66319e-07,-2.78887e-08,-0.00540723,0.0436498,0.000289528,0.0466904,2,6136
12,7.15137e-22,1,9262,121.22,-4.58608e-06,1.90915e-05,-1.47427e-08,1.96346e-05,102,-21.83,121.47,1.0833e+07,1e+06,-6.11574e-08,1.67954e-07,-2.95664e-08,-0.00556643,0.0438239,2.5242e-05,0.0470187,2,6137
12,7.15137e-22,1,9263,121.22,-4.64683e-06,1.90777e-05,-1.57435e-08,1.96355e-05,102,-21.83,121.47,1.0833e+07,1e+06,-6.09554e-08,1.69413e-07,-3.14478e-08,-0.0055831,0.043829,-7.26311e-05,0.0469889,2,6138
12,7.15137e-22,1,9264,121.22,-4.70799e-06,1.90858e-05,-1.6933e-08,1.96579e-05,102,-21.83,121.47,1.0833e+07,1e+06,-6.24521e-08,1.73732e-07,-3.38521e-08,-0.00588219,0.0443965,-0.00013345,0.0477162,2,6139
12,7.15137e-22,1,9265,121.22,-4.77173e-06,1.91205e-05,-1.79778e-08,1.9707e-05,102,-21.83,121.47,1.0833e+07,1e+06,-6.58981e-08,1.8084e-07,-3.60662e-08,-0.00646194,0.0456804,-0.000119896,0.0493683,2,6140
12,7.15137e-22,1,9266,121.22,-4.83978e-06,1.91777e-05,-1.82256e-08,1.97789e-05,102,-21.83,121.47,1.0833e+07,1e+06,-6.96462e-08,1.86279e-07,-3.59317e-08,-0.00695972,0.0467697,0.000193405,0.0506602,2,6141
12,7.15137e-22,1,9267,121.22,-4.91103e-06,1.92458e-05,-1.68822e-08,1.98625e-05,102,-21.83,121.47,1.0833e+07,1e+06,-7.1538e-08,1.86325e-07,-3.37791e-08,-0.00715798,0.0467026,0.000610566,0.0505766,2,6142
12,7.15137e-22,1,9268,121.22,-4.98286e-06,1.93132e-05,-1.55662e-08,1.99456e-05,102,-21.83,121.47,1.0833e+07,1e+06,-7.08647e-08,1.83148e-07,-3.17808e-08,-0.0069811,0.0459453,0.000940468,0.0496319,2,6143
12,7.15137e-22,1,9269,121.22,-5.05276e-06,1.9375e-05,-1.55931e-08,2.0023e-05,102,-21.83,121.47,1.0833e+07,1e+06,-6.79622e-08,1.77928e-07,-3.15496e-08,-0.00662622,0.0445842,0.000912935,0.0481301,2,6144
12,7.15137e-22,1,9270,121.22,-5.11878e-06,1.9431e-05,-1.64513e-08,2.00939e-05,102,-21.83,121.47,1.0833e+07,1e+06,-6.35932e-08,1.6952e-07,-3.25984e-08,-0.00635195,0.0422451,0.000455743,0.0458921,2,6145
12,7.15137e-22,1,9271,121.22,-5.17994e-06,1.94811e-05,-1.6984e-08,2.0158e-05,102,-21.83,121.47,1.0833e+07,1e+06,-5.78946e-08,1.5995e-07,-3.34672e-08,-0.00575279,0.0397471,4.54124e-06,0.0432555,2,6146
12,7.15137e-22,1,9272,121.22,-5.23457e-06,1.95226e-05,-1.61347e-08,2.02122e-05,102,-21.83,121.47,1.0833e+07,1e+06,-5.01414e-08,1.47012e-07,-3.18784e-08,-0.00454408,0.036741,1.94168e-05,0.0395063,2,6147
12,7.15137e-22,1,9273,121.22,-5.28023e-06,1.95414e-05,-1.47315e-08,2.02422e-05,102,-21.83,121.47,1.0833e+07,1e+06,-4.16944e-08,1.35337e-07,-2.93361e-08,-0.00293498,0.034453,0.000358588,0.0360939,2,6148
12,7.15137e-22,1,9274,121.22,-5.31796e-06,1.95231e-05,-1.42595e-08,2.02345e-05,102,-21.83,121.47,1.0833e+07,1e+06,-3.47496e-08,1.33334e-07,-2.90189e-08,-0.00113399,0.0349502,0.000667018,0.0354311,2,6149
12,7.15137e-22,1,9275,121.22,-5.34972e-06,1.94684e-05,-1.54005e-08,2.01901e-05,102,-21.83,121.47,1.0833e+07,1e+06,-2.85045e-08,1.37502e-07,-3.1278e-08,0.000731927,0.0370262,0.000767109,0.0366147,2,6150
12,6.92376e-22,1,9276,121.22,-5.37497e-06,1.93922e-05,-1.86115e-08,2.01233e-05,102.75,-21.83,121.47,1.01872e+07,968750,-2.96778e-08,1.51631e-07,-3.7551e-08,0.00190463,0.0395707,-2.6095e-05,0.0394342,2,6151
12,5.78572e-22,1,9277,121.22,-5.40908e-06,1.92919e-05,-2.46349e-08,2.00358e-05,106.5,-21.83,121.47,6.95812e+06,812500,-6.27565e-08,2.03405e-07,-4.869e-08,0.00287555,0.0406972,-0.000286183,0.0410069,2,6152
12,4.19246e-22,2,9278,66.67,-5.50048e-06,1.91622e-05,-3.52092e-08,1.99361e-05,111.75,165.52,-172.29,2.43744e+06,593750,-1.1979e-07,2.79365e-07,-7.05741e-08,0.00319396,0.0358897,-2.88583e-05,0.0359944,3,3124
12,3.50963e-22,2,9279,66.67,-5.64866e-06,1.90363e-05,-4.27868e-08,1.98568e-05,114,165.52,-172.29,500000,500000,-1.5017e-07,3.2012e-07,-8.60957e-08,0.00310728,0.0318914,5.28127e-05,0.0312915,3,3125
12,3.50963e-22,2,9280,66.67,-5.80082e-06,1.8923e-05,-4.32988e-08,1.97922e-05,114,165.52,-172.29,500000,500000,-1.43278e-07,3.12029e-07,-8.61734e-08,0.00337161,0.0310468,9.91593e-05,0.0299573,3,3126
12,3.50963e-22,2,9281,66.67,-5.93522e-06,1.88151e-05,-4.28166e-08,1.9729e-05,114,165.52,-172.29,500000,500000,-1.27063e-07,2.89169e-07,-8.53378e-08,0.00345666,0.0287816,-0.000149207,0.0277078,3,3127
12,3.50963e-22,2,9282,66.67,-6.05495e-06,1.87242e-05,-4.22805e-08,1.96789e-05,114,165.52,-172.29,500000,500000,-1.18271e-07,2.76294e-07,-8.44815e-08,0.00351083,0.0274199,-0.000190316,0.0261571,3,3128
12,3.50963e-22,2,9283,66.67,-6.17176e-06,1.86557e-05,-4.19004e-08,1.96501e-05,114,165.52,-172.29,500000,500000,-1.19602e-07,2.75877e-07,-8.38339e-08,0.00335496,0.0270574,-0.000131611,0.0257089,3,3129
12,3.50963e-22,2,9284,66.67,-6.29415e-06,1.8613e-05,-4.16878e-08,1.96485e-05,114,165.52,-172.29,500000,500000,-1.25965e-07,2.81372e-07,-8.36759e-08,0.0030351,0.0270996,-0.000150926,0.0259133,3,3130
12,3.50963e-22,2,9285,66.67,-6.42369e-06,1.85944e-05,-4.14238e-08,1.96727e-05,114,165.52,-172.29,500000,500000,-1.31741e-07,2.83824e-07,-8.23927e-08,0.00256865,0.0268126,-0.000250342,0.0259854,3,3131
12,3.73126e-22,2,9286,66.67,-6.55763e-06,1.85945e-05,-4.06102e-08,1.9717e-05,114.438,165.52,-172.29,1.14581e+06,531250,-1.22928e-07,2.75586e-07,-8.0859e-08,0.00214686,0.0280904,0.000147357,0.0279434,3,3132
12,4.61777e-22,2,9287,66.67,-6.66955e-06,1.86324e-05,-4.21174e-08,1.97902e-05,116.188,165.52,-172.29,3.72906e+06,656250,-7.97508e-08,2.43428e-07,-8.54255e-08,0.00174519,0.0321497,0.000728415,0.0331276,3,3133
12,5.94754e-22,1,9288,9.52003,-6.71714e-06,1.8742e-05,-5.02761e-08,1.99094e-05,118.812,63.66,-15.5,7.60394e+06,843750,-2.11186e-08,2.05263e-07,-1.00541e-07,0.00152565,0.0374286,0.000369534,0.0386805,2,6153
12,6.83405e-22,1,9289,9.52004,-6.71178e-06,1.88918e-05,-5.83663e-08,2.00488e-05,120.562,63.66,-15.5,1.01872e+07,968750,8.68035e-09,1.94536e-07,-1.15642e-07,0.000969091,0.0422721,-0.000323274,0.0428691,2,6154
12,7.05568e-22,1,9290,9.52004,-6.69978e-06,1.9008e-05,-5.80955e-08,2.01543e-05,121,63.66,-15.5,1.0833e+07,1e+06,8.91344e-09,1.94875e-07,-1.16474e-07,3.18845e-06,0.0436492,-0.000370474,0.0439936,2,6155
12,7.05568e-22,1,9291,9.52004,-6.69396e-06,1.90737e-05,-5.3067e-08,2.02143e-05,121,63.66,-15.5,1.0833e+07,1e+06,5.46037e-09,1.82836e-07,-1.06514e-07,-0.000262086,0.0408983,-9.72923e-05,0.0411155,2,6156
12,7.05568e-22,1,9292,9.52003,-6.68885e-06,1.9116e-05,-4.78189e-08,2.02526e-05,121,63.66,-15.5,1.0833e+07,1e+06,5.18013e-09,1.63418e-07,-9.54997e-08,-9.04688e-05,0.0364497,-0.000124444,0.0365697,2,6157
12,6.87778e-22,1,9293,153.16,-8.08576e-09,1.95474e-05,-3.22003e-08,1.95474e-05,8.875,-104.67,-152.95,1.01872e+07,968750,-1.51612e-08,1.78578e-07,-6.4871e-08,0.00116371,0.0463059,0.000886819,0.0455449,2,6158
12,6.16201e-22,1,9294,153.16,-2.22366e-08,1.95653e-05,-3.83302e-08,1.95654e-05,8.375,-104.67,-152.95,7.60394e+06,843750,-1.69438e-08,1.85636e-07,-7.68828e-08,0.00110689,0.042693,-0.000915613,0.0429359,2,6159
12,5.08835e-22,2,9295,115.35,-4.19734e-08,1.95491e-05,-4.33558e-08,1.95492e-05,7.625,-67.69,60.87,3.72906e+06,656250,-2.55194e-08,2.12846e-07,-8.58299e-08,0.00258755,0.0422183,-0.000340933,0.0415288,3,3134
12,4.37257e-22,2,9296,115.35,-7.32754e-08,1.94819e-05,-4.41398e-08,1.94821e-05,7.125,-67.69,60.87,1.14581e+06,531250,-3.27795e-08,2.25524e-07,-8.84185e-08,0.00349332,0.0403671,0.000151215,0.0388964,3,3135
12,4.19363e-22,2,9297,115.35,-1.07532e-07,1.94064e-05,-4.42799e-08,1.94068e-05,7,-67.69,60.87,500000,500000,-3.34917e-08,2.24309e-07,-8.88245e-08,0.00368986,0.0388464,9.66861e-05,0.0372658,3,3136
12,4.19363e-22,2,9298,115.35,-1.40259e-07,1.93476e-05,-4.69525e-08,1.93481e-05,7,-67.69,60.87,500000,500000,-3.72159e-08,2.31799e-07,-9.40904e-08,0.00280459,0.0397259,-0.000524405,0.0389111,3,3137
12,4.12594e-22,2,9299,115.35,-1.81964e-07,1.9296e-05,-4.53467e-08,1.92969e-05,13,-67.69,60.87,500000,500000,-5.94025e-08,2.51897e-07,-9.09733e-08,0.00325363,0.0390457,0.000136463,0.0384136,3,3138
12,3.99057e-22,2,9300,58.62,-2.59064e-07,1.92677e-05,-4.8977e-08,1.92695e-05,25,158.52,96.68,500000,500000,-8.6738e-08,2.61901e-07,-9.68611e-08,0.00375492,0.0294976,-0.000522188,0.0289986,3,3139
12,3.92288e-22,2,9301,58.62,-3.5544e-07,1.92458e-05,-5.03569e-08,1.92492e-05,31,158.52,96.68,500000,500000,-9.29239e-08,2.47479e-07,-1.0017e-07,0.00306708,0.0209089,-0.00124296,0.0203505,3,3140
12,3.92288e-22,2,9302,58.62,-4.44911e-07,1.92127e-05,-4.38898e-08,1.92179e-05,31,158.52,96.68,500000,500000,-9.14829e-08,2.3597e-07,-8.86516e-08,0.0030357,0.0204307,-0.00012696,0.0192751,3,3141
12,3.92288e-22,2,9303,58.62,-5.38406e-07,1.91911e-05,-4.22787e-08,1.91987e-05,31,158.52,96.68,500000,500000,-9.8153e-08,2.38449e-07,-8.461e-08,0.00255012,0.0206092,0.000117523,0.0196493,3,3142
12,3.92288e-22,2,9304,58.62,-6.41217e-07,1.91831e-05,-4.17772e-08,1.91939e-05,31,158.52,96.68,500000,500000,-1.07353e-07,2.45798e-07,-8.3625e-08,0.00182161,0.0209711,0.000122499,0.020527,3,3143
12,3.92288e-22,2,9305,58.62,-7.53111e-07,1.9186e-05,-4.20627e-08,1.92008e-05,31,158.52,96.68,500000,500000,-1.15418e-07,2.53973e-07,-8.4079e-08,0.00125196,0.0214289,9.03102e-05,0.021437,3,3144
12,3.92288e-22,2,9306,58.62,-8.72054e-07,1.91958e-05,-4.27516e-08,1.92157e-05,31,158.52,96.68,500000,500000,-1.21319e-07,2.61584e-07,-8.54917e-08,0.000921683,0.021911,6.26844e-05,0.022149,3,3145
12,3.92288e-22,2,9307,58.62,-9.9575e-07,1.92092e-05,-4.36465e-08,1.92351e-05,31,158.52,96.68,500000,500000,-1.25131e-07,2.67495e-07,-8.7202e-08,0.000746304,0.0222751,3.6328e-05,0.0225348,3,3146
12,3.92288e-22,2,9308,58.62,-1.12232e-06,1.92235e-05,-4.44539e-08,1.92563e-05,31,158.52,96.68,500000,500000,-1.27318e-07,2.71811e-07,-8.96544e-08,0.000656207,0.0224272,-0.000160702,0.022657,3,3147
12,3.92288e-22,2,9309,58.62,-1.25039e-06,1.92353e-05,-4.68599e-08,1.9276e-05,31,158.52,96.68,500000,500000,-1.2493e-07,2.73448e-07,-9.27835e-08,0.00105628,0.022565,-0.000324283,0.0225371,3,3148
12,3.77764e-22,2,9310,58.62,-1.37218e-06,1.92307e-05,-4.32715e-08,1.92797e-05,32.6875,158.52,96.68,2.43744e+06,593750,-1.02622e-07,2.53278e-07,-8.59552e-08,0.00160298,0.0273544,-0.000480455,0.0283163,3,3149
12,3.43874e-22,1,9311,151.34,-1.45563e-06,1.92147e-05,-3.94896e-08,1.92698e-05,36.625,-67.01,136.63,6.95812e+06,812500,-6.2129e-08,2.3351e-07,-8.03598e-08,0.00345645,0.039392,0.000243321,0.040185,2,6160
12,3.19668e-22,1,9312,151.34,-1.49643e-06,1.92034e-05,-4.23348e-08,1.92616e-05,39.4375,-67.01,136.63,1.01872e+07,968750,-3.51252e-08,2.23862e-07,-8.44974e-08,0.00488315,0.0456454,0.000492035,0.0450429,2,6161
12,3.14826e-22,1,9313,151.34,-1.52588e-06,1.9209e-05,-4.21876e-08,1.92695e-05,40,-67.01,136.63,1.0833e+07,1e+06,-2.99363e-08,2.1034e-07,-8.40275e-08,0.00448436,0.0434107,-0.000121546,0.0425729,2,6162
12,3.14826e-22,1,9314,151.34,-1.55631e-06,1.92364e-05,-4.03303e-08,1.92993e-05,40,-67.01,136.63,1.0833e+07,1e+06,-3.17368e-08,2.04488e-07,-8.06654e-08,0.00406815,0.041598,-1.95299e-05,0.0404819,2,6163
12,3.14826e-22,1,9315,151.34,-1.58935e-06,1.92768e-05,-3.9076e-08,1.93422e-05,40,-67.01,136.63,1.0833e+07,1e+06,-3.42107e-08,2.007e-07,-7.8176e-08,0.00346296,0.0402708,4.29143e-05,0.0391471,2,6164
12,3.14826e-22,1,9316,151.34,-1.62473e-06,1.93298e-05,-3.81392e-08,1.9398e-05,40,-67.01,136.63,1.0833e+07,1e+06,-3.6186e-08,1.97161e-07,-7.63074e-08,0.00298808,0.0389382,4.34016e-05,0.03781,2,6165
12,3.14826e-22,1,9317,151.34,-1.66173e-06,1.93956e-05,-3.76052e-08,1.94667e-05,40,-67.01,136.63,1.0833e+07,1e+06,-3.75812e-08,1.92947e-07,-7.51437e-08,0.00259347,0.0373419,-0.000169518,0.0363289,2,6166
12,3.78562e-22,1,9318,151.34,-1.69989e-06,1.9474e-05,-3.46027e-08,1.9548e-05,43,-67.01,136.63,1.0833e+07,1e+06,-4.34368e-08,1.88302e-07,-6.90341e-08,0.00243613,0.0350009,0.00015237,0.033848,2,6167
12,5.06032e-22,1,9319,72.45,-1.7486e-06,1.95352e-05,-3.03613e-08,1.96133e-05,49,-130,-165.58,1.0833e+07,1e+06,-5.35325e-08,1.86691e-07,-6.06165e-08,0.00266753,0.0326171,0.00067399,0.0310447,2,6168
12,5.69767e-22,1,9320,72.45,-1.80696e-06,1.95679e-05,-2.79746e-08,1.96512e-05,52,-130,-165.58,1.0833e+07,1e+06,-5.68635e-08,1.82034e-07,-5.60545e-08,0.00278596,0.0307691,0.000705604,0.0290544,2,6169
12,5.69767e-22,1,9321,72.45,-1.86233e-06,1.95889e-05,-2.6099e-08,1.96772e-05,52,-130,-165.58,1.0833e+07,1e+06,-5.32245e-08,1.71857e-07,-5.27833e-08,0.00285116,0.0290705,0.000719753,0.0273415,2,6170
12,5.69767e-22,1,9322,72.45,-1.9134e-06,1.95993e-05,-2.53227e-08,1.96925e-05,52,-130,-165.58,1.0833e+07,1e+06,-5.01441e-08,1.63613e-07,-5.06126e-08,0.00288956,0.0276468,0.00062113,0.0259747,2,6171
12,5.69767e-22,1,9323,72.45,-1.96261e-06,1.96033e-05,-2.52879e-08,1.97014e-05,52,-130,-165.58,1.0833e+07,1e+06,-4.99943e-08,1.6146e-07,-4.99155e-08,0.0026597,0.0272849,0.000565536,0.0257181,2,6172
12,5.69767e-22,1,9324,72.45,-2.01339e-06,1.96027e-05,-2.49401e-08,1.97059e-05,52,-130,-165.58,1.0833e+07,1e+06,-5.23657e-08,1.64417e-07,-4.99206e-08,0.00228817,0.027821,0.000688943,0.0263421,2,6173
12,5.69767e-22,1,9325,72.45,-2.06735e-06,1.95983e-05,-2.48186e-08,1.9707e-05,52,-130,-165.58,1.0833e+07,1e+06,-5.51503e-08,1.67541e-07,-4.98472e-08,0.00191413,0.0282017,0.000886894,0.0267862,2,6174
12,5.69767e-22,1,9326,72.45,-2.12369e-06,1.95912e-05,-2.49372e-08,1.9706e-05,52,-130,-165.58,1.0833e+07,1e+06,-5.73791e-08,1.69131e-07,-4.99704e-08,0.0015242,0.0281548,0.000946138,0.0269068,2,6175
12,5.69767e-22,1,9327,72.45,-2.1821e-06,1.95815e-05,-2.49724e-08,1.97027e-05,52,-130,-165.58,1.0833e+07,1e+06,-5.97323e-08,1.69983e-07,-4.99128e-08,0.000992378,0.0279675,0.000949246,0.0270223,2,6176
12,5.69767e-22,1,9328,72.45,-2.24316e-06,1.95688e-05,-2.51733e-08,1.96969e-05,52,-130,-165.58,1.0833e+07,1e+06,-6.27285e-08,1.72687e-07,-5.02759e-08,0.000453998,0.0281595,0.000970856,0.0275072,2,6177
12,5.69767e-22,1,9329,72.45,-2.30756e-06,1.95534e-05,-2.50965e-08,1.96891e-05,52,-130,-165.58,1.0833e+07,1e+06,-6.56927e-08,1.74139e-07,-5.02326e-08,-0.000205024,0.0280968,0.000964824,0.0278234,2,6178
12,5.69767e-22,1,9330,72.45,-2.37454e-06,1.95317e-05,-2.38706e-08,1.96755e-05,52,-130,-165.58,1.0833e+07,1e+06,-6.62689e-08,1.69136e-07,-4.75448e-08,-0.000803748,0.0271485,0.00107829,0.0271368,2,6179
12,6.21598e-22,1,9331,72.45,-2.4401e-06,1.94937e-05,-2.1064e-08,1.96459e-05,52.9375,-130,-165.58,1.0833e+07,1e+06,-5.72773e-08,1.53348e-07,-4.20907e-08,-0.00117508,0.026322,0.00161085,0.0263624,2,6180
12,7.42538e-22,1,9332,113.67,-2.4891e-06,1.94441e-05,-1.97957e-08,1.96028e-05,55.125,-67.11,135.77,1.0833e+07,1e+06,-4.04558e-08,1.34804e-07,-3.99335e-08,-0.001643,0.0266184,0.00199765,0.0267535,2,6181
12,7.92488e-22,1,9333,113.67,-2.52101e-06,1.9393e-05,-2.14623e-08,1.95562e-05,57.0625,-67.11,135.77,1.01872e+07,968750,-3.4113e-08,1.27973e-07,-4.35417e-08,-0.00263418,0.0265502,0.000851916,0.0280191,2,6182
12,7.36896e-22,1,9334,113.67,-2.55732e-06,1.93459e-05,-2.28254e-08,1.95142e-05,58.125,-67.11,135.77,8.89556e+06,906250,-4.12846e-08,1.32942e-07,-4.5478e-08,-0.00352179,0.0256539,-0.000276876,0.0286361,2,6183
12,5.93271e-22,1,9335,113.67,-2.60358e-06,1.93155e-05,-2.33081e-08,1.94902e-05,60.1875,-67.11,135.77,6.95812e+06,812500,-5.94471e-08,1.45867e-07,-4.58827e-08,-0.00450723,0.0244004,-0.00137583,0.0289606,2,6184
12,3.78889e-22,2,9336,118.11,-2.67622e-06,1.93014e-05,-2.11939e-08,1.94861e-05,63.5625,-110.21,-171.13,4.37488e+06,687500,-8.37599e-08,1.68477e-07,-4.2565e-08,-0.00357148,0.022944,-0.00100594,0.0266038,3,3150
12,2.75925e-22,2,9337,118.11,-2.7711e-06,1.92978e-05,-2.13567e-08,1.94957e-05,66.375,-110.21,-171.13,4.37488e+06,687500,-8.41785e-08,1.79525e-07,-4.29384e-08,-0.00126821,0.0241565,0.000322124,0.0255181,3,3151
12,2.86492e-22,1,9338,25.38,-2.84458e-06,1.92978e-05,-2.59872e-08,1.95064e-05,69.1875,118.9,132.01,7.60394e+06,843750,-6.0402e-08,1.72581e-07,-5.17722e-08,0.000148364,0.0282634,0.000261739,0.0289221,2,6185
12,2.94945e-22,1,9339,25.38,-2.8919e-06,1.92961e-05,-2.89153e-08,1.95116e-05,71.4375,118.9,132.01,1.01872e+07,968750,-4.57843e-08,1.69162e-07,-5.77274e-08,0.00079828,0.031316,0.000113573,0.0313782,2,6186
12,2.97059e-22,1,9340,25.38,-2.93614e-06,1.92896e-05,-2.9596e-08,1.95118e-05,72,118.9,132.01,1.0833e+07,1e+06,-4.61652e-08,1.70768e-07,-5.94739e-08,0.000318376,0.0321244,-0.000158523,0.0324007,2,6187
12,2.97059e-22,1,9341,25.38,-2.98423e-06,1.92745e-05,-2.94534e-08,1.95041e-05,72,118.9,132.01,1.0833e+07,1e+06,-4.94553e-08,1.71825e-07,-5.89689e-08,-0.000244667,0.031951,-0.000278557,0.0325017,2,6188
12,3.03354e-22,1,9342,25.38,-3.03505e-06,1.92532e-05,-2.80464e-08,1.9491e-05,72.25,118.9,132.01,1.01872e+07,968750,-5.31341e-08,1.71184e-07,-5.53819e-08,-0.00086692,0.0318648,-0.000269845,0.0328148,2,6189
12,3.15945e-22,1,9343,25.38,-3.0905e-06,1.92331e-05,-2.40124e-08,1.94798e-05,72.75,118.9,132.01,8.89556e+06,906250,-5.75732e-08,1.7462e-07,-4.80348e-08,-0.000572962,0.0328905,0.000577319,0.0334065,2,6190
12,3.34832e-22,1,9344,25.38,-3.1502e-06,1.92132e-05,-2.11994e-08,1.94697e-05,73.5,118.9,132.01,6.95812e+06,812500,-6.18658e-08,1.8183e-07,-4.27839e-08,0.00010895,0.0344241,0.00103475,0.0345693,2,6191
12,3.60014e-22,2,9345,46.91,-3.21423e-06,1.91966e-05,-1.983e-08,1.94639e-05,74.5,-42.47,175.69,4.37488e+06,687500,-6.6734e-08,1.90331e-07,-3.96333e-08,0.000994978,0.0353783,0.000886544,0.0352146,3,3152
12,3.72605e-22,2,9346,46.91,-3.28367e-06,1.91839e-05,-1.87409e-08,1.94629e-05,75,-42.47,175.69,3.08325e+06,625000,-7.06221e-08,1.97822e-07,-3.7603e-08,0.00183758,0.0361461,0.00111723,0.0352941,3,3153
12,3.72605e-22,2,9347,46.91,-3.35548e-06,1.91685e-05,-1.93169e-08,1.946e-05,75,-42.47,175.69,3.08325e+06,625000,-7.16274e-08,2.02206e-07,-3.86333e-08,0.00201395,0.037034,0.00114846,0.0361009,3,3154
12,3.72605e-22,2,9348,46.91,-3.42692e-06,1.91558e-05,-2.01021e-08,1.946e-05,75,-42.47,175.69,3.08325e+06,625000,-7.17016e-08,2.06289e-07,-4.00881e-08,0.00230667,0.0378797,0.00115611,0.0367926,3,3155
12,3.72605e-22,2,9349,46.91,-3.49888e-06,1.91512e-05,-2.03517e-08,1.94682e-05,75,-42.47,175.69,3.08325e+06,625000,-7.25932e-08,2.11313e-07,-4.08887e-08,0.00258745,0.0388714,0.00134497,0.0375247,3,3156
12,3.78901e-22,2,9350,46.91,-3.57211e-06,1.9168e-05,-2.15832e-08,1.94981e-05,75.25,-42.47,175.69,2.43744e+06,593750,-7.32656e-08,2.17789e-07,-4.34022e-08,0.00304501,0.0397688,0.000945242,0.0384463,3,3157
12,3.88923e-22,2,9351,46.91,-3.64541e-06,1.92306e-05,-2.16726e-08,1.95731e-05,76.1875,-42.47,175.69,1.14581e+06,531250,-7.33808e-08,2.13797e-07,-4.27809e-08,0.00348144,0.037204,0.000643689,0.0357183,3,3158
12,3.87652e-22,2,9352,46.91,-3.71887e-06,1.933e-05,-2.00798e-08,1.96845e-05,77.6875,-42.47,175.69,500000,500000,-7.4239e-08,1.99365e-07,-4.03881e-08,0.00204072,0.0325186,0.000861169,0.0316838,3,3159
12,3.79012e-22,2,9353,134.44,-3.79389e-06,1.9425e-05,-1.97116e-08,1.9792e-05,79.0625,-107.77,-162.59,500000,500000,-7.80076e-08,1.89636e-07,-3.93826e-08,-0.000662007,0.0303466,0.00051433,0.0313235,3,3160
12,3.75508e-22,2,9354,134.44,-3.87489e-06,1.94907e-05,-1.7353e-08,1.98721e-05,79.5625,-107.77,-162.59,500000,500000,-8.34979e-08,1.82088e-07,-3.44702e-08,-0.00257649,0.0297355,-0.00035683,0.0320879,3,3161
12,3.77003e-22,2,9355,134.44,-3.96089e-06,1.95194e-05,-1.16061e-08,1.99172e-05,79.25,-107.77,-162.59,500000,500000,-8.79623e-08,1.76976e-07,-2.43481e-08,-0.00319697,0.0302196,7.70277e-06,0.0324543,3,3162
12,3.78357e-22,2,9356,134.44,-4.05081e-06,1.95319e-05,-8.67634e-09,1.99475e-05,79,-107.77,-162.59,500000,500000,-9.23354e-08,1.78412e-07,-1.72364e-08,-0.00306179,0.0310631,0.00077404,0.0326047,3,3163
12,3.78357e-22,2,9357,134.44,-4.14556e-06,1.95485e-05,-7.95984e-09,1.99832e-05,79,-107.77,-162.59,500000,500000,-9.13982e-08,1.76953e-07,-1.54193e-08,-0.00244215,0.0308502,0.000908411,0.0318782,3,3164
12,3.54762e-22,2,9358,134.44,-4.23361e-06,1.95642e-05,-1.78091e-08,2.0017e-05,79.25,-107.77,-162.59,500000,500000,-7.92238e-08,1.73054e-07,-3.54195e-08,-0.00308056,0.027546,-4.95092e-05,0.0296978,3,3165
12,3.88415e-22,2,9359,94.89,-4.304e-06,1.94675e-05,-3.08333e-08,1.99376e-05,83.875,-138.97,-33.48,2.43744e+06,593750,-6.50187e-08,1.81409e-07,-6.09943e-08,-0.0040549,0.0287167,-0.000699077,0.0320392,3,3166
12,5.53452e-22,1,9360,121.22,-4.36365e-06,1.93352e-05,-2.40527e-08,1.98215e-05,93.75,-21.83,121.47,6.95812e+06,812500,-6.0211e-08,1.71848e-07,-4.83967e-08,-0.00509012,0.0347698,-0.000428948,0.0383757,2,6192
12,6.88189e-22,1,9361,121.22,-4.42443e-06,1.93021e-05,-1.42006e-08,1.98027e-05,100.625,-21.83,121.47,1.01872e+07,968750,-6.16239e-08,1.60715e-07,-2.90033e-08,-0.00606575,0.04044,9.72412e-06,0.0440972,2,6193
12,7.15137e-22,1,9362,121.22,-4.48689e-06,1.92838e-05,-1.36031e-08,1.97989e-05,102,-21.83,121.47,1.0833e+07,1e+06,-6.1797e-08,1.66599e-07,-2.71509e-08,-0.00567581,0.0437273,0.000439752,0.0468518,2,6194
12,7.15137e-22,1,9363,121.22,-4.54802e-06,1.9258e-05,-1.42797e-08,1.97877e-05,102,-21.83,121.47,1.0833e+07,1e+06,-6.03204e-08,1.64426e-07,-2.84908e-08,-0.0055562,0.0429499,8.81695e-05,0.046128,2,6195
12,7.15137e-22,1,9364,121.22,-4.60753e-06,1.92448e-05,-1.50569e-08,1.97887e-05,102,-21.83,121.47,1.0833e+07,1e+06,-5.98982e-08,1.63979e-07,-3.00348e-08,-0.00562897,0.0423316,1.90471e-06,0.0454973,2,6196
12,7.15137e-22,1,9365,121.22,-4.66782e-06,1.92571e-05,-1.63747e-08,1.98147e-05,102,-21.83,121.47,1.0833e+07,1e+06,-6.20025e-08,1.67773e-07,-3.26444e-08,-0.00615811,0.0425632,-0.000156698,0.0461049,2,6197
12,7.15137e-22,1,9366,121.22,-4.73154e-06,1.92998e-05,-1.77124e-08,1.98713e-05,102,-21.83,121.47,1.0833e+07,1e+06,-6.59668e-08,1.77759e-07,-3.54729e-08,-0.0066717,0.0446005,-9.76904e-05,0.0484815,2,6198
12,7.15137e-22,1,9367,121.22,-4.79975e-06,1.93638e-05,-1.83441e-08,1.99498e-05,102,-21.83,121.47,1.0833e+07,1e+06,-6.93724e-08,1.86427e-07,-3.6852e-08,-0.00698198,0.0466612,7.70717e-05,0.0506846,2,6199
12,7.15137e-22,1,9368,121.22,-4.87028e-06,1.94322e-05,-1.83228e-08,2.00333e-05,102,-21.83,121.47,1.0833e+07,1e+06,-6.98827e-08,1.86798e-07,-3.66066e-08,-0.00703772,0.046758,8.85247e-05,0.0508068,2,6200
12,7.15137e-22,1,9369,121.22,-4.93952e-06,1.94953e-05,-1.80632e-08,2.01113e-05,102,-21.83,121.47,1.0833e+07,1e+06,-6.73937e-08,1.81924e-07,-3.59741e-08,-0.00668678,0.045593,3.37966e-05,0.0494463,2,6201
12,7.15137e-22,1,9370,121.22,-5.00507e-06,1.95509e-05,-1.78138e-08,2.01814e-05,102,-21.83,121.47,1.0833e+07,1e+06,-6.31248e-08,1.75214e-07,-3.55428e-08,-0.00604687,0.0439846,5.90255e-06,0.0474761,2,6202
12,7.15137e-22,1,9371,121.22,-5.06577e-06,1.95994e-05,-1.75993e-08,2.02435e-05,102,-21.83,121.47,1.0833e+07,1e+06,-5.7809e-08,1.67384e-07,-3.52307e-08,-0.00523569,0.0420968,-8.6948e-06,0.0451378,2,6203
12,7.15137e-22,1,9372,121.22,-5.12069e-06,1.96404e-05,-1.72584e-08,2.0297e-05,102,-21.83,121.47,1.0833e+07,1e+06,-5.15742e-08,1.58202e-07,-3.46199e-08,-0.00423802,0.0399335,-1.17629e-06,0.0424069,2,6204
12,7.15137e-22,1,9373,121.22,-5.16891e-06,1.96694e-05,-1.65188e-08,2.03373e-05,102,-21.83,121.47,1.0833e+07,1e+06,-4.48022e-08,1.47149e-07,-3.30858e-08,-0.00313964,0.0374501,2.1964e-05,0.0392737,2,6205
12,7.15137e-22,1,9374,121.22,-5.21029e-06,1.96772e-05,-1.56565e-08,2.03554e-05,102,-21.83,121.47,1.0833e+07,1e+06,-3.86218e-08,1.38085e-07,-3.12952e-08,-0.00199564,0.0357536,3.25267e-05,0.036899,2,6206
12,7.15137e-22,1,9375,121.22,-5.24616e-06,1.96558e-05,-1.52647e-08,2.03439e-05,102,-21.83,121.47,1.0833e+07,1e+06,-3.43068e-08,1.35949e-07,-3.04538e-08,-0.000863237,0.0360815,6.98241e-05,0.0366584,2,6207
12,7.15137e-22,1,9376,121.22,-5.27891e-06,1.96062e-05,-1.54454e-08,2.03045e-05,102,-21.83,121.47,1.0833e+07,1e+06,-3.21226e-08,1.40679e-07,-3.06789e-08,0.000144175,0.0382172,0.000242429,0.0384328,2,6208
12,7.15137e-22,1,9377,121.22,-5.3104e-06,1.95381e-05,-1.63525e-08,2.02469e-05,102,-21.83,121.47,1.0833e+07,1e+06,-3.24357e-08,1.48666e-07,-3.21363e-08,0.000622578,0.040809,0.000253354,0.0410393,2,6209
12,6.1888e-22,1,9378,121.22,-5.34378e-06,1.94713e-05,-1.62858e-08,2.01912e-05,104.5,-21.83,121.47,8.89556e+06,906250,-5.12793e-08,1.72832e-07,-3.40968e-08,0.000948594,0.0407613,0.000762359,0.0410503,2,6210
12,4.26366e-22,2,9379,66.67,-5.41296e-06,1.94193e-05,-2.83501e-08,2.01596e-05,109.5,165.52,-172.29,5.02069e+06,718750,-9.07732e-08,2.2753e-07,-5.70535e-08,0.000802014,0.0352342,-0.000196483,0.0364733,3,3167
12,3.35323e-22,2,9380,66.67,-5.52532e-06,1.9351e-05,-4.06263e-08,2.01244e-05,112.5,165.52,-172.29,2.43744e+06,593750,-1.23843e-07,2.79392e-07,-7.96212e-08,0.00102167,0.0320396,-0.0010921,0.033617,3,3168
12,3.4575e-22,2,9381,66.67,-5.66065e-06,1.92329e-05,-3.82832e-08,2.00486e-05,113.5,165.52,-172.29,1.14581e+06,531250,-1.38689e-07,2.94551e-07,-7.70792e-08,0.0021714,0.0310835,-4.77884e-05,0.0312225,3,3169
12,3.50963e-22,2,9382,66.67,-5.8027e-06,1.91009e-05,-3.6603e-08,1.99629e-05,114,165.52,-172.29,500000,500000,-1.35994e-07,2.81369e-07,-7.34823e-08,0.00239087,0.0275956,6.48025e-05,0.027041,3,3170
12,3.50963e-22,2,9383,66.67,-5.93264e-06,1.89974e-05,-3.68987e-08,1.99023e-05,114,165.52,-172.29,500000,500000,-1.2781e-07,2.68443e-07,-7.34541e-08,0.00223744,0.0259488,-0.000105666,0.0252247,3,3171
12,3.50963e-22,2,9384,66.67,-6.05832e-06,1.89284e-05,-3.73189e-08,1.98743e-05,114,165.52,-172.29,500000,500000,-1.27963e-07,2.69687e-07,-7.46762e-08,0.00224833,0.0257977,-1.98002e-05,0.0248747,3,3172
12,3.50963e-22,2,9385,66.67,-6.18856e-06,1.88916e-05,-3.79853e-08,1.98795e-05,114,165.52,-172.29,500000,500000,-1.33224e-07,2.76626e-07,-7.60926e-08,0.00207158,0.0260722,-8.38358e-06,0.0252652,3,3173
12,3.50963e-22,2,9386,66.67,-6.32477e-06,1.88798e-05,-3.90224e-08,1.99111e-05,114,165.52,-172.29,500000,500000,-1.38598e-07,2.84774e-07,-7.83208e-08,0.00195562,0.0265086,-0.000100351,0.0259273,3,3174
12,3.50963e-22,2,9387,66.67,-6.46576e-06,1.88868e-05,-4.09475e-08,1.9963e-05,114,165.52,-172.29,500000,500000,-1.42025e-07,2.9347e-07,-8.15479e-08,0.00213185,0.0272682,-0.000182982,0.0268019,3,3175
12,3.73126e-22,2,9388,66.67,-6.60882e-06,1.89111e-05,-4.33306e-08,2.00326e-05,114.438,165.52,-172.29,1.14581e+06,531250,-1.30426e-07,2.93061e-07,-8.55136e-08,0.00233161,0.0299725,0.000332695,0.0299879,3,3176
12,4.61777e-22,2,9389,66.67,-6.72661e-06,1.89768e-05,-4.82478e-08,2.01338e-05,116.188,165.52,-172.29,3.72906e+06,656250,-8.38037e-08,2.72508e-07,-9.74506e-08,0.00243414,0.0367928,0.00112247,0.0373481,3,3177
12,5.94754e-22,1,9390,9.52004,-6.77643e-06,1.9097e-05,-5.75742e-08,2.02637e-05,118.812,63.66,-15.5,7.60394e+06,843750,-2.18278e-08,2.39761e-07,-1.16422e-07,0.0024802,0.0442233,0.000939238,0.0444856,2,6211
12,6.83405e-22,1,9391,9.52004,-6.77026e-06,1.92072e-05,-6.21366e-08,2.03655e-05,120.562,63.66,-15.5,1.01872e+07,968750,1.14106e-08,2.09294e-07,-1.2342e-07,0.00209947,0.0454261,9.37645e-05,0.0451615,2,6212
12,7.05568e-22,1,9392,9.52004,-6.75361e-06,1.92593e-05,-5.68072e-08,2.04092e-05,121,63.66,-15.5,1.0833e+07,1e+06,1.37573e-08,1.86543e-07,-1.13147e-07,0.00145626,0.0417898,-4.48705e-05,0.0412748,2,6213
12,7.05568e-22,1,9393,9.52003,-6.74275e-06,1.92787e-05,-4.8646e-08,2.04239e-05,121,63.66,-15.5,1.0833e+07,1e+06,9.42022e-09,1.63177e-07,-9.75725e-08,0.000799965,0.0364504,-6.10306e-05,0.0361551,2,6214
12,7.05673e-22,1,9394,153.16,-1.04729e-08,1.97202e-05,-2.95645e-08,1.97202e-05,9,-104.67,-152.95,1.0833e+07,1e+06,-1.97366e-08,1.71264e-07,-5.87283e-08,-0.000336003,0.0452926,0.00104359,0.045069,2,6215
12,6.87778e-22,1,9395,153.16,-2.90003e-08,1.97356e-05,-3.12349e-08,1.97356e-05,8.875,-104.67,-152.95,1.01872e+07,968750,-1.76229e-08,1.66649e-07,-6.33756e-08,-0.00039693,0.0425014,-0.000108926,0.042856,2,6216
12,5.98306e-22,1,9396,153.16,-4.57186e-08,1.97463e-05,-3.65529e-08,1.97463e-05,8.25,-104.67,-152.95,6.95812e+06,812500,-2.46495e-08,1.85288e-07,-7.28938e-08,0.000234804,0.0413518,-0.000662202,0.0418364,2,6217
12,4.73046e-22,2,9397,115.35,-7.82993e-08,1.97043e-05,-4.03364e-08,1.97045e-05,7.375,-67.69,60.87,2.43744e+06,593750,-4.11367e-08,2.16227e-07,-8.03441e-08,0.0011047,0.0402149,-0.000320882,0.0401134,3,3178
12,4.19363e-22,2,9398,115.35,-1.27992e-07,1.96323e-05,-4.07007e-08,1.96328e-05,7,-67.69,60.87,500000,500000,-4.99403e-08,2.28137e-07,-8.17078e-08,0.0014199,0.0388852,2.74274e-05,0.0383855,3,3179
12,4.37257e-22,2,9399,115.35,-1.7818e-07,1.95793e-05,-4.30307e-08,1.95802e-05,7.125,-67.69,60.87,1.14581e+06,531250,-4.75486e-08,2.29103e-07,-8.57148e-08,0.000890427,0.0401213,-0.000440342,0.0401636,3,3180
12,4.67969e-22,2,9400,115.35,-2.23089e-07,1.95485e-05,-4.08643e-08,1.95498e-05,11.875,-67.69,60.87,2.43744e+06,593750,-5.06776e-08,2.32912e-07,-8.1904e-08,0.00225009,0.04026,0.000330481,0.0399508,3,3181
12,4.56124e-22,2,9401,58.62,-2.79535e-07,1.95281e-05,-4.04468e-08,1.95302e-05,22.375,158.52,96.68,2.43744e+06,593750,-6.55142e-08,2.27884e-07,-8.11003e-08,0.00354518,0.0309083,0.000101421,0.0303236,3,3182
12,4.11875e-22,2,9402,58.62,-3.54118e-07,1.94855e-05,-4.22446e-08,1.94888e-05,29.625,158.52,96.68,1.14581e+06,531250,-7.82387e-08,2.18455e-07,-8.37518e-08,0.00320464,0.020983,-0.000393746,0.0201856,3,3183
12,3.92288e-22,2,9403,58.62,-4.36013e-07,1.944e-05,-4.08351e-08,1.9445e-05,31,158.52,96.68,500000,500000,-8.76459e-08,2.21736e-07,-8.16092e-08,0.00270206,0.0192925,-5.73216e-05,0.0184114,3,3184
12,3.92288e-22,2,9404,58.62,-5.29409e-07,1.94239e-05,-3.98261e-08,1.94311e-05,31,158.52,96.68,500000,500000,-9.93008e-08,2.31387e-07,-8.02747e-08,0.0018858,0.0197988,-2.73596e-05,0.019424,3,3185
12,3.92288e-22,2,9405,58.62,-6.34614e-07,1.94253e-05,-3.9981e-08,1.94357e-05,31,158.52,96.68,500000,500000,-1.09646e-07,2.41128e-07,-7.98478e-08,0.00119347,0.0203425,4.72722e-05,0.020429,3,3186
12,3.92288e-22,2,9406,58.62,-7.48702e-07,1.94383e-05,-4.06959e-08,1.94528e-05,31,158.52,96.68,500000,500000,-1.18179e-07,2.51538e-07,-8.13693e-08,0.000708859,0.0209998,2.32195e-05,0.021458,3,3187
12,3.92288e-22,2,9407,58.62,-8.70971e-07,1.94583e-05,-4.23334e-08,1.94778e-05,31,158.52,96.68,500000,500000,-1.25844e-07,2.63919e-07,-8.45513e-08,0.000452427,0.0219069,1.37456e-05,0.0224992,3,3188
12,3.92288e-22,2,9408,58.62,-1.00039e-06,1.94798e-05,-4.42261e-08,1.95055e-05,31,158.52,96.68,500000,500000,-1.30982e-07,2.74768e-07,-8.92362e-08,0.000388853,0.0226272,-0.000214053,0.0231984,3,3189
12,3.92288e-22,2,9409,58.62,-1.13293e-06,1.94995e-05,-4.63263e-08,1.95324e-05,31,158.52,96.68,500000,500000,-1.31052e-07,2.7765e-07,-9.23401e-08,0.000471025,0.0227102,-0.000501366,0.023152,3,3190
12,3.87447e-22,2,9410,58.62,-1.26249e-06,1.95118e-05,-4.5332e-08,1.95527e-05,31.5625,158.52,96.68,1.14581e+06,531250,-1.16878e-07,2.65529e-07,-9.00482e-08,0.00119705,0.0241024,-0.00044424,0.0246547,3,3191
12,3.6324e-22,2,9411,58.62,-1.36669e-06,1.94824e-05,-4.1949e-08,1.95304e-05,34.375,158.52,96.68,4.37488e+06,687500,-7.9108e-08,2.39994e-07,-8.40496e-08,0.00306757,0.0323771,-0.000357674,0.0334472,3,3192
12,3.2935e-22,1,9412,151.34,-1.42071e-06,1.94359e-05,-4.14116e-08,1.94878e-05,38.3125,-67.01,136.63,8.89556e+06,906250,-4.12839e-08,2.1772e-07,-8.24909e-08,0.00436516,0.0415553,-0.000258797,0.0420407,2,6218
12,3.14826e-22,1,9413,151.34,-1.44926e-06,1.94168e-05,-4.13257e-08,1.94709e-05,40,-67.01,136.63,1.0833e+07,1e+06,-3.12648e-08,2.10502e-07,-8.29899e-08,0.00407326,0.0436578,-2.16528e-05,0.0431197,2,6219
12,3.14826e-22,1,9414,151.34,-1.48324e-06,1.94187e-05,-4.0239e-08,1.94753e-05,40,-67.01,136.63,1.0833e+07,1e+06,-3.57729e-08,2.08774e-07,-8.06927e-08,0.00330042,0.0424566,7.26551e-08,0.0417959,2,6220
12,3.14826e-22,1,9415,151.34,-1.52081e-06,1.94407e-05,-3.91633e-08,1.95001e-05,40,-67.01,136.63,1.0833e+07,1e+06,-3.82047e-08,2.04272e-07,-7.82283e-08,0.00269251,0.0408746,-2.55485e-05,0.0401932,2,6221
12,3.14826e-22,1,9416,151.34,-1.55965e-06,1.94768e-05,-3.79665e-08,1.95391e-05,40,-67.01,136.63,1.0833e+07,1e+06,-3.92212e-08,1.99641e-07,-7.59261e-08,0.00234795,0.039507,2.81343e-05,0.038768,2,6222
12,3.14826e-22,1,9417,151.34,-1.59925e-06,1.95253e-05,-3.68646e-08,1.95907e-05,40,-67.01,136.63,1.0833e+07,1e+06,-3.95934e-08,1.94358e-07,-7.37499e-08,0.00210857,0.0380106,3.97936e-05,0.0372187,2,6223
12,3.14826e-22,1,9418,151.34,-1.63884e-06,1.95858e-05,-3.59924e-08,1.96543e-05,40,-67.01,136.63,1.0833e+07,1e+06,-3.94857e-08,1.88165e-07,-7.18113e-08,0.00190901,0.0362517,-5.72652e-05,0.0354746,2,6224
12,3.62628e-22,1,9419,151.34,-1.67822e-06,1.96585e-05,-3.32679e-08,1.973e-05,42.25,-67.01,136.63,1.0833e+07,1e+06,-4.21964e-08,1.81312e-07,-6.66518e-08,0.00187989,0.0339113,0.000128807,0.0330388,2,6225
12,4.63834e-22,1,9420,72.45,-1.72323e-06,1.9719e-05,-3.06073e-08,1.97942e-05,47.375,-130,-165.58,1.01872e+07,968750,-4.62775e-08,1.79468e-07,-6.16288e-08,0.00264111,0.032339,0.000185623,0.0312288,2,6226
12,5.22841e-22,1,9421,72.45,-1.77077e-06,1.97474e-05,-3.02351e-08,1.98267e-05,50.875,-130,-165.58,8.89556e+06,906250,-4.59572e-08,1.75443e-07,-6.02643e-08,0.00297394,0.0308748,-0.0004243,0.0300802,2,6227
12,5.28444e-22,1,9422,72.45,-1.81514e-06,1.97579e-05,-2.95058e-08,1.98411e-05,51.5,-130,-165.58,8.24975e+06,875000,-4.48171e-08,1.66587e-07,-5.8417e-08,0.00232014,0.0288992,-0.000888939,0.0287047,2,6228
12,5.38775e-22,1,9423,72.45,-1.86041e-06,1.97615e-05,-2.64417e-08,1.98489e-05,51.625,-130,-165.58,8.89556e+06,906250,-4.71129e-08,1.61076e-07,-5.30377e-08,0.00196195,0.0277348,-0.000277105,0.0272897,2,6229
12,5.49106e-22,1,9424,72.45,-1.90937e-06,1.97647e-05,-2.47349e-08,1.98567e-05,51.75,-130,-165.58,9.54138e+06,937500,-4.89946e-08,1.60707e-07,-5.0164e-08,0.0019733,0.0276842,0.000275548,0.026822,2,6230
12,5.38775e-22,1,9425,72.45,-1.9584e-06,1.97666e-05,-2.65811e-08,1.98634e-05,51.625,-130,-165.58,8.89556e+06,906250,-4.81313e-08,1.62019e-07,-5.29729e-08,0.00170049,0.0279554,-0.000251057,0.0275651,2,6231
12,5.28444e-22,1,9426,72.45,-2.00563e-06,1.97628e-05,-2.75327e-08,1.98644e-05,51.5,-130,-165.58,8.24975e+06,875000,-4.83404e-08,1.61681e-07,-5.47246e-08,0.00112269,0.0277175,-0.000728758,0.0279295,2,6232
12,5.28444e-22,1,9427,72.45,-2.05508e-06,1.97568e-05,-2.73666e-08,1.98634e-05,51.5,-130,-165.58,8.24975e+06,875000,-5.06581e-08,1.62677e-07,-5.48377e-08,0.000637883,0.0276193,-0.000785146,0.0281073,2,6233
12,5.28444e-22,1,9428,72.45,-2.10695e-06,1.97491e-05,-2.75534e-08,1.98612e-05,51.5,-130,-165.58,8.24975e+06,875000,-5.28201e-08,1.64404e-07,-5.50887e-08,0.000223958,0.0277025,-0.000770953,0.028432,2,6234
12,5.28444e-22,1,9429,72.45,-2.16072e-06,1.97391e-05,-2.79847e-08,1.9857e-05,51.5,-130,-165.58,8.24975e+06,875000,-5.44009e-08,1.66372e-07,-5.59405e-08,-7.84241e-05,0.0278443,-0.000819273,0.0288091,2,6235
12,5.28444e-22,1,9430,72.45,-2.21575e-06,1.9725e-05,-2.83248e-08,1.98491e-05,51.5,-130,-165.58,8.24975e+06,875000,-5.5352e-08,1.6727e-07,-5.66729e-08,-0.000343304,0.027809,-0.000897482,0.0290093,2,6236
12,5.28444e-22,1,9431,72.45,-2.27142e-06,1.97005e-05,-2.7771e-08,1.9831e-05,51.5,-130,-165.58,8.24975e+06,875000,-5.56621e-08,1.66114e-07,-5.54525e-08,-0.00052489,0.0276856,-0.000772008,0.028918,2,6237
12,5.36894e-22,1,9432,72.45,-2.32707e-06,1.96498e-05,-2.62742e-08,1.97871e-05,52.625,-130,-165.58,8.24975e+06,875000,-5.51772e-08,1.59831e-07,-5.25278e-08,-0.000943706,0.026732,-0.000847974,0.028449,2,6238
12,5.88349e-22,1,9433,72.45,-2.38178e-06,1.95821e-05,-2.486e-08,1.97265e-05,55.5,-130,-165.58,8.24975e+06,875000,-4.9341e-08,1.5226e-07,-5.02793e-08,-0.000869824,0.0263694,-0.000643654,0.0283059,2,6239
12,5.93038e-22,1,9434,113.67,-2.42576e-06,1.95265e-05,-2.7627e-08,1.96767e-05,58.625,-67.11,135.77,6.95813e+06,812500,-4.682e-08,1.54889e-07,-5.50867e-08,-0.000649927,0.0265635,-0.00152872,0.0292495,2,6240
12,4.81854e-22,2,9435,118.11,-2.47542e-06,1.94936e-05,-2.88108e-08,1.96502e-05,60.75,-110.21,-171.13,4.37488e+06,687500,-5.96006e-08,1.70807e-07,-5.72377e-08,-0.000143475,0.0255351,-0.00195672,0.028093,3,3193
12,3.7255e-22,2,9436,118.11,-2.54496e-06,1.94832e-05,-2.72232e-08,1.96487e-05,61.875,-110.21,-171.13,2.43744e+06,593750,-7.71067e-08,1.87655e-07,-5.41658e-08,0.000373329,0.0245636,-0.00121248,0.0260276,3,3194
12,2.9968e-22,2,9437,118.11,-2.62963e-06,1.94905e-05,-2.48612e-08,1.96671e-05,62.625,-110.21,-171.13,1.14581e+06,531250,-9.31076e-08,1.98456e-07,-4.97364e-08,0.000338786,0.0233789,-0.000335849,0.0239575,3,3195
12,2.65359e-22,2,9438,118.11,-2.73117e-06,1.9493e-05,-2.3176e-08,1.96834e-05,63.5625,-110.21,-171.13,1.14581e+06,531250,-1.00261e-07,2.01348e-07,-4.6977e-08,-0.000174734,0.0228514,0.000217245,0.0231633,3,3196
12,2.73812e-22,2,9439,118.11,-2.83015e-06,1.94799e-05,-2.63101e-08,1.96844e-05,65.8125,-110.21,-171.13,3.72906e+06,656250,-8.50468e-08,1.94646e-07,-5.2556e-08,-0.000145428,0.0257678,-0.000193438,0.0267691,3,3197
12,2.86492e-22,1,9440,25.38,-2.90127e-06,1.94686e-05,-2.98175e-08,1.96836e-05,69.1875,118.9,132.01,7.60394e+06,843750,-5.81557e-08,1.84919e-07,-5.95662e-08,0.00124896,0.0305667,6.41524e-06,0.0309219,2,6241
12,2.94945e-22,1,9441,25.38,-2.94646e-06,1.94607e-05,-3.13606e-08,1.96825e-05,71.4375,118.9,132.01,1.01872e+07,968750,-4.36153e-08,1.7467e-07,-6.26661e-08,0.0012795,0.0323716,-0.00011359,0.0323557,2,6242
12,3.03354e-22,1,9442,25.38,-2.9885e-06,1.94456e-05,-2.95107e-08,1.9674e-05,72.25,118.9,132.01,1.01872e+07,968750,-4.51633e-08,1.69167e-07,-5.85639e-08,0.000250428,0.0320569,-0.000225091,0.0325375,2,6243
12,3.28536e-22,1,9443,25.38,-3.03679e-06,1.94237e-05,-2.48353e-08,1.96597e-05,73.25,118.9,132.01,7.60394e+06,843750,-5.20393e-08,1.73774e-07,-4.95292e-08,0.000354325,0.0331887,0.000216055,0.0337335,2,6244
12,3.60014e-22,2,9444,46.91,-3.09257e-06,1.94095e-05,-2.00005e-08,1.96543e-05,74.5,-42.47,175.69,4.37488e+06,687500,-5.90957e-08,1.84037e-07,-4.07882e-08,0.00176872,0.0346004,0.00095116,0.0340367,3,3198
12,3.78901e-22,2,9445,46.91,-3.15498e-06,1.94001e-05,-1.94817e-08,1.9655e-05,75.25,-42.47,175.69,2.43744e+06,593750,-6.43759e-08,1.94613e-07,-3.95939e-08,0.00277508,0.0355463,0.000776635,0.034378,3,3199
12,3.91492e-22,2,9446,46.91,-3.22133e-06,1.93933e-05,-2.15651e-08,1.96591e-05,75.75,-42.47,175.69,1.14581e+06,531250,-6.87948e-08,2.0193e-07,-4.26382e-08,0.00307217,0.0355466,-0.000351301,0.0345909,3,3200
12,3.97787e-22,2,9447,46.91,-3.29257e-06,1.93877e-05,-2.19905e-08,1.96653e-05,76,-42.47,175.69,500000,500000,-7.34633e-08,2.06584e-07,-4.35123e-08,0.00304006,0.0353401,-0.000923735,0.0344728,3,3201
12,3.97787e-22,2,9448,46.91,-3.36825e-06,1.93767e-05,-2.18632e-08,1.96673e-05,76,-42.47,175.69,500000,500000,-7.69998e-08,2.10966e-07,-4.37734e-08,0.00270825,0.0359796,-0.000986994,0.0353267,3,3202
12,3.97787e-22,2,9449,46.91,-3.44657e-06,1.9368e-05,-2.20192e-08,1.96723e-05,76,-42.47,175.69,500000,500000,-7.98178e-08,2.15091e-07,-4.41103e-08,0.00253046,0.0365899,-0.00101413,0.0360347,3,3203
12,3.97787e-22,2,9450,46.91,-3.52789e-06,1.93689e-05,-2.22191e-08,1.96875e-05,76,-42.47,175.69,500000,500000,-8.33552e-08,2.19942e-07,-4.41943e-08,0.00230546,0.0372842,-0.000969331,0.0368009,3,3204
12,3.97787e-22,2,9451,46.91,-3.61328e-06,1.93909e-05,-2.18865e-08,1.97247e-05,76,-42.47,175.69,500000,500000,-8.65695e-08,2.22924e-07,-4.35666e-08,0.00206319,0.037586,-0.000863844,0.0371324,3,3205
12,3.97787e-22,2,9452,46.91,-3.70103e-06,1.94452e-05,-1.97573e-08,1.97943e-05,76,-42.47,175.69,500000,500000,-8.54826e-08,2.13873e-07,-3.9122e-08,0.00192309,0.0358554,-0.000464023,0.0352171,3,3206
12,3.96573e-22,2,9453,46.91,-3.78425e-06,1.95207e-05,-1.56634e-08,1.98841e-05,76.1875,-42.47,175.69,500000,500000,-7.73161e-08,1.92719e-07,-3.1347e-08,0.00181455,0.0327595,0.000561311,0.0317823,3,3207
12,3.90501e-22,2,9454,46.91,-3.85566e-06,1.95958e-05,-1.21555e-08,1.99715e-05,77.125,-42.47,175.69,500000,500000,-6.67384e-08,1.73211e-07,-2.55859e-08,0.00107424,0.0309927,0.00174372,0.0300935,3,3208
12,3.82e-22,2,9455,134.44,-3.91772e-06,1.96558e-05,-1.33499e-08,2.00424e-05,78.4375,-107.77,-162.59,500000,500000,-6.3473e-08,1.65453e-07,-2.73354e-08,5.03613e-05,0.0301435,0.00100748,0.0300336,3,3209
12,3.78357e-22,2,9456,134.44,-3.98261e-06,1.96901e-05,-1.47016e-08,2.00888e-05,79,-107.77,-162.59,500000,500000,-6.98255e-08,1.69408e-07,-2.85031e-08,-0.000678569,0.0302531,0.000136766,0.030713,3,3210
12,3.78357e-22,2,9457,134.44,-4.05738e-06,1.97084e-05,-1.27692e-08,2.01218e-05,79,-107.77,-162.59,500000,500000,-7.82247e-08,1.73994e-07,-2.49514e-08,-0.00145143,0.0307297,0.000323656,0.0314702,3,3211
12,3.78357e-22,2,9458,134.44,-4.13906e-06,1.97227e-05,-1.03761e-08,2.01524e-05,79,-107.77,-162.59,500000,500000,-8.01235e-08,1.71521e-07,-2.16228e-08,-0.00147536,0.0301871,0.000454277,0.030848,3,3212
12,3.60661e-22,2,9459,134.44,-4.21762e-06,1.97334e-05,-1.80779e-08,2.01791e-05,79.1875,-107.77,-162.59,500000,500000,-7.17398e-08,1.63723e-07,-3.7026e-08,-0.00266984,0.0265869,-0.000945017,0.0288382,3,3213
12,3.44645e-22,2,9460,94.89,-4.28253e-06,1.9659e-05,-3.44266e-08,2.01201e-05,81.25,-138.97,-33.48,1.79162e+06,562500,-6.20936e-08,1.86667e-07,-6.73083e-08,-0.00300656,0.028612,-0.00130395,0.0315361,3,3214
12,4.48217e-22,2,9461,94.89,-4.34181e-06,1.95247e-05,-3.27861e-08,2.00017e-05,88.6875,-138.97,-33.48,5.6665e+06,750000,-5.83807e-08,1.95768e-07,-6.42193e-08,-0.00264514,0.0361313,-0.000527262,0.0386546,3,3215
12,6.32623e-22,1,9462,121.22,-4.3993e-06,1.94682e-05,-1.95116e-08,1.99591e-05,98.125,-21.83,121.47,9.54138e+06,937500,-5.56177e-08,1.72406e-07,-3.95835e-08,-0.00352205,0.041344,-0.000308824,0.0439801,2,6245
12,7.15137e-22,1,9463,121.22,-4.45304e-06,1.94499e-05,-1.4761e-08,1.99531e-05,102,-21.83,121.47,1.0833e+07,1e+06,-5.47012e-08,1.65485e-07,-3.02518e-08,-0.00397082,0.0435771,0.000313196,0.0458004,2,6246
12,7.15137e-22,1,9464,121.22,-4.5087e-06,1.94204e-05,-1.39588e-08,1.99369e-05,102,-21.83,121.47,1.0833e+07,1e+06,-5.66938e-08,1.62375e-07,-2.84281e-08,-0.00466133,0.0424671,0.000488383,0.0449564,2,6247
12,7.15137e-22,1,9465,121.22,-4.56643e-06,1.94057e-05,-1.35878e-08,1.99357e-05,102,-21.83,121.47,1.0833e+07,1e+06,-5.87239e-08,1.60069e-07,-2.73381e-08,-0.00533907,0.0412867,0.000737431,0.0440144,2,6248
12,7.15137e-22,1,9466,121.22,-4.62615e-06,1.94214e-05,-1.47416e-08,1.99648e-05,102,-21.83,121.47,1.0833e+07,1e+06,-6.20104e-08,1.61818e-07,-2.95471e-08,-0.00636323,0.0408122,0.000379017,0.0443801,2,6249
12,7.15137e-22,1,9467,121.22,-4.69045e-06,1.9476e-05,-1.69206e-08,2.00329e-05,102,-21.83,121.47,1.0833e+07,1e+06,-6.74077e-08,1.76042e-07,-3.34751e-08,-0.00704165,0.043992,0.000305731,0.0480254,2,6250
12,7.15137e-22,1,9468,121.22,-4.76096e-06,1.95505e-05,-1.80999e-08,2.01219e-05,102,-21.83,121.47,1.0833e+07,1e+06,-7.09477e-08,1.88495e-07,-3.60278e-08,-0.00718007,0.0472622,0.000326682,0.0512934,2,6251
12,7.15137e-22,1,9469,121.22,-4.83235e-06,1.96194e-05,-1.82535e-08,2.02058e-05,102,-21.83,121.47,1.0833e+07,1e+06,-6.92624e-08,1.87246e-07,-3.65633e-08,-0.00686065,0.047122,9.82273e-05,0.0509953,2,6252
12,7.15137e-22,1,9470,121.22,-4.89949e-06,1.9677e-05,-1.82147e-08,2.02779e-05,102,-21.83,121.47,1.0833e+07,1e+06,-6.43647e-08,1.81038e-07,-3.64253e-08,-0.00601583,0.0457714,2.28957e-05,0.0491439,2,6253
12,7.15137e-22,1,9471,121.22,-4.96108e-06,1.97254e-05,-1.80718e-08,2.03397e-05,102,-21.83,121.47,1.0833e+07,1e+06,-5.87661e-08,1.73429e-07,-3.61343e-08,-0.00508096,0.0440072,1.17322e-07,0.0468424,2,6254
12,7.15137e-22,1,9472,121.22,-5.01702e-06,1.97658e-05,-1.78467e-08,2.03926e-05,102,-21.83,121.47,1.0833e+07,1e+06,-5.31171e-08,1.65273e-07,-3.56836e-08,-0.00416378,0.0420767,-6.04014e-06,0.0443963,2,6255
12,7.15137e-22,1,9473,121.22,-5.06731e-06,1.97975e-05,-1.74379e-08,2.04358e-05,102,-21.83,121.47,1.0833e+07,1e+06,-4.75355e-08,1.56631e-07,-3.48863e-08,-0.00327329,0.0400665,-8.07729e-06,0.0418834,2,6256
12,7.15137e-22,1,9474,121.22,-5.11209e-06,1.98169e-05,-1.67891e-08,2.04656e-05,102,-21.83,121.47,1.0833e+07,1e+06,-4.24527e-08,1.48215e-07,-3.35807e-08,-0.00245003,0.0382402,-1.01253e-05,0.0395845,2,6257
12,7.15137e-22,1,9475,121.22,-5.15222e-06,1.98176e-05,-1.60632e-08,2.04764e-05,102,-21.83,121.47,1.0833e+07,1e+06,-3.88515e-08,1.4262e-07,-3.20941e-08,-0.0017734,0.037313,-1.06879e-05,0.0382999,2,6258
12,7.15137e-22,1,9476,121.22,-5.18979e-06,1.9795e-05,-1.54897e-08,2.04641e-05,102,-21.83,121.47,1.0833e+07,1e+06,-3.76628e-08,1.42417e-07,-3.09402e-08,-0.00133232,0.0379045,1.6936e-05,0.0387747,2,6259
12,7.15137e-22,1,9477,121.22,-5.22754e-06,1.97498e-05,-1.50527e-08,2.04299e-05,102,-21.83,121.47,1.0833e+07,1e+06,-3.87054e-08,1.47178e-07,-3.0214e-08,-0.00112026,0.0397833,0.000129573,0.0407547,2,6260
12,7.15137e-22,1,9478,121.22,-5.2672e-06,1.96895e-05,-1.56938e-08,2.03819e-05,102,-21.83,121.47,1.0833e+07,1e+06,-4.2052e-08,1.5339e-07,-3.13283e-08,-0.00165983,0.0415024,-0.000182199,0.0430613,2,6261
12,6.08453e-22,1,9479,121.22,-5.31165e-06,1.96375e-05,-1.61245e-08,2.03432e-05,103.5,-21.83,121.47,1.01872e+07,968750,-5.01099e-08,1.61491e-07,-3.22155e-08,-0.00209541,0.0403791,0.00056087,0.0420324,2,6262
12,3.95085e-22,1,9480,150.43,-5.36742e-06,1.96173e-05,-2.40652e-08,2.03383e-05,106.5,-62.91,143.24,8.89556e+06,906250,-6.0186e-08,1.7753e-07,-4.83293e-08,-0.00247228,0.0353134,-0.00019673,0.0378518,2,6263
12,2.98828e-22,1,9481,150.43,-5.43202e-06,1.95951e-05,-3.26e-08,2.03341e-05,109,-62.91,143.24,6.95812e+06,812500,-7.96552e-08,2.07468e-07,-6.53159e-08,-0.00269949,0.0326543,-0.00165632,0.0365854,2,6264
12,3.24895e-22,2,9482,66.67,-5.52673e-06,1.95121e-05,-3.20133e-08,2.02798e-05,111.5,165.52,-172.29,3.72906e+06,656250,-1.1486e-07,2.46194e-07,-6.37647e-08,-0.00120642,0.0313029,-0.000586183,0.0341789,3,3216
12,3.4575e-22,2,9483,66.67,-5.66174e-06,1.93778e-05,-2.96438e-08,2.0188e-05,113.5,165.52,-172.29,1.14581e+06,531250,-1.3924e-07,2.61055e-07,-5.91269e-08,3.55252e-06,0.0264988,-9.07178e-05,0.0278309,3,3217
12,3.50963e-22,2,9484,66.67,-5.80521e-06,1.92611e-05,-2.90705e-08,2.01169e-05,114,165.52,-172.29,500000,500000,-1.42215e-07,2.58325e-07,-5.83114e-08,0.00029827,0.0239546,-9.29131e-05,0.0243702,3,3218
12,3.50963e-22,2,9485,66.67,-5.94617e-06,1.91951e-05,-3.13371e-08,2.0095e-05,114,165.52,-172.29,500000,500000,-1.4178e-07,2.64372e-07,-6.26528e-08,0.000645775,0.0243911,1.74931e-05,0.0242213,3,3219
12,3.50963e-22,2,9486,66.67,-6.08878e-06,1.91663e-05,-3.36218e-08,2.01102e-05,114,165.52,-172.29,500000,500000,-1.44275e-07,2.73302e-07,-6.72599e-08,0.000802575,0.025035,-1.87021e-05,0.0248313,3,3220
12,3.50963e-22,2,9487,66.67,-6.23472e-06,1.91639e-05,-3.57233e-08,2.01527e-05,114,165.52,-172.29,500000,500000,-1.47905e-07,2.83745e-07,-7.1521e-08,0.000982309,0.0259262,-2.28955e-05,0.0257515,3,3221
12,3.50963e-22,2,9488,66.67,-6.38458e-06,1.91815e-05,-3.79423e-08,2.02162e-05,114,165.52,-172.29,500000,500000,-1.5094e-07,2.95493e-07,-7.62251e-08,0.00140084,0.0271259,3.42672e-05,0.0268389,3,3222
12,3.50963e-22,2,9489,66.67,-6.5366e-06,1.92185e-05,-4.15339e-08,2.02998e-05,114,165.52,-172.29,500000,500000,-1.50138e-07,3.08565e-07,-8.29739e-08,0.0023821,0.0288534,0.000303988,0.0282637,3,3223
12,3.95289e-22,2,9490,66.67,-6.68486e-06,1.9287e-05,-5.27231e-08,2.04127e-05,114.875,165.52,-172.29,1.79162e+06,562500,-1.21469e-07,3.14268e-07,-1.05011e-07,0.00239073,0.0354773,-0.000277398,0.0362813,3,3224
12,5.28265e-22,2,9491,66.67,-6.77954e-06,1.93714e-05,-6.51592e-08,2.05236e-05,117.5,165.52,-172.29,5.6665e+06,750000,-5.24469e-08,2.79943e-07,-1.30248e-07,0.00115015,0.0445506,-0.00127945,0.0470874,3,3225
12,6.61242e-22,1,9492,9.52005,-6.78975e-06,1.94266e-05,-6.62408e-08,2.0579e-05,120.125,63.66,-15.5,9.54138e+06,937500,5.82353e-09,2.22375e-07,-1.32349e-07,0.00153237,0.0461118,-0.00110063,0.047241,2,6265
12,7.05568e-22,1,9493,9.52004,-6.76789e-06,1.94468e-05,-5.91188e-08,2.05909e-05,121,63.66,-15.5,1.0833e+07,1e+06,1.81451e-08,1.89905e-07,-1.18182e-07,0.00213502,0.0426019,-0.000189618,0.0419643,2,6266
12,7.05568e-22,1,9494,9.52003,-6.75346e-06,1.94424e-05,-5.02886e-08,2.0582e-05,121,63.66,-15.5,1.0833e+07,1e+06,1.20764e-08,1.66922e-07,-1.00948e-07,0.00123584,0.0374378,1.59131e-05,0.036974,2,6267
12,7.05673e-22,1,9495,153.16,-1.30463e-08,1.98899e-05,-2.85834e-08,1.989e-05,9,-104.67,-152.95,1.0833e+07,1e+06,-2.53539e-08,1.68693e-07,-5.69819e-08,-0.00200282,0.0442856,0.000524166,0.0451661,2,6268
12,7.05673e-22,1,9496,153.16,-3.76615e-08,1.98986e-05,-2.90007e-08,1.98987e-05,9,-104.67,-152.95,1.0833e+07,1e+06,-2.36459e-08,1.63984e-07,-5.81524e-08,-0.00206097,0.04272,8.02542e-05,0.0437799,2,6269
12,6.5199e-22,1,9497,153.16,-6.03382e-08,1.99197e-05,-3.05717e-08,1.99198e-05,8.625,-104.67,-152.95,8.89556e+06,906250,-2.94644e-08,1.6869e-07,-6.15053e-08,-0.00231272,0.0405067,-0.000585358,0.0421748,2,6270
12,5.26729e-22,2,9498,115.35,-9.65903e-08,1.99143e-05,-3.50111e-08,1.99146e-05,7.75,-67.69,60.87,4.37488e+06,687500,-4.77581e-08,1.97598e-07,-6.96905e-08,-0.0022269,0.0389887,-0.00101251,0.0409321,3,3226
12,4.55151e-22,2,9499,115.35,-1.55854e-07,1.98627e-05,-3.5886e-08,1.98634e-05,7.25,-67.69,60.87,1.79162e+06,562500,-6.029e-08,2.19222e-07,-7.12935e-08,-0.0015772,0.0391031,-0.000150789,0.0402777,3,3227
12,5.08835e-22,2,9500,115.35,-2.1717e-07,1.98058e-05,-3.57087e-08,1.9807e-05,7.625,-67.69,60.87,3.72906e+06,656250,-4.9645e-08,2.14596e-07,-7.14347e-08,-0.0010902,0.0421202,0.00043019,0.0427685,3,3228
12,5.96614e-22,1,9501,153.16,-2.55144e-07,1.97618e-05,-3.35895e-08,1.97635e-05,9.75,-104.67,-152.95,6.95813e+06,812500,-2.95677e-08,1.91414e-07,-6.66774e-08,0.000810986,0.0419423,0.000886459,0.0415705,2,6271
12,5.65221e-22,1,9502,153.16,-2.76306e-07,1.97235e-05,-2.83286e-08,1.97255e-05,16.1875,-104.67,-152.95,6.31231e+06,781250,-3.49989e-08,1.6738e-07,-5.78981e-08,0.00186754,0.0315385,0.000658774,0.0312472,2,6272
12,4.40971e-22,2,9503,58.62,-3.25142e-07,1.96827e-05,-2.80954e-08,1.96854e-05,25,158.52,96.68,2.43744e+06,593750,-6.86243e-08,1.80519e-07,-5.76878e-08,0.00141824,0.0212961,0.000966489,0.0214691,3,3229
12,3.8725e-22,2,9504,58.62,-4.13554e-07,1.96561e-05,-3.51939e-08,1.96605e-05,30.0625,158.52,96.68,500000,500000,-9.64599e-08,2.11639e-07,-6.86294e-08,0.000686683,0.0183332,0.000438002,0.0187217,3,3230
12,3.92288e-22,2,9505,58.62,-5.18062e-07,1.96539e-05,-3.87257e-08,1.96607e-05,31,158.52,96.68,500000,500000,-1.086e-07,2.2926e-07,-7.70654e-08,4.01059e-05,0.0187273,-0.000545,0.0195699,3,3231
12,3.92288e-22,2,9506,58.62,-6.30755e-07,1.96654e-05,-3.84962e-08,1.96755e-05,31,158.52,96.68,500000,500000,-1.16116e-07,2.40038e-07,-7.74937e-08,-1.36793e-05,0.0196721,-0.000251398,0.0205924,3,3232
12,3.92288e-22,2,9507,58.62,-7.50295e-07,1.96891e-05,-3.95137e-08,1.97034e-05,31,158.52,96.68,500000,500000,-1.22964e-07,2.50912e-07,-7.94089e-08,-5.1812e-05,0.0205478,-0.000206535,0.0215944,3,3233
12,3.92288e-22,2,9508,58.62,-8.76683e-07,1.97237e-05,-4.21528e-08,1.97432e-05,31,158.52,96.68,500000,500000,-1.30453e-07,2.65119e-07,-8.47319e-08,-0.000170625,0.0215541,-0.000510957,0.0227818,3,3234
12,3.92288e-22,2,9509,58.62,-1.0112e-06,1.97587e-05,-4.60199e-08,1.97847e-05,31,158.52,96.68,500000,500000,-1.35235e-07,2.77016e-07,-9.06977e-08,-0.000247262,0.0224239,-0.000823673,0.0236981,3,3235
12,3.87447e-22,2,9510,58.62,-1.14715e-06,1.97788e-05,-4.41175e-08,1.98121e-05,31.5625,158.52,96.68,1.14581e+06,531250,-1.23809e-07,2.65389e-07,-8.70718e-08,0.000160412,0.0235254,-0.000582183,0.0246744,3,3236
12,3.68081e-22,2,9511,58.62,-1.25882e-06,1.97664e-05,-3.69277e-08,1.98064e-05,33.8125,158.52,96.68,3.72906e+06,656250,-8.80217e-08,2.30308e-07,-7.51283e-08,0.0017555,0.0281492,9.19571e-05,0.0291547,3,3237
12,3.39033e-22,1,9512,151.34,-1.3232e-06,1.97107e-05,-3.58816e-08,1.97551e-05,37.1875,-67.01,136.63,7.60394e+06,843750,-4.90795e-08,2.10525e-07,-7.27685e-08,0.00412548,0.0371559,0.000717793,0.0372542,2,6273
12,3.19668e-22,1,9513,151.34,-1.35698e-06,1.96502e-05,-3.95079e-08,1.9697e-05,39.4375,-67.01,136.63,1.01872e+07,968750,-3.33428e-08,2.09078e-07,-7.84418e-08,0.00446412,0.0426143,0.000569002,0.0419982,2,6274
12,3.14826e-22,1,9514,151.34,-1.38988e-06,1.96244e-05,-4.00695e-08,1.96736e-05,40,-67.01,136.63,1.0833e+07,1e+06,-3.62977e-08,2.08514e-07,-7.99393e-08,0.00312146,0.042525,9.48793e-05,0.0420237,2,6275
12,3.14826e-22,1,9515,151.34,-1.42957e-06,1.96265e-05,-3.89142e-08,1.96786e-05,40,-67.01,136.63,1.0833e+07,1e+06,-4.19535e-08,2.08014e-07,-7.78863e-08,0.0020796,0.0415574,7.06952e-05,0.0411539,2,6276
12,3.14826e-22,1,9516,151.34,-1.47379e-06,1.96449e-05,-3.77733e-08,1.97002e-05,40,-67.01,136.63,1.0833e+07,1e+06,-4.51023e-08,2.04592e-07,-7.55701e-08,0.0012733,0.0402925,3.2665e-05,0.0401015,2,6277
12,3.14826e-22,1,9517,151.34,-1.51978e-06,1.96761e-05,-3.65737e-08,1.97347e-05,40,-67.01,136.63,1.0833e+07,1e+06,-4.60862e-08,1.99503e-07,-7.31381e-08,0.00085939,0.0389006,3.38114e-05,0.0387794,2,6278
12,3.14826e-22,1,9518,151.34,-1.56596e-06,1.97185e-05,-3.53011e-08,1.97806e-05,40,-67.01,136.63,1.0833e+07,1e+06,-4.56238e-08,1.92964e-07,-7.05845e-08,0.000697466,0.0372978,5.21819e-05,0.0371345,2,6279
12,3.14826e-22,1,9519,151.34,-1.61103e-06,1.9772e-05,-3.39195e-08,1.98375e-05,40,-67.01,136.63,1.0833e+07,1e+06,-4.38002e-08,1.84923e-07,-6.81474e-08,0.000751917,0.035396,2.58958e-05,0.0351136,2,6280
12,3.36363e-22,1,9520,151.34,-1.65356e-06,1.98366e-05,-3.26891e-08,1.99054e-05,41.375,-67.01,136.63,1.01872e+07,968750,-4.18918e-08,1.76054e-07,-6.54668e-08,0.000774278,0.0331983,-0.000229424,0.0330907,2,6281
12,3.90642e-22,1,9521,151.34,-1.69481e-06,1.98941e-05,-3.18972e-08,1.99662e-05,45.375,-67.01,136.63,7.60394e+06,843750,-4.12557e-08,1.71348e-07,-6.31861e-08,0.000769277,0.0316339,-0.00077969,0.0321005,2,6282
12,4.34591e-22,2,9522,34.52,-1.73607e-06,1.99188e-05,-3.05135e-08,1.99943e-05,49.25,1.45,143.65,4.37488e+06,687500,-4.10469e-08,1.68211e-07,-6.11249e-08,0.000388242,0.0302878,-0.00107885,0.0312762,3,3238
12,4.45797e-22,2,9523,34.52,-1.7769e-06,1.99221e-05,-2.9552e-08,2.00012e-05,50.5,1.45,143.65,3.08325e+06,625000,-4.09303e-08,1.62976e-07,-5.91516e-08,-0.00024794,0.0287885,-0.00109468,0.0300472,3,3239
12,4.66459e-22,2,9524,34.52,-1.81793e-06,1.99215e-05,-2.75781e-08,2.00043e-05,50.75,1.45,143.65,4.37488e+06,687500,-4.45121e-08,1.59716e-07,-5.51365e-08,-0.00044238,0.0280409,-0.000875074,0.0292855,3,3240
12,4.8712e-22,1,9525,72.45,-1.86593e-06,1.99247e-05,-2.63433e-08,2.00119e-05,51,-130,-165.58,5.6665e+06,750000,-4.8493e-08,1.58977e-07,-5.28729e-08,-0.000607282,0.0277721,-0.000923715,0.0292012,2,6283
12,4.66459e-22,2,9526,34.52,-1.91492e-06,1.99268e-05,-2.6974e-08,2.00186e-05,50.75,1.45,143.65,4.37488e+06,687500,-4.64578e-08,1.57957e-07,-5.3831e-08,-0.000899183,0.0276195,-0.000973603,0.0291795,3,3241
12,4.45797e-22,2,9527,34.52,-1.95884e-06,1.99216e-05,-2.71038e-08,2.00177e-05,50.5,1.45,143.65,3.08325e+06,625000,-4.44295e-08,1.56871e-07,-5.42478e-08,-0.00121584,0.0274662,-0.000864463,0.02908,3,3242
12,4.45797e-22,2,9528,34.52,-2.00378e-06,1.99166e-05,-2.74849e-08,2.00171e-05,50.5,1.45,143.65,3.08325e+06,625000,-4.51953e-08,1.5742e-07,-5.4938e-08,-0.00148892,0.0274418,-0.000985938,0.0292767,3,3243
12,4.45797e-22,2,9529,34.52,-2.04923e-06,1.99103e-05,-2.78194e-08,2.00155e-05,50.5,1.45,143.65,3.08325e+06,625000,-4.51274e-08,1.58315e-07,-5.56797e-08,-0.0015498,0.0275685,-0.000959669,0.0294378,3,3244
12,4.45797e-22,2,9530,34.52,-2.09403e-06,1.99015e-05,-2.86228e-08,2.00114e-05,50.5,1.45,143.65,3.08325e+06,625000,-4.36243e-08,1.59015e-07,-5.72949e-08,-0.00138479,0.0277007,-0.000997116,0.0295353,3,3245
12,4.45797e-22,2,9531,34.52,-2.13648e-06,1.9888e-05,-2.97534e-08,2.00024e-05,50.5,1.45,143.65,3.08325e+06,625000,-4.08314e-08,1.59319e-07,-5.95149e-08,-0.000995195,0.0277928,-0.00109407,0.0295014,3,3246
12,4.45797e-22,2,9532,34.52,-2.1757e-06,1.98639e-05,-3.00583e-08,1.99827e-05,50.5,1.45,143.65,3.08325e+06,625000,-3.83437e-08,1.60642e-07,-6.00656e-08,-0.000295895,0.0282937,-0.000934937,0.0295547,3,3247
12,4.19317e-22,2,9533,34.52,-2.21317e-06,1.98134e-05,-3.07741e-08,1.99366e-05,52.9375,1.45,143.65,3.08325e+06,625000,-4.57845e-08,1.66245e-07,-6.17433e-08,-9.23129e-05,0.027296,-0.00184018,0.0291575,3,3248
12,3.83633e-22,2,9534,118.11,-2.26727e-06,1.97486e-05,-3.02816e-08,1.98784e-05,58.125,-110.21,-171.13,3.08325e+06,625000,-6.09004e-08,1.79163e-07,-6.03702e-08,0.00077201,0.0258487,-0.0019617,0.027645,3,3249
12,3.55272e-22,2,9535,118.11,-2.33497e-06,1.97028e-05,-3.07427e-08,1.98407e-05,61.5625,-110.21,-171.13,2.43744e+06,593750,-6.93687e-08,1.93194e-07,-6.06936e-08,0.00216054,0.0258651,-0.00131724,0.0266968,3,3250
12,2.9968e-22,2,9536,118.11,-2.406e-06,1.96875e-05,-2.9679e-08,1.9834e-05,62.625,-110.21,-171.13,1.14581e+06,531250,-7.6655e-08,2.0307e-07,-5.96509e-08,0.00316827,0.0252745,-0.000375216,0.024652,3,3251
12,2.63246e-22,2,9537,118.11,-2.48828e-06,1.96908e-05,-2.70235e-08,1.98474e-05,63,-110.21,-171.13,500000,500000,-8.5001e-08,2.09181e-07,-5.50718e-08,0.00356562,0.0245739,0.000747878,0.0226625,3,3252
12,2.63246e-22,2,9538,118.11,-2.57601e-06,1.96983e-05,-2.76614e-08,1.98661e-05,63,-110.21,-171.13,500000,500000,-8.91245e-08,2.08765e-07,-5.49018e-08,0.00279148,0.0238366,0.000432809,0.0224193,3,3253
12,2.63246e-22,2,9539,118.11,-2.66653e-06,1.97005e-05,-2.72639e-08,1.98801e-05,63,-110.21,-171.13,500000,500000,-9.46485e-08,2.08751e-07,-5.39478e-08,0.00171824,0.0232137,0.000213023,0.0223673,3,3254
12,2.65359e-22,2,9540,118.11,-2.7653e-06,1.96871e-05,-2.70373e-08,1.98804e-05,63.5625,-110.21,-171.13,1.14581e+06,531250,-9.9073e-08,2.11771e-07,-5.47505e-08,0.000574825,0.0241578,-0.000214497,0.0242957,3,3255
12,2.73812e-22,2,9541,118.11,-2.86467e-06,1.96659e-05,-2.97729e-08,1.98735e-05,65.8125,-110.21,-171.13,3.72906e+06,656250,-8.57408e-08,2.09656e-07,-5.97893e-08,0.000863043,0.0281685,-0.000460449,0.0288071,3,3256
12,2.92788e-22,1,9542,25.38,-2.93678e-06,1.96389e-05,-3.13768e-08,1.98573e-05,69.4375,118.9,132.01,6.95812e+06,812500,-5.74978e-08,1.89051e-07,-6.21022e-08,0.00163719,0.0312634,-0.000595377,0.0317273,2,6284
12,3.26423e-22,1,9543,25.38,-2.97967e-06,1.96128e-05,-2.74582e-08,1.98379e-05,72.6875,118.9,132.01,6.95812e+06,812500,-4.28912e-08,1.74827e-07,-5.48397e-08,0.00243305,0.0331686,-8.48698e-05,0.0330758,2,6285
12,3.6631e-22,2,9544,46.91,-3.02257e-06,1.96007e-05,-2.28133e-08,1.98324e-05,74.75,-42.47,175.69,3.72906e+06,656250,-5.00908e-08,1.86639e-07,-4.63286e-08,0.00370854,0.0353813,0.000522777,0.034251,3,3257
12,3.91492e-22,2,9545,46.91,-3.07985e-06,1.96011e-05,-2.16083e-08,1.98416e-05,75.75,-42.47,175.69,1.14581e+06,531250,-6.28872e-08,1.98445e-07,-4.29126e-08,0.00394033,0.0352404,-4.09732e-05,0.0337116,3,3258
12,3.97787e-22,2,9546,46.91,-3.14834e-06,1.96024e-05,-2.15172e-08,1.98536e-05,76,-42.47,175.69,500000,500000,-7.17583e-08,2.05696e-07,-4.23171e-08,0.00348536,0.0353082,-0.000496112,0.0339797,3,3259
12,3.97787e-22,2,9547,46.91,-3.22337e-06,1.96005e-05,-2.01435e-08,1.98638e-05,76,-42.47,175.69,500000,500000,-7.67211e-08,2.09602e-07,-4.05925e-08,0.0031939,0.0357463,-0.000363793,0.0344843,3,3260
12,3.97787e-22,2,9548,46.91,-3.30178e-06,1.95971e-05,-1.911e-08,1.98733e-05,76,-42.47,175.69,500000,500000,-7.98316e-08,2.11395e-07,-3.85091e-08,0.00305903,0.0359566,-0.000118718,0.034635,3,3261
12,3.97787e-22,2,9549,46.91,-3.38303e-06,1.95905e-05,-1.90558e-08,1.98804e-05,76,-42.47,175.69,500000,500000,-8.29272e-08,2.1509e-07,-3.806e-08,0.00285902,0.0365211,-4.49477e-05,0.0352643,3,3262
12,3.97787e-22,2,9550,46.91,-3.46764e-06,1.9586e-05,-1.89821e-08,1.98906e-05,76,-42.47,175.69,500000,500000,-8.63304e-08,2.1881e-07,-3.79716e-08,0.00257392,0.0369988,-6.84568e-05,0.0358811,3,3263
12,3.97787e-22,2,9551,46.91,-3.55569e-06,1.95911e-05,-1.89564e-08,1.99112e-05,76,-42.47,175.69,500000,500000,-8.92413e-08,2.21846e-07,-3.79679e-08,0.00230098,0.0373476,-9.04412e-05,0.0363475,3,3264
12,3.97787e-22,2,9552,46.91,-3.64612e-06,1.96139e-05,-1.88357e-08,1.99499e-05,76,-42.47,175.69,500000,500000,-8.97723e-08,2.20888e-07,-3.77297e-08,0.00210913,0.037044,-0.000117724,0.0361268,3,3265
12,3.97787e-22,2,9553,46.91,-3.73524e-06,1.96583e-05,-1.79152e-08,2.00101e-05,76,-42.47,175.69,500000,500000,-8.61385e-08,2.1116e-07,-3.62192e-08,0.00194568,0.0353113,-0.000137721,0.0344783,3,3266
12,3.97787e-22,2,9554,46.91,-3.8184e-06,1.97154e-05,-1.78883e-08,2.00818e-05,76,-42.47,175.69,500000,500000,-7.79126e-08,1.95097e-07,-3.57863e-08,0.00192566,0.0325872,-0.000488481,0.0319774,3,3267
12,3.9293e-22,2,9555,46.91,-3.89106e-06,1.97714e-05,-1.76474e-08,2.01507e-05,76.75,-42.47,175.69,500000,500000,-6.6117e-08,1.78272e-07,-3.47909e-08,0.00132814,0.0310898,-7.96785e-05,0.0308204,3,3268
12,3.83214e-22,2,9556,134.44,-3.95063e-06,1.98216e-05,-1.86027e-08,2.02114e-05,78.25,-107.77,-162.59,500000,500000,-5.72777e-08,1.68152e-07,-3.66453e-08,0.000868981,0.0304901,-0.000331184,0.0305409,3,3269
12,3.78357e-22,2,9557,134.44,-4.00562e-06,1.98582e-05,-1.81761e-08,2.02581e-05,79,-107.77,-162.59,500000,500000,-5.80098e-08,1.67623e-07,-3.66261e-08,0.000912619,0.030275,-0.000678921,0.0302357,3,3270
12,3.78357e-22,2,9558,134.44,-4.06665e-06,1.98798e-05,-1.55647e-08,2.02915e-05,79,-107.77,-162.59,500000,500000,-6.36205e-08,1.68954e-07,-3.17377e-08,0.00038269,0.0304537,-7.34358e-05,0.0303784,3,3271
12,3.78357e-22,2,9559,134.44,-4.13286e-06,1.98915e-05,-1.45152e-08,2.03163e-05,79,-107.77,-162.59,500000,500000,-6.51128e-08,1.65078e-07,-2.81786e-08,0.000144306,0.0297165,0.000146074,0.0296422,3,3272
12,3.64887e-22,2,9560,134.44,-4.19688e-06,1.98916e-05,-1.61243e-08,2.03296e-05,79.375,-107.77,-162.59,1.14581e+06,531250,-6.05947e-08,1.54378e-07,-3.23477e-08,-0.000761176,0.027203,-0.000399581,0.0281874,3,3273
12,3.22807e-22,2,9561,134.44,-4.25405e-06,1.98408e-05,-2.4891e-08,2.02918e-05,80.75,-107.77,-162.59,3.72906e+06,656250,-5.62821e-08,1.70262e-07,-5.07661e-08,-0.000514715,0.0289241,-0.000350341,0.0301968,3,3274
12,3.63241e-22,1,9562,25.92,-4.30944e-06,1.97267e-05,-2.98428e-08,2.0192e-05,86,124.52,-51.58,7.60394e+06,843750,-5.17476e-08,1.9684e-07,-5.92733e-08,0.00210466,0.037625,0.000779578,0.0371807,2,6286
12,5.21457e-22,1,9563,121.22,-4.35754e-06,1.96469e-05,-2.54216e-08,2.01244e-05,93.9375,-21.83,121.47,9.54138e+06,937500,-4.41653e-08,1.92703e-07,-5.02938e-08,0.00275083,0.0436455,0.00117425,0.0425058,2,6287
12,6.15611e-22,1,9564,121.22,-4.39777e-06,1.96147e-05,-2.43112e-08,2.01017e-05,97.6875,-21.83,121.47,8.89556e+06,906250,-4.4735e-08,1.86815e-07,-4.81391e-08,0.000202266,0.0435478,0.000658274,0.0435931,2,6288
12,6.20595e-22,1,9565,121.22,-4.44701e-06,1.95827e-05,-2.39851e-08,2.00813e-05,97.75,-21.83,121.47,8.24975e+06,875000,-5.60414e-08,1.87774e-07,-4.84013e-08,-0.0033257,0.0418366,0.000183691,0.0438566,2,6289
12,6.20595e-22,1,9566,121.22,-4.50985e-06,1.95649e-05,-2.03365e-08,2.0078e-05,97.75,-21.83,121.47,8.24975e+06,875000,-6.7685e-08,1.82963e-07,-4.17138e-08,-0.00628758,0.040096,0.000415138,0.0437776,2,6290
12,6.44231e-22,1,9567,121.22,-4.58238e-06,1.95807e-05,-1.78967e-08,2.01097e-05,98.8125,-21.83,121.47,8.89556e+06,906250,-7.45042e-08,1.7349e-07,-3.59428e-08,-0.00875037,0.0388418,-0.000204368,0.0444033,2,6291
12,6.91502e-22,1,9568,121.22,-4.65886e-06,1.96519e-05,-1.69767e-08,2.01966e-05,100.938,-21.83,121.47,1.01872e+07,968750,-7.59204e-08,1.79897e-07,-3.36615e-08,-0.00896231,0.0434884,2.27523e-05,0.0489526,2,6292
12,7.15137e-22,1,9569,121.22,-4.73422e-06,1.97407e-05,-1.76928e-08,2.03005e-05,102,-21.83,121.47,1.0833e+07,1e+06,-7.28684e-08,1.91118e-07,-3.50496e-08,-0.00748145,0.0482337,0.000489732,0.0523372,2,6293
12,7.15137e-22,1,9570,121.22,-4.8046e-06,1.98067e-05,-1.8387e-08,2.03811e-05,102,-21.83,121.47,1.0833e+07,1e+06,-6.66465e-08,1.86558e-07,-3.67334e-08,-0.0062394,0.0474547,1.58913e-05,0.0509179,2,6294
12,7.15137e-22,1,9571,121.22,-4.86752e-06,1.98574e-05,-1.84839e-08,2.04453e-05,102,-21.83,121.47,1.0833e+07,1e+06,-5.95794e-08,1.78982e-07,-3.69385e-08,-0.0049248,0.045824,-2.21587e-05,0.0485162,2,6295
12,7.15137e-22,1,9572,121.22,-4.92376e-06,1.98977e-05,-1.83951e-08,2.04979e-05,102,-21.83,121.47,1.0833e+07,1e+06,-5.33458e-08,1.70888e-07,-3.67781e-08,-0.00385908,0.0439237,-3.00855e-05,0.0460143,2,6296
12,7.15137e-22,1,9573,121.22,-4.97421e-06,1.993e-05,-1.81815e-08,2.05413e-05,102,-21.83,121.47,1.0833e+07,1e+06,-4.79489e-08,1.63026e-07,-3.63571e-08,-0.0029851,0.0420349,-2.87308e-05,0.0436432,2,6297
12,7.15137e-22,1,9574,121.22,-5.01966e-06,1.99537e-05,-1.78059e-08,2.05754e-05,102,-21.83,121.47,1.0833e+07,1e+06,-4.34019e-08,1.5564e-07,-3.56103e-08,-0.00227778,0.0402935,-3.14383e-05,0.0415172,2,6298
12,7.15137e-22,1,9575,121.22,-5.06101e-06,1.99659e-05,-1.72651e-08,2.05973e-05,102,-21.83,121.47,1.0833e+07,1e+06,-4.00723e-08,1.49595e-07,-3.4527e-08,-0.001762,0.038979,-4.17028e-05,0.0399298,2,6299
12,7.15137e-22,1,9576,121.22,-5.0998e-06,1.99625e-05,-1.66731e-08,2.06036e-05,102,-21.83,121.47,1.0833e+07,1e+06,-3.86787e-08,1.46642e-07,-3.33318e-08,-0.0015079,0.0385594,-5.66169e-05,0.0394145,2,6300
12,7.15137e-22,1,9577,121.22,-5.13837e-06,1.99407e-05,-1.61741e-08,2.05921e-05,102,-21.83,121.47,1.0833e+07,1e+06,-3.99191e-08,1.48178e-07,-3.23066e-08,-0.00161705,0.0393448,-7.82795e-05,0.0403835,2,6301
12,7.15137e-22,1,9578,121.22,-5.17964e-06,1.99006e-05,-1.56886e-08,2.05636e-05,102,-21.83,121.47,1.0833e+07,1e+06,-4.33758e-08,1.53725e-07,-3.13935e-08,-0.00201084,0.0411795,-3.03811e-05,0.0426056,2,6302
12,6.87163e-22,1,9579,121.22,-5.22512e-06,1.98449e-05,-1.57641e-08,2.05212e-05,102.25,-21.83,121.47,1.0833e+07,1e+06,-4.6787e-08,1.57434e-07,-3.12411e-08,-0.00258802,0.0418702,7.92005e-05,0.0437439,2,6303
12,5.47291e-22,1,9580,121.22,-5.27321e-06,1.97942e-05,-1.68665e-08,2.04846e-05,103.5,-21.83,121.47,1.0833e+07,1e+06,-4.77929e-08,1.59911e-07,-3.35237e-08,-0.00236618,0.0402017,0.00112373,0.0416319,2,6304
12,3.5147e-22,1,9581,150.43,-5.32071e-06,1.97744e-05,-2.11267e-08,2.04777e-05,105.25,-62.91,143.24,1.0833e+07,1e+06,-4.69583e-08,1.6078e-07,-4.27218e-08,-0.0021647,0.0363515,0.00105727,0.0376864,2,6305
12,2.7276e-22,1,9582,150.43,-5.36713e-06,1.97659e-05,-2.4772e-08,2.04817e-05,106.5,-62.91,143.24,1.01872e+07,968750,-5.23802e-08,1.63871e-07,-5.01428e-08,-0.00298955,0.0333833,-0.000289598,0.0361187,2,6306
12,2.98828e-22,1,9583,150.43,-5.42547e-06,1.97252e-05,-2.38671e-08,2.04578e-05,109,-62.91,143.24,6.95812e+06,812500,-8.3394e-08,1.90738e-07,-4.75246e-08,-0.00283395,0.0310716,4.26838e-05,0.034342,2,6307
12,3.35323e-22,2,9584,66.67,-5.53392e-06,1.9623e-05,-2.08286e-08,2.03884e-05,112.5,165.52,-172.29,2.43744e+06,593750,-1.30706e-07,2.25911e-07,-4.13759e-08,-0.0019473,0.0252882,0.00041977,0.0278084,3,3275
12,3.50963e-22,2,9585,66.67,-5.68688e-06,1.95141e-05,-2.06928e-08,2.03259e-05,114,165.52,-172.29,500000,500000,-1.55679e-07,2.46095e-07,-4.15336e-08,-0.00160637,0.0219339,0.000105367,0.0235042,3,3276
12,3.50963e-22,2,9586,66.67,-5.84528e-06,1.94571e-05,-2.4749e-08,2.03162e-05,114,165.52,-172.29,500000,500000,-1.57571e-07,2.58962e-07,-4.94204e-08,-0.00120298,0.0229413,-1.44749e-05,0.0237921,3,3277
12,3.50963e-22,2,9587,66.67,-6.00202e-06,1.94382e-05,-2.87659e-08,2.03438e-05,114,165.52,-172.29,500000,500000,-1.56682e-07,2.69882e-07,-5.74472e-08,-0.000611088,0.0240012,-8.53345e-05,0.0245222,3,3278
12,3.50963e-22,2,9588,66.67,-6.15864e-06,1.94473e-05,-3.19153e-08,2.03992e-05,114,165.52,-172.29,500000,500000,-1.58737e-07,2.8178e-07,-6.36549e-08,-0.000208168,0.0251206,-8.81073e-05,0.0255218,3,3279
12,3.50963e-22,2,9589,66.67,-6.31949e-06,1.94778e-05,-3.38166e-08,2.04774e-05,114,165.52,-172.29,500000,500000,-1.64964e-07,2.96324e-07,-6.74846e-08,4.17096e-05,0.0265278,0.000130548,0.0267984,3,3280
12,3.50963e-22,2,9590,66.67,-6.48857e-06,1.95282e-05,-3.5281e-08,2.0578e-05,114,165.52,-172.29,500000,500000,-1.65722e-07,3.10497e-07,-7.17255e-08,0.00112471,0.0284893,0.000921176,0.0281012,3,3281
12,4.17451e-22,2,9591,66.67,-6.65094e-06,1.96053e-05,-5.01569e-08,2.07028e-05,115.312,165.52,-172.29,2.43744e+06,593750,-1.23869e-07,3.05161e-07,-1.00141e-07,0.000723352,0.0355954,-0.00038759,0.0371345,3,3282
12,5.72591e-22,1,9592,9.52004,-6.73631e-06,1.96569e-05,-6.65968e-08,2.07792e-05,118.375,63.66,-15.5,6.95812e+06,812500,-4.42404e-08,2.62937e-07,-1.31679e-07,-0.0008878,0.044746,-0.00229265,0.0481528,2,6308
12,6.83405e-22,1,9593,9.52004,-6.73942e-06,1.96519e-05,-6.56517e-08,2.07755e-05,120.562,63.66,-15.5,1.01872e+07,968750,5.18063e-09,2.18239e-07,-1.31685e-07,-0.000296092,0.0468634,-0.00146002,0.0485026,2,6309
12,7.05568e-22,1,9594,9.52004,-6.72594e-06,1.96391e-05,-5.92531e-08,2.0759e-05,121,63.66,-15.5,1.0833e+07,1e+06,1.23824e-08,1.96122e-07,-1.18927e-07,0.000616087,0.0440815,-0.000294107,0.0442917,2,6310
12,7.05568e-22,1,9595,9.52004,-6.71465e-06,1.96125e-05,-5.27172e-08,2.07302e-05,121,63.66,-15.5,1.0833e+07,1e+06,1.02329e-08,1.7608e-07,-1.0546e-07,0.000573727,0.03957,-6.50949e-05,0.0395328,2,6311
12,7.05673e-22,1,9596,153.16,-1.52292e-08,2.00576e-05,-2.73872e-08,2.00576e-05,9,-104.67,-152.95,1.0833e+07,1e+06,-3.04033e-08,1.6692e-07,-5.47692e-08,-0.00337016,0.0435943,0.000297682,0.0453137,2,6312
12,7.05673e-22,1,9597,153.16,-4.55774e-08,2.00636e-05,-2.8031e-08,2.00636e-05,9,-104.67,-152.95,1.0833e+07,1e+06,-3.09759e-08,1.64913e-07,-5.56843e-08,-0.0038066,0.042735,-0.000138728,0.044835,2,6313
12,6.87778e-22,1,9598,153.16,-7.7181e-08,2.00836e-05,-2.61268e-08,2.00838e-05,8.875,-104.67,-152.95,1.01872e+07,968750,-3.36082e-08,1.60805e-07,-5.27103e-08,-0.00406588,0.0406482,-3.09116e-05,0.0429287,2,6314
12,6.16201e-22,1,9599,153.16,-1.12794e-07,2.00995e-05,-2.85985e-08,2.00998e-05,8.375,-104.67,-152.95,7.60394e+06,843750,-4.17575e-08,1.70555e-07,-5.71117e-08,-0.00408655,0.0383589,-0.000717113,0.0411042,2,6315
12,5.62518e-22,2,9600,115.35,-1.60696e-07,2.00707e-05,-3.00139e-08,2.00714e-05,8,-67.69,60.87,5.6665e+06,750000,-4.64381e-08,1.88139e-07,-5.98524e-08,-0.00279208,0.0397393,0.00024253,0.0414075,3,3283
12,6.16201e-22,1,9601,153.16,-2.0567e-07,2.00085e-05,-3.11869e-08,2.00096e-05,8.375,-104.67,-152.95,7.60394e+06,843750,-3.45897e-08,1.89902e-07,-6.2594e-08,-0.00150139,0.0440725,0.00112171,0.0445805,2,6316
12,6.63154e-22,1,9602,153.16,-2.29875e-07,1.99313e-05,-3.28343e-08,1.99327e-05,9.3125,-104.67,-152.95,9.54138e+06,937500,-2.27097e-08,1.7438e-07,-6.54199e-08,-0.000863311,0.0422292,0.000435637,0.0426458,2,6317
12,5.62963e-22,1,9603,153.16,-2.5109e-07,1.98629e-05,-3.04617e-08,1.98645e-05,12.5625,-104.67,-152.95,6.95813e+06,812500,-3.9325e-08,1.60377e-07,-6.03732e-08,-0.00100409,0.0298649,-5.98276e-05,0.0311095,2,6318
12,4.10742e-22,2,9604,146.27,-3.08525e-07,1.98466e-05,-2.60022e-08,1.9849e-05,19.375,-117.11,-117.58,2.43744e+06,593750,-7.75877e-08,1.76263e-07,-5.31065e-08,-0.00114547,0.0200346,0.00107156,0.02206,3,3284
12,3.67097e-22,2,9605,58.62,-4.06265e-07,1.98633e-05,-2.74375e-08,1.98675e-05,26.3125,158.52,96.68,500000,500000,-1.04118e-07,2.03826e-07,-5.62424e-08,-0.00126507,0.0181077,0.00132598,0.0202878,3,3285
12,3.8725e-22,2,9606,58.62,-5.16762e-07,1.98824e-05,-3.54063e-08,1.98891e-05,30.0625,158.52,96.68,500000,500000,-1.14184e-07,2.22617e-07,-6.90304e-08,-0.00150348,0.0181966,-0.000222974,0.0202257,3,3286
12,3.92288e-22,2,9607,58.62,-6.34633e-07,1.99054e-05,-3.77762e-08,1.99156e-05,31,158.52,96.68,500000,500000,-1.22068e-07,2.37268e-07,-7.55824e-08,-0.00139335,0.0187142,-0.000760453,0.0205727,3,3287
12,3.92288e-22,2,9608,58.62,-7.60898e-07,1.99402e-05,-3.80691e-08,1.99547e-05,31,158.52,96.68,500000,500000,-1.30658e-07,2.49066e-07,-7.63548e-08,-0.00148867,0.0196598,-0.000592812,0.0217439,3,3288
12,3.87447e-22,2,9609,58.62,-8.95949e-07,1.99885e-05,-3.76303e-08,2.00086e-05,31.5625,158.52,96.68,1.14581e+06,531250,-1.32543e-07,2.53362e-07,-7.4518e-08,-0.00184818,0.0218319,-0.000401881,0.0243885,3,3289
12,3.77764e-22,2,9610,58.62,-1.02598e-06,2.00338e-05,-3.59812e-08,2.00601e-05,32.6875,158.52,96.68,2.43744e+06,593750,-1.18021e-07,2.45831e-07,-7.18571e-08,-0.00085799,0.0242969,0.000306124,0.0260534,3,3290
12,3.6324e-22,2,9611,58.62,-1.13199e-06,2.00302e-05,-3.33222e-08,2.00622e-05,34.375,158.52,96.68,4.37488e+06,687500,-8.55086e-08,2.19658e-07,-6.74368e-08,0.00144745,0.0273049,0.000734987,0.0278795,3,3291
12,3.39033e-22,1,9612,151.34,-1.197e-06,1.99725e-05,-3.24888e-08,2.00083e-05,37.1875,-67.01,136.63,7.60394e+06,843750,-4.93425e-08,1.91734e-07,-6.55619e-08,0.00308485,0.0328763,0.000421143,0.0329956,2,6319
12,3.19668e-22,1,9613,151.34,-1.23068e-06,1.99035e-05,-3.61488e-08,1.99415e-05,39.4375,-67.01,136.63,1.01872e+07,968750,-3.47046e-08,1.91772e-07,-7.15393e-08,0.00318805,0.0385423,0.000241505,0.038211,2,6320
12,3.14826e-22,1,9614,151.34,-1.26641e-06,1.98541e-05,-3.82657e-08,1.98945e-05,40,-67.01,136.63,1.0833e+07,1e+06,-4.08003e-08,2.047e-07,-7.65129e-08,0.00190445,0.0413486,6.44767e-05,0.0412924,2,6321
12,3.14826e-22,1,9615,151.34,-1.31228e-06,1.98339e-05,-3.83942e-08,1.98773e-05,40,-67.01,136.63,1.0833e+07,1e+06,-4.80243e-08,2.10145e-07,-7.69061e-08,0.000757344,0.0415458,-6.23319e-05,0.0418319,2,6322
12,3.14826e-22,1,9616,151.34,-1.36246e-06,1.98348e-05,-3.76876e-08,1.98815e-05,40,-67.01,136.63,1.0833e+07,1e+06,-5.13139e-08,2.09173e-07,-7.53254e-08,0.000127437,0.0408165,-3.23314e-05,0.0412084,2,6323
12,3.14826e-22,1,9617,151.34,-1.4149e-06,1.98498e-05,-3.65353e-08,1.99002e-05,40,-67.01,136.63,1.0833e+07,1e+06,-5.31546e-08,2.05731e-07,-7.30756e-08,-0.000383352,0.0397745,1.72006e-05,0.040288,2,6324
12,3.14826e-22,1,9618,151.34,-1.46877e-06,1.98758e-05,-3.51985e-08,1.993e-05,40,-67.01,136.63,1.0833e+07,1e+06,-5.40344e-08,2.00328e-07,-7.0402e-08,-0.000819354,0.0384136,2.48898e-05,0.0390673,2,6325
12,3.14826e-22,1,9619,151.34,-1.52297e-06,1.99112e-05,-3.36956e-08,1.99694e-05,40,-67.01,136.63,1.0833e+07,1e+06,-5.37842e-08,1.93099e-07,-6.73751e-08,-0.00111056,0.0367434,2.7407e-05,0.0374803,2,6326
12,3.14826e-22,1,9620,151.34,-1.57634e-06,1.99557e-05,-3.18872e-08,2.00179e-05,40,-67.01,136.63,1.0833e+07,1e+06,-5.23244e-08,1.83948e-07,-6.3825e-08,-0.00121445,0.0347286,9.35557e-05,0.0354357,2,6327
12,3.26032e-22,1,9621,151.34,-1.62762e-06,2.00106e-05,-2.9766e-08,2.00767e-05,41.25,-67.01,136.63,9.54138e+06,937500,-4.88497e-08,1.72668e-07,-5.95072e-08,-0.00121153,0.0324039,3.24326e-05,0.0332595,2,6328
12,3.5965e-22,2,9622,34.52,-1.67404e-06,2.00617e-05,-2.77492e-08,2.01315e-05,45,1.45,143.65,5.6665e+06,750000,-4.42896e-08,1.64532e-07,-5.53736e-08,-0.00111194,0.0305618,7.24144e-05,0.0315171,3,3292
12,3.93267e-22,2,9623,34.52,-1.7162e-06,2.00838e-05,-2.71268e-08,2.0157e-05,48.75,1.45,143.65,1.79163e+06,562500,-4.18967e-08,1.63765e-07,-5.4009e-08,-0.00118846,0.0296673,0.000503705,0.030317,3,3293
12,4.04473e-22,2,9624,34.52,-1.75783e-06,2.00839e-05,-2.69227e-08,2.01607e-05,50,1.45,143.65,500000,500000,-4.13059e-08,1.62605e-07,-5.43802e-08,-0.00146947,0.0288415,0.00060012,0.0294108,3,3294
12,4.14804e-22,2,9625,34.52,-1.79881e-06,2.00809e-05,-2.66475e-08,2.01614e-05,50.125,1.45,143.65,1.14581e+06,531250,-4.21869e-08,1.59838e-07,-5.34745e-08,-0.00146253,0.0283193,0.000215672,0.0292392,3,3295
12,4.25135e-22,2,9626,34.52,-1.8422e-06,2.00826e-05,-2.66513e-08,2.0167e-05,50.25,1.45,143.65,1.79162e+06,562500,-4.43052e-08,1.57273e-07,-5.25274e-08,-0.00178216,0.0277674,-0.000238851,0.0292857,3,3296
12,4.14804e-22,2,9627,34.52,-1.88742e-06,2.00825e-05,-2.5343e-08,2.0171e-05,50.125,1.45,143.65,1.14581e+06,531250,-4.42582e-08,1.55235e-07,-5.08762e-08,-0.00214663,0.0272935,0.000210567,0.0286429,3,3297
12,4.04473e-22,2,9628,34.52,-1.93072e-06,2.00766e-05,-2.48639e-08,2.01692e-05,50,1.45,143.65,500000,500000,-4.25629e-08,1.55213e-07,-5.00552e-08,-0.00203513,0.0273754,0.00082461,0.0282141,3,3298
12,4.04473e-22,2,9629,34.52,-1.97255e-06,2.00717e-05,-2.56838e-08,2.01684e-05,50,1.45,143.65,500000,500000,-4.08623e-08,1.55228e-07,-5.13121e-08,-0.00184535,0.0274203,0.000781586,0.0281925,3,3299
12,4.04473e-22,2,9630,34.52,-2.01244e-06,2.00657e-05,-2.6312e-08,2.01664e-05,50,1.45,143.65,500000,500000,-3.85264e-08,1.55536e-07,-5.26502e-08,-0.00148808,0.0275692,0.00082097,0.0281266,3,3300
12,4.04473e-22,2,9631,34.52,-2.0496e-06,2.00571e-05,-2.73065e-08,2.01616e-05,50,1.45,143.65,500000,500000,-3.51008e-08,1.55852e-07,-5.46566e-08,-0.000942508,0.0277389,0.000830951,0.0279923,3,3301
12,4.04473e-22,2,9632,34.52,-2.08265e-06,2.00436e-05,-2.86529e-08,2.01516e-05,50,1.45,143.65,500000,500000,-3.08564e-08,1.56252e-07,-5.72129e-08,-0.000213617,0.0279322,0.000781734,0.0278121,3,3302
12,4.04473e-22,2,9633,34.52,-2.11132e-06,2.00218e-05,-2.9177e-08,2.01328e-05,50,1.45,143.65,500000,500000,-2.77016e-08,1.58554e-07,-5.83494e-08,0.00074285,0.028599,0.000964287,0.0278809,3,3303
12,3.69166e-22,2,9634,34.52,-2.13805e-06,1.99823e-05,-3.18741e-08,2.00963e-05,53.25,1.45,143.65,500000,500000,-3.82468e-08,1.72097e-07,-6.37277e-08,0.00135081,0.0281448,-0.000184501,0.0279989,3,3304
12,2.98553e-22,2,9635,118.11,-2.18781e-06,1.99405e-05,-3.05113e-08,2.00601e-05,59.75,-110.21,-171.13,500000,500000,-6.35605e-08,1.92762e-07,-6.11337e-08,0.00250203,0.0259497,5.85821e-07,0.0251765,3,3305
12,2.63246e-22,2,9636,118.11,-2.26517e-06,1.99129e-05,-2.84187e-08,2.00414e-05,63,-110.21,-171.13,500000,500000,-7.90044e-08,2.05797e-07,-5.74954e-08,0.00343259,0.0247684,0.000765427,0.0228826,3,3306
12,2.63246e-22,2,9637,118.11,-2.34582e-06,1.98998e-05,-3.11937e-08,2.00376e-05,63,-110.21,-171.13,500000,500000,-8.03384e-08,2.08509e-07,-6.2067e-08,0.0033928,0.0244116,-0.000173133,0.0230709,3,3307
12,2.63246e-22,2,9638,118.11,-2.42585e-06,1.99015e-05,-3.12126e-08,2.00489e-05,63,-110.21,-171.13,500000,500000,-8.11405e-08,2.07346e-07,-6.17638e-08,0.00344657,0.0238977,-0.000407396,0.0227423,3,3308
12,2.63246e-22,2,9639,118.11,-2.5081e-06,1.9908e-05,-3.03951e-08,2.00654e-05,63,-110.21,-171.13,500000,500000,-8.35805e-08,2.06632e-07,-6.1024e-08,0.00309092,0.0234569,-0.000620209,0.022621,3,3309
12,2.63246e-22,2,9640,118.11,-2.59301e-06,1.99105e-05,-3.01987e-08,2.00786e-05,63,-110.21,-171.13,500000,500000,-8.65531e-08,2.07827e-07,-6.04624e-08,0.00268369,0.0233758,-0.000640219,0.0226898,3,3310
12,2.63246e-22,2,9641,118.11,-2.6812e-06,1.99034e-05,-3.01655e-08,2.00832e-05,63,-110.21,-171.13,500000,500000,-9.14257e-08,2.13676e-07,-5.96323e-08,0.00248027,0.0240253,-0.000331159,0.0231444,3,3311
12,2.69256e-22,2,9642,118.11,-2.77586e-06,1.98879e-05,-3.0277e-08,2.00807e-05,63.5,-110.21,-171.13,1.14581e+06,531250,-8.97728e-08,2.20493e-07,-6.01732e-08,0.00250459,0.0271969,0.00015616,0.0265468,3,3312
12,3.02606e-22,2,9643,118.11,-2.86075e-06,1.98388e-05,-2.81412e-08,2.0044e-05,67,-110.21,-171.13,2.43744e+06,593750,-7.44891e-08,2.05758e-07,-5.76052e-08,0.00135284,0.0304594,-0.000127917,0.0312998,3,3313
12,3.57571e-22,2,9644,46.91,-2.92484e-06,1.97953e-05,-2.35645e-08,2.00102e-05,72.75,-42.47,175.69,2.43744e+06,593750,-6.41598e-08,1.9591e-07,-4.7546e-08,0.00198315,0.0340753,0.000134965,0.034246,3,3314
12,3.91492e-22,2,9645,46.91,-2.98907e-06,1.9797e-05,-2.09749e-08,2.00214e-05,75.75,-42.47,175.69,1.14581e+06,531250,-6.93592e-08,2.05773e-07,-4.09475e-08,0.00361653,0.0363462,0.000414421,0.0348055,3,3315
12,3.97787e-22,2,9646,46.91,-3.06356e-06,1.98063e-05,-1.98094e-08,2.00419e-05,76,-42.47,175.69,500000,500000,-7.69303e-08,2.08939e-07,-3.96489e-08,0.00317409,0.0355656,-0.000133356,0.0341653,3,3316
12,3.97787e-22,2,9647,46.91,-3.14293e-06,1.98115e-05,-1.89875e-08,2.00593e-05,76,-42.47,175.69,500000,500000,-8.08644e-08,2.11869e-07,-3.83344e-08,0.00291345,0.0358981,-7.52925e-05,0.0345781,3,3317
12,3.97787e-22,2,9648,46.91,-3.22528e-06,1.98126e-05,-1.8736e-08,2.00734e-05,76,-42.47,175.69,500000,500000,-8.35642e-08,2.13984e-07,-3.73901e-08,0.00272048,0.0361748,-8.74617e-06,0.0349144,3,3318
12,3.97787e-22,2,9649,46.91,-3.31006e-06,1.98105e-05,-1.83785e-08,2.00851e-05,76,-42.47,175.69,500000,500000,-8.583e-08,2.15183e-07,-3.66913e-08,0.00249607,0.0362573,-2.07979e-05,0.0351179,3,3319
12,3.97787e-22,2,9650,46.91,-3.39694e-06,1.98069e-05,-1.82194e-08,2.00961e-05,76,-42.47,175.69,500000,500000,-8.80878e-08,2.1748e-07,-3.6466e-08,0.00232111,0.0365542,-3.20894e-05,0.035511,3,3320
12,3.97787e-22,2,9651,46.91,-3.48623e-06,1.98057e-05,-1.815e-08,2.01102e-05,76,-42.47,175.69,500000,500000,-9.03237e-08,2.19863e-07,-3.62955e-08,0.00214951,0.0368536,-2.72891e-05,0.0358828,3,3321
12,3.97787e-22,2,9652,46.91,-3.57759e-06,1.98125e-05,-1.80738e-08,2.0133e-05,76,-42.47,175.69,500000,500000,-9.14063e-08,2.20584e-07,-3.61404e-08,0.00202418,0.036886,-2.05002e-05,0.0359535,3,3322
12,3.97787e-22,2,9653,46.91,-3.66905e-06,1.98327e-05,-1.78994e-08,2.01692e-05,76,-42.47,175.69,500000,500000,-8.97866e-08,2.17042e-07,-3.58312e-08,0.00198756,0.0362548,-2.68487e-05,0.0353301,3,3323
12,3.97787e-22,2,9654,46.91,-3.75716e-06,1.98675e-05,-1.7455e-08,2.02197e-05,76,-42.47,175.69,500000,500000,-8.47741e-08,2.07542e-07,-3.48948e-08,0.00202973,0.0347162,-1.50795e-05,0.0337703,3,3324
12,3.97787e-22,2,9655,46.91,-3.8386e-06,1.99109e-05,-1.76518e-08,2.02776e-05,76,-42.47,175.69,500000,500000,-7.67366e-08,1.95002e-07,-3.50803e-08,0.00225781,0.0327466,-0.0002329,0.0318379,3,3325
12,3.94144e-22,2,9656,46.91,-3.91064e-06,1.99524e-05,-1.67569e-08,2.0332e-05,76.5625,-42.47,175.69,500000,500000,-6.61096e-08,1.82746e-07,-3.3751e-08,0.00214998,0.0320428,0.000453451,0.0310616,3,3326
12,3.85643e-22,2,9657,134.44,-3.97081e-06,1.99921e-05,-1.75836e-08,2.03826e-05,77.875,-107.77,-162.59,500000,500000,-5.59247e-08,1.72997e-07,-3.56155e-08,0.00185278,0.0317349,0.000461255,0.0309318,3,3327
12,3.79571e-22,2,9658,134.44,-4.02249e-06,2.00253e-05,-1.99701e-08,2.04253e-05,78.8125,-107.77,-162.59,500000,500000,-5.01901e-08,1.66886e-07,-3.94535e-08,0.00202412,0.0307451,-0.000482064,0.0301211,3,3328
12,3.70786e-22,2,9659,134.44,-4.0712e-06,2.00463e-05,-1.90796e-08,2.04556e-05,79.3125,-107.77,-162.59,1.14581e+06,531250,-4.8711e-08,1.63593e-07,-3.77109e-08,0.00215635,0.030543,-5.51991e-05,0.0297059,3,3329
12,3.55645e-22,2,9660,134.44,-4.11991e-06,2.00529e-05,-1.69074e-08,2.04717e-05,79.9375,-107.77,-162.59,2.43744e+06,593750,-4.84041e-08,1.587e-07,-3.38054e-08,0.00214678,0.0300773,0.000882235,0.0288599,3,3330
12,3.32932e-22,2,9661,134.44,-4.168e-06,2.00422e-05,-1.67721e-08,2.0471e-05,80.875,-107.77,-162.59,4.37488e+06,687500,-4.83825e-08,1.52147e-07,-3.36511e-08,0.00157584,0.0286475,0.00105018,0.0278006,3,3331
12,2.95079e-22,1,9662,25.92,-4.21667e-06,1.99995e-05,-2.15129e-08,2.04392e-05,82.4375,124.52,-51.58,7.60394e+06,843750,-5.33992e-08,1.63188e-07,-4.40261e-08,0.0010913,0.0294637,0.000345781,0.0293659,2,6329
12,2.93415e-22,1,9663,25.92,-4.2748e-06,1.99184e-05,-2.87399e-08,2.0372e-05,84.8125,124.52,-51.58,1.01872e+07,968750,-6.15366e-08,1.97142e-07,-5.77586e-08,0.00183957,0.0361967,0.000158955,0.0357346,2,6330
12,3.53052e-22,1,9664,25.92,-4.33975e-06,1.98536e-05,-3.21532e-08,2.03224e-05,87.5,124.52,-51.58,9.54138e+06,937500,-6.2006e-08,2.17282e-07,-6.44692e-08,0.00179137,0.0416034,0.00045105,0.0412022,2,6331
12,4.06592e-22,2,9665,94.7,-4.39881e-06,1.98235e-05,-3.80589e-08,2.03057e-05,88.9375,142.25,-36.24,6.31231e+06,781250,-5.72971e-08,2.24889e-07,-7.5812e-08,0.000167111,0.0413281,8.4701e-05,0.0420612,3,3332
12,4.26528e-22,2,9666,94.7,-4.45434e-06,1.97959e-05,-4.54517e-08,2.02909e-05,89.1875,142.25,-36.24,3.72906e+06,656250,-6.00094e-08,2.34675e-07,-8.90524e-08,-0.0023187,0.0400201,-0.000791517,0.0423431,3,3333
12,4.31512e-22,2,9667,94.7,-4.51883e-06,1.97716e-05,-4.23195e-08,2.02815e-05,89.25,142.25,-36.24,3.08325e+06,625000,-6.97455e-08,2.30613e-07,-8.45726e-08,-0.0050158,0.0383208,-0.000862168,0.0422256,3,3334
12,5.02418e-22,2,9668,94.7,-4.59383e-06,1.97684e-05,-3.17539e-08,2.02951e-05,92.4375,142.25,-36.24,5.02069e+06,718750,-7.3694e-08,2.05111e-07,-6.43644e-08,-0.00708248,0.0380332,-0.00126496,0.0433329,3,3335
12,6.44231e-22,1,9669,121.22,-4.66622e-06,1.98358e-05,-2.20081e-08,2.03773e-05,98.8125,-21.83,121.47,8.89556e+06,906250,-6.87674e-08,1.90086e-07,-4.42682e-08,-0.00662365,0.0443212,-0.00046015,0.0486487,2,6332
12,7.15137e-22,1,9670,121.22,-4.73137e-06,1.99327e-05,-1.88705e-08,2.04866e-05,102,-21.83,121.47,1.0833e+07,1e+06,-6.27647e-08,1.91443e-07,-3.7866e-08,-0.00489647,0.0493589,0.000553137,0.051886,2,6333
12,7.15137e-22,1,9671,121.22,-4.79175e-06,1.99925e-05,-1.9404e-08,2.05587e-05,102,-21.83,121.47,1.0833e+07,1e+06,-5.70232e-08,1.84122e-07,-3.87471e-08,-0.00395156,0.0477568,-9.57297e-06,0.0498975,2,6334
12,7.15137e-22,1,9672,121.22,-4.84541e-06,2.0035e-05,-1.92607e-08,2.06126e-05,102,-21.83,121.47,1.0833e+07,1e+06,-5.07548e-08,1.75629e-07,-3.85157e-08,-0.00289868,0.0457417,-3.5604e-05,0.0472941,2,6335
12,7.15137e-22,1,9673,121.22,-4.89326e-06,2.00672e-05,-1.90847e-08,2.06552e-05,102,-21.83,121.47,1.0833e+07,1e+06,-4.54566e-08,1.67618e-07,-3.81588e-08,-0.00206754,0.0437438,-3.62224e-05,0.0448404,2,6336
12,7.15137e-22,1,9674,121.22,-4.93633e-06,2.00918e-05,-1.88377e-08,2.06893e-05,102,-21.83,121.47,1.0833e+07,1e+06,-4.11718e-08,1.60486e-07,-3.76697e-08,-0.00143382,0.0419406,-3.58921e-05,0.0426993,2,6337
12,7.15137e-22,1,9675,121.22,-4.9756e-06,2.01088e-05,-1.84979e-08,2.07152e-05,102,-21.83,121.47,1.0833e+07,1e+06,-3.79619e-08,1.54506e-07,-3.69933e-08,-0.000984934,0.0404607,-4.27742e-05,0.0409897,2,6338
12,7.15137e-22,1,9676,121.22,-5.01225e-06,2.01161e-05,-1.80798e-08,2.07311e-05,102,-21.83,121.47,1.0833e+07,1e+06,-3.61499e-08,1.50439e-07,-3.61546e-08,-0.000746143,0.0395335,-5.63513e-05,0.0399521,2,6339
12,7.15137e-22,1,9677,121.22,-5.0479e-06,2.01109e-05,-1.76625e-08,2.07347e-05,102,-21.83,121.47,1.0833e+07,1e+06,-3.62352e-08,1.49456e-07,-3.53236e-08,-0.00077215,0.0394606,-7.51498e-05,0.0399285,2,6340
12,7.15137e-22,1,9678,121.22,-5.08472e-06,2.00914e-05,-1.73943e-08,2.07248e-05,102,-21.83,121.47,1.0833e+07,1e+06,-3.84946e-08,1.52343e-07,-3.47947e-08,-0.0011042,0.0404114,-0.000120561,0.0411409,2,6341
12,7.15137e-22,1,9679,121.22,-5.12489e-06,2.00573e-05,-1.73495e-08,2.07017e-05,102,-21.83,121.47,1.0833e+07,1e+06,-4.23504e-08,1.58376e-07,-3.46501e-08,-0.00167575,0.0422229,-0.000209364,0.0434295,2,6342
12,6.31214e-22,1,9680,121.22,-5.16942e-06,2.00044e-05,-1.72184e-08,2.06615e-05,102.75,-21.83,121.47,1.0833e+07,1e+06,-4.65902e-08,1.6288e-07,-3.47517e-08,-0.0022049,0.0422459,0.00037696,0.0437231,2,6343
12,4.35393e-22,1,9681,150.43,-5.21807e-06,1.99574e-05,-2.16483e-08,2.06283e-05,104.5,-62.91,143.24,1.0833e+07,1e+06,-4.86775e-08,1.68464e-07,-4.3229e-08,-0.00229346,0.0396755,0.000567236,0.0413266,2,6344
12,2.95521e-22,1,9682,150.43,-5.26678e-06,1.99389e-05,-2.65583e-08,2.06227e-05,105.75,-62.91,143.24,1.0833e+07,1e+06,-4.64762e-08,1.68331e-07,-5.25564e-08,-0.00199602,0.0364862,-0.000139098,0.0383224,2,6345
12,2.67547e-22,1,9683,150.43,-5.31103e-06,1.99229e-05,-2.58974e-08,2.06186e-05,106,-62.91,143.24,1.0833e+07,1e+06,-4.39051e-08,1.59353e-07,-5.15567e-08,-0.00198795,0.0341223,-0.000463826,0.0361796,2,6346
12,2.88401e-22,1,9684,150.43,-5.35459e-06,1.98936e-05,-2.04674e-08,2.06017e-05,108,-62.91,143.24,8.24975e+06,875000,-6.76896e-08,1.66552e-07,-4.15033e-08,-0.0024265,0.0303969,0.000338234,0.0328198,2,6347
12,3.30109e-22,2,9685,66.67,-5.4464e-06,1.98296e-05,-1.42299e-08,2.0564e-05,112,165.52,-172.29,3.08325e+06,625000,-1.22286e-07,1.99209e-07,-2.88527e-08,-0.00249765,0.0234783,0.00103651,0.0257442,3,3336
12,3.50963e-22,2,9686,66.67,-5.59916e-06,1.97533e-05,-1.42529e-08,2.05315e-05,114,165.52,-172.29,500000,500000,-1.60943e-07,2.33008e-07,-2.82664e-08,-0.00260684,0.0203739,0.000540908,0.0223265,3,3337
12,3.50963e-22,2,9687,66.67,-5.76829e-06,1.9713e-05,-1.86364e-08,2.05396e-05,114,165.52,-172.29,500000,500000,-1.68825e-07,2.5195e-07,-3.73178e-08,-0.00263308,0.0217201,6.08297e-05,0.0234334,3,3338
12,3.50963e-22,2,9688,66.67,-5.93681e-06,1.9706e-05,-2.35442e-08,2.05809e-05,114,165.52,-172.29,500000,500000,-1.66951e-07,2.63572e-07,-4.70045e-08,-0.00196264,0.0228409,-0.000138781,0.0241162,3,3339
12,3.50963e-22,2,9689,66.67,-6.10219e-06,1.97275e-05,-2.75771e-08,2.06497e-05,114,165.52,-172.29,500000,500000,-1.66555e-07,2.75884e-07,-5.50747e-08,-0.00128349,0.0241037,-0.000142079,0.0250551,3,3340
12,3.50963e-22,2,9690,66.67,-6.26992e-06,1.97741e-05,-3.04022e-08,2.07444e-05,114,165.52,-172.29,500000,500000,-1.71473e-07,2.92177e-07,-6.00866e-08,-0.000733469,0.025808,0.000263792,0.0263966,3,3341
12,3.50963e-22,2,9691,66.67,-6.44514e-06,1.98395e-05,-3.21697e-08,2.08602e-05,114,165.52,-172.29,500000,500000,-1.69718e-07,3.06884e-07,-6.43879e-08,0.000785835,0.0282261,0.0014093,0.0276067,3,3342
12,4.39614e-22,2,9692,66.67,-6.60936e-06,1.98974e-05,-4.38541e-08,2.09664e-05,115.75,165.52,-172.29,3.08325e+06,625000,-1.16403e-07,2.84877e-07,-8.87648e-08,0.000476734,0.0352349,0.000671324,0.0358946,3,3343
12,6.16916e-22,1,9693,9.52004,-6.67794e-06,1.98972e-05,-5.8804e-08,2.09881e-05,119.25,63.66,-15.5,8.24975e+06,875000,-2.78378e-08,2.33963e-07,-1.1785e-07,-0.00010063,0.0442907,-0.000412624,0.0456636,2,6348
12,7.05568e-22,1,9694,9.52004,-6.66503e-06,1.98631e-05,-6.24524e-08,2.09516e-05,121,63.66,-15.5,1.0833e+07,1e+06,1.29242e-08,2.09095e-07,-1.24506e-07,0.000814949,0.047407,0.000115274,0.0473706,2,6349
12,7.05568e-22,1,9695,9.52004,-6.6521e-06,1.9839e-05,-6.03422e-08,2.09247e-05,121,63.66,-15.5,1.0833e+07,1e+06,1.16093e-08,2.01875e-07,-1.20358e-07,0.000505023,0.0456189,3.83792e-05,0.0457975,2,6350
12,7.05568e-22,1,9696,9.52004,-6.64181e-06,1.97946e-05,-5.63021e-08,2.08792e-05,121,63.66,-15.5,1.0833e+07,1e+06,9.61495e-09,1.89656e-07,-1.12695e-07,0.00028383,0.042683,-5.14989e-05,0.0428138,2,6351
12,7.05673e-22,1,9697,153.16,-1.55087e-08,2.02238e-05,-2.68439e-08,2.02238e-05,9,-104.67,-152.95,1.0833e+07,1e+06,-3.08855e-08,1.65216e-07,-5.36886e-08,-0.00350052,0.0431453,0.000328992,0.0449226,2,6352
12,7.05673e-22,1,9698,153.16,-4.62624e-08,2.02284e-05,-2.7756e-08,2.02285e-05,9,-104.67,-152.95,1.0833e+07,1e+06,-3.07078e-08,1.6357e-07,-5.53205e-08,-0.00375057,0.0423842,-0.000196305,0.0444817,2,6353
12,7.05673e-22,1,9699,153.16,-7.69244e-08,2.02413e-05,-2.54404e-08,2.02415e-05,9,-104.67,-152.95,1.0833e+07,1e+06,-3.01967e-08,1.57663e-07,-5.07662e-08,-0.00342811,0.0410403,0.000407737,0.0427104,2,6354
12,6.87778e-22,1,9700,153.16,-1.06656e-07,2.02554e-05,-2.53545e-08,2.02557e-05,8.875,-104.67,-152.95,1.01872e+07,968750,-2.94359e-08,1.52776e-07,-5.11006e-08,-0.00325521,0.0386467,2.17837e-05,0.0404657,2,6355
12,6.69884e-22,1,9701,153.16,-1.35796e-07,2.0239e-05,-2.74036e-08,2.02395e-05,8.75,-104.67,-152.95,9.54138e+06,937500,-2.69974e-08,1.60764e-07,-5.51541e-08,-0.00226068,0.0399765,0.000386744,0.0411321,2,6356
12,6.87778e-22,1,9702,153.16,-1.60651e-07,2.01856e-05,-3.14237e-08,2.01862e-05,8.875,-104.67,-152.95,1.01872e+07,968750,-2.20089e-08,1.73628e-07,-6.27354e-08,-0.00145518,0.0444497,0.000594795,0.0450427,2,6357
12,6.31799e-22,1,9703,153.16,-1.79814e-07,2.01106e-05,-3.65737e-08,2.01114e-05,10.3125,-104.67,-152.95,8.89556e+06,906250,-3.49182e-08,1.88147e-07,-7.33354e-08,-0.00198857,0.0414256,-0.00042662,0.0429111,2,6358
12,4.59425e-22,2,9704,146.27,-2.30487e-07,2.00443e-05,-3.88148e-08,2.00456e-05,13.375,-117.11,-117.58,4.37488e+06,687500,-7.14445e-08,2.02341e-07,-7.72631e-08,-0.00215482,0.0274908,-0.000730684,0.0294802,3,3344
12,3.4134e-22,2,9705,146.27,-3.22703e-07,2.00352e-05,-3.62563e-08,2.00379e-05,16.5,-117.11,-117.58,1.14581e+06,531250,-9.72291e-08,2.04997e-07,-7.0767e-08,-0.00173057,0.0174377,-0.000158824,0.0194924,3,3345
12,3.36868e-22,2,9706,146.27,-4.24945e-07,2.00638e-05,-2.93388e-08,2.00683e-05,20.6875,-117.11,-117.58,500000,500000,-1.04489e-07,2.04211e-07,-5.99914e-08,-0.00173334,0.017416,0.000924804,0.0201081,3,3346
12,3.67097e-22,2,9707,58.62,-5.31682e-07,2.00991e-05,-2.81157e-08,2.01062e-05,26.3125,158.52,96.68,500000,500000,-1.11457e-07,2.11071e-07,-5.818e-08,-0.00201021,0.0183688,0.000960783,0.0214044,3,3347
12,3.8725e-22,2,9708,58.62,-6.4786e-07,2.01399e-05,-3.37142e-08,2.01504e-05,30.0625,158.52,96.68,500000,500000,-1.2236e-07,2.24392e-07,-6.55671e-08,-0.00245168,0.0179473,-0.000253205,0.0209362,3,3348
12,3.87447e-22,2,9709,58.62,-7.76403e-07,2.01872e-05,-3.36717e-08,2.02022e-05,31.5625,158.52,96.68,1.14581e+06,531250,-1.26814e-07,2.31085e-07,-6.61976e-08,-0.00276772,0.0193961,-0.000503211,0.0226585,3,3349
12,3.68081e-22,2,9710,58.62,-9.01487e-07,2.02304e-05,-2.88117e-08,2.02505e-05,33.8125,158.52,96.68,3.72906e+06,656250,-1.07606e-07,2.16677e-07,-5.8258e-08,-0.00210125,0.0244117,0.000312558,0.0273057,3,3350
12,3.43874e-22,1,9711,151.34,-9.91615e-07,2.02504e-05,-2.62435e-08,2.02747e-05,36.625,-67.01,136.63,6.95813e+06,812500,-7.19637e-08,1.87755e-07,-5.38433e-08,-0.000105149,0.0274992,0.000861676,0.0285688,2,6359
12,3.2935e-22,1,9712,151.34,-1.04541e-06,2.02182e-05,-2.82665e-08,2.02452e-05,38.3125,-67.01,136.63,8.89556e+06,906250,-4.59464e-08,1.71945e-07,-5.6871e-08,0.0017385,0.0300885,0.000700193,0.0298773,2,6360
12,3.19668e-22,1,9713,151.34,-1.08351e-06,2.01498e-05,-3.28892e-08,2.0179e-05,39.4375,-67.01,136.63,1.01872e+07,968750,-3.85249e-08,1.78089e-07,-6.47523e-08,0.00172316,0.0348562,0.000104346,0.0348004,2,6361
12,3.14826e-22,1,9714,151.34,-1.12246e-06,2.00943e-05,-3.56813e-08,2.01256e-05,40,-67.01,136.63,1.0833e+07,1e+06,-4.34088e-08,1.9357e-07,-7.12687e-08,0.000749103,0.0384343,-7.68e-05,0.0387197,2,6362
12,3.14826e-22,1,9715,151.34,-1.17033e-06,2.00596e-05,-3.67809e-08,2.00937e-05,40,-67.01,136.63,1.0833e+07,1e+06,-5.10264e-08,2.06447e-07,-7.37539e-08,-6.34634e-05,0.0405382,7.12762e-06,0.0411341,2,6363
12,3.14826e-22,1,9716,151.34,-1.22452e-06,2.00447e-05,-3.71161e-08,2.00821e-05,40,-67.01,136.63,1.0833e+07,1e+06,-5.62292e-08,2.11304e-07,-7.41997e-08,-0.000822361,0.0409188,-6.99176e-06,0.0417508,2,6364
12,3.14826e-22,1,9717,151.34,-1.28278e-06,2.00449e-05,-3.65559e-08,2.00859e-05,40,-67.01,136.63,1.0833e+07,1e+06,-5.9347e-08,2.10854e-07,-7.31047e-08,-0.00147466,0.0403695,-3.09166e-05,0.0414408,2,6365
12,3.14826e-22,1,9718,151.34,-1.34321e-06,2.00564e-05,-3.54876e-08,2.01013e-05,40,-67.01,136.63,1.0833e+07,1e+06,-6.0984e-08,2.07344e-07,-7.09583e-08,-0.00197236,0.0393671,-1.85699e-05,0.0406278,2,6366
12,3.14826e-22,1,9719,151.34,-1.40475e-06,2.00767e-05,-3.40687e-08,2.01259e-05,40,-67.01,136.63,1.0833e+07,1e+06,-6.17924e-08,2.01711e-07,-6.81247e-08,-0.00241647,0.0380093,-5.10629e-06,0.0394543,2,6367
12,3.14826e-22,1,9720,151.34,-1.4668e-06,2.01047e-05,-3.23504e-08,2.01582e-05,40,-67.01,136.63,1.0833e+07,1e+06,-6.21079e-08,1.94199e-07,-6.46877e-08,-0.0028675,0.0362896,-1.04805e-05,0.0379456,2,6368
12,3.14826e-22,1,9721,151.34,-1.52897e-06,2.01399e-05,-3.02592e-08,2.01978e-05,40,-67.01,136.63,1.0833e+07,1e+06,-6.21362e-08,1.84767e-07,-6.02889e-08,-0.00334873,0.0342033,4.79429e-05,0.036067,2,6369
12,3.20429e-22,1,9722,151.34,-1.59107e-06,2.01819e-05,-2.69856e-08,2.02446e-05,40.625,-67.01,136.63,1.01872e+07,968750,-6.04396e-08,1.71524e-07,-5.39961e-08,-0.00367477,0.0314572,0.00017113,0.033483,2,6370
12,3.42841e-22,1,9723,151.34,-1.64985e-06,2.02232e-05,-2.36802e-08,2.02904e-05,43.125,-67.01,136.63,7.60394e+06,843750,-5.41729e-08,1.59585e-07,-4.8196e-08,-0.00307328,0.0292787,0.000460427,0.0310187,2,6371
12,3.76459e-22,2,9724,34.52,-1.69941e-06,2.02463e-05,-2.47541e-08,2.03175e-05,46.875,1.45,143.65,3.72906e+06,656250,-4.58104e-08,1.59222e-07,-4.95775e-08,-0.00183988,0.0290899,0.000683581,0.0301004,3,3351
12,3.9887e-22,2,9725,34.52,-1.74147e-06,2.02473e-05,-2.81994e-08,2.03221e-05,49.375,1.45,143.65,1.14581e+06,531250,-4.18556e-08,1.6265e-07,-5.53204e-08,-0.00159163,0.0289415,0.000291369,0.0298158,3,3352
12,4.04473e-22,2,9726,34.52,-1.78313e-06,2.02412e-05,-2.82373e-08,2.03196e-05,50,1.45,143.65,500000,500000,-4.16329e-08,1.60376e-07,-5.63568e-08,-0.00197272,0.0280518,-1.36913e-06,0.0291867,3,3353
12,4.04473e-22,2,9727,34.52,-1.82473e-06,2.02393e-05,-2.66583e-08,2.03214e-05,50,1.45,143.65,500000,500000,-4.13754e-08,1.56879e-07,-5.41582e-08,-0.00203972,0.0274596,0.000222681,0.0285611,3,3354
12,4.04473e-22,2,9728,34.52,-1.86588e-06,2.02373e-05,-2.67914e-08,2.03231e-05,50,1.45,143.65,500000,500000,-4.14026e-08,1.55873e-07,-5.35623e-08,-0.00206299,0.0272098,0.000312955,0.0282765,3,3355
12,4.04473e-22,2,9729,34.52,-1.90754e-06,2.0232e-05,-2.7562e-08,2.03218e-05,50,1.45,143.65,500000,500000,-4.10919e-08,1.56234e-07,-5.48135e-08,-0.00206389,0.0271555,0.000125532,0.0282892,3,3356
12,4.04473e-22,2,9730,34.52,-1.94806e-06,2.0227e-05,-2.80594e-08,2.03207e-05,50,1.45,143.65,500000,500000,-3.952e-08,1.56515e-07,-5.62045e-08,-0.0018202,0.0272175,1.31529e-05,0.0282589,3,3357
12,4.04473e-22,2,9731,34.52,-1.98658e-06,2.02214e-05,-2.86636e-08,2.03188e-05,50,1.45,143.65,500000,500000,-3.72912e-08,1.57144e-07,-5.73023e-08,-0.00132184,0.0274244,4.35426e-05,0.0281657,3,3358
12,4.04473e-22,2,9732,34.52,-2.02264e-06,2.02132e-05,-2.93218e-08,2.03142e-05,50,1.45,143.65,500000,500000,-3.45436e-08,1.58044e-07,-5.86776e-08,-0.000643726,0.0276953,4.4412e-05,0.0280611,3,3359
12,4.04473e-22,2,9733,34.52,-2.05567e-06,2.02005e-05,-3.00084e-08,2.03048e-05,50,1.45,143.65,500000,500000,-3.12181e-08,1.59483e-07,-6.01509e-08,0.000293422,0.0281113,6.69979e-05,0.0279883,3,3360
12,4.04473e-22,2,9734,34.52,-2.08508e-06,2.0181e-05,-3.06194e-08,2.02885e-05,50,1.45,143.65,500000,500000,-2.74123e-08,1.62211e-07,-6.10323e-08,0.00156871,0.0289102,0.000355583,0.0280504,3,3361
12,3.73064e-22,2,9735,34.52,-2.11049e-06,2.01576e-05,-3.5202e-08,2.02678e-05,53.1875,1.45,143.65,500000,500000,-3.2744e-08,1.78184e-07,-6.9435e-08,0.00266867,0.0295516,-0.000450141,0.0292083,3,3362
12,3.10244e-22,2,9736,118.11,-2.15057e-06,2.01341e-05,-3.30365e-08,2.02487e-05,59.5625,-110.21,-171.13,500000,500000,-5.14553e-08,1.92141e-07,-6.61728e-08,0.00332532,0.027401,0.000420209,0.0265718,3,3363
12,2.78834e-22,2,9737,118.11,-2.2134e-06,2.01144e-05,-2.75688e-08,2.02358e-05,62.75,-110.21,-171.13,500000,500000,-6.73408e-08,1.95087e-07,-5.58414e-08,0.0031121,0.0251204,0.0018236,0.0233627,3,3364
12,2.78834e-22,2,9738,118.11,-2.28525e-06,2.01045e-05,-2.80976e-08,2.0234e-05,62.75,-110.21,-171.13,500000,500000,-7.38387e-08,1.98471e-07,-5.62609e-08,0.0024467,0.0249614,0.00117127,0.0239389,3,3365
12,2.78834e-22,2,9739,118.11,-2.36108e-06,2.01055e-05,-2.72691e-08,2.02437e-05,62.75,-110.21,-171.13,500000,500000,-7.65858e-08,1.98248e-07,-5.46554e-08,0.00222794,0.0247435,0.00103767,0.0240129,3,3366
12,2.78834e-22,2,9740,118.11,-2.43842e-06,2.01116e-05,-2.67667e-08,2.02589e-05,62.75,-110.21,-171.13,500000,500000,-7.83152e-08,1.98068e-07,-5.35342e-08,0.00205586,0.0246501,0.000973382,0.0241168,3,3367
12,2.78834e-22,2,9741,118.11,-2.51771e-06,2.01161e-05,-2.66717e-08,2.02731e-05,62.75,-110.21,-171.13,500000,500000,-8.16916e-08,2.00434e-07,-5.32611e-08,0.00166662,0.0248272,0.000877543,0.0245564,3,3368
12,2.78834e-22,2,9742,118.11,-2.6018e-06,2.01145e-05,-2.62124e-08,2.02821e-05,62.75,-110.21,-171.13,500000,500000,-8.62766e-08,2.05757e-07,-5.27742e-08,0.00131006,0.0254736,0.00109955,0.0252454,3,3369
12,2.86629e-22,2,9743,118.11,-2.69026e-06,2.01069e-05,-2.86699e-08,2.02861e-05,62.625,-110.21,-171.13,500000,500000,-8.56274e-08,2.1056e-07,-5.75162e-08,0.000305839,0.0269735,0.000900785,0.0277117,3,3370
12,3.24161e-22,2,9744,83.31,-2.77306e-06,2.00505e-05,-3.08108e-08,2.02413e-05,65.8125,24.35,148.62,500000,500000,-8.46518e-08,2.13565e-07,-6.06747e-08,-0.00178341,0.0302091,9.81277e-05,0.0326486,3,3371
12,3.75843e-22,2,9745,46.91,-2.85957e-06,2.00046e-05,-2.30095e-08,2.0208e-05,72.5625,-42.47,175.69,500000,500000,-9.13074e-08,2.19044e-07,-4.62555e-08,-0.00100163,0.0348822,0.000178507,0.0360825,3,3372
12,3.97787e-22,2,9746,46.91,-2.95567e-06,2.00123e-05,-1.65725e-08,2.02294e-05,76,-42.47,175.69,500000,500000,-9.4065e-08,2.18457e-07,-3.42038e-08,0.0010128,0.0364214,0.000264529,0.0358457,3,3373
12,3.97787e-22,2,9747,46.91,-3.04769e-06,2.0019e-05,-1.75624e-08,2.02497e-05,76,-42.47,175.69,500000,500000,-9.06854e-08,2.15388e-07,-3.46925e-08,0.00154948,0.0359539,0.000120846,0.0351451,3,3374
12,3.97787e-22,2,9748,46.91,-3.13704e-06,2.00261e-05,-1.78853e-08,2.02704e-05,76,-42.47,175.69,500000,500000,-8.96857e-08,2.17152e-07,-3.53087e-08,0.00197239,0.0363929,0.000156499,0.0353703,3,3375
12,3.97787e-22,2,9749,46.91,-3.22707e-06,2.00285e-05,-1.77567e-08,2.02868e-05,76,-42.47,175.69,500000,500000,-9.01331e-08,2.17429e-07,-3.562e-08,0.00192993,0.0363803,1.02692e-05,0.0354633,3,3376
12,3.97787e-22,2,9750,46.91,-3.31731e-06,2.00274e-05,-1.77311e-08,2.03003e-05,76,-42.47,175.69,500000,500000,-9.06353e-08,2.17928e-07,-3.54444e-08,0.00192577,0.0364561,1.06271e-05,0.035551,3,3377
12,3.97787e-22,2,9751,46.91,-3.40834e-06,2.00254e-05,-1.7649e-08,2.03134e-05,76,-42.47,175.69,500000,500000,-9.16618e-08,2.19048e-07,-3.52897e-08,0.00187538,0.0366046,1.63418e-05,0.0357247,3,3378
12,3.97787e-22,2,9752,46.91,-3.50063e-06,2.00258e-05,-1.75477e-08,2.03294e-05,76,-42.47,175.69,500000,500000,-9.26403e-08,2.19936e-07,-3.50958e-08,0.00180718,0.0366996,3.26811e-05,0.0358384,3,3379
12,3.97787e-22,2,9753,46.91,-3.59362e-06,2.00323e-05,-1.74209e-08,2.03521e-05,76,-42.47,175.69,500000,500000,-9.23318e-08,2.18905e-07,-3.48511e-08,0.0017894,0.0364975,5.29283e-05,0.0356231,3,3380
12,3.97787e-22,2,9754,46.91,-3.6853e-06,2.0048e-05,-1.72503e-08,2.03839e-05,76,-42.47,175.69,500000,500000,-8.94537e-08,2.14144e-07,-3.45326e-08,0.00188333,0.0357386,6.39872e-05,0.0348069,3,3381
12,3.97787e-22,2,9755,46.91,-3.77253e-06,2.00734e-05,-1.70802e-08,2.04249e-05,76,-42.47,175.69,500000,500000,-8.35227e-08,2.04928e-07,-3.41597e-08,0.00209602,0.0343269,4.59664e-05,0.0333094,3,3382
12,3.97787e-22,2,9756,46.91,-3.85234e-06,2.01054e-05,-1.74201e-08,2.04712e-05,76,-42.47,175.69,500000,500000,-7.57277e-08,1.93936e-07,-3.46625e-08,0.00240173,0.0326648,-0.000144429,0.0316217,3,3383
12,3.96573e-22,2,9757,46.91,-3.92398e-06,2.01369e-05,-1.7577e-08,2.05157e-05,76.1875,-42.47,175.69,500000,500000,-6.65711e-08,1.86553e-07,-3.48801e-08,0.00290749,0.0323633,0.000302024,0.030973,3,3384
12,3.8293e-22,2,9758,46.91,-3.98548e-06,2.01676e-05,-1.80833e-08,2.05576e-05,77.4375,-42.47,175.69,1.14581e+06,531250,-5.56093e-08,1.78408e-07,-3.65009e-08,0.00294566,0.0326354,0.000953496,0.0310712,3,3385
12,3.59288e-22,2,9759,134.44,-4.0352e-06,2.0192e-05,-1.95041e-08,2.05912e-05,79.375,-107.77,-162.59,2.43744e+06,593750,-4.68676e-08,1.67142e-07,-3.93374e-08,0.00264791,0.0316469,0.000779738,0.0303217,3,3386
12,3.32932e-22,2,9760,134.44,-4.07922e-06,2.0207e-05,-2.04493e-08,2.06147e-05,80.875,-107.77,-162.59,4.37488e+06,687500,-4.52231e-08,1.60169e-07,-4.07189e-08,0.00200572,0.030486,0.00055026,0.0296444,3,3387
12,3.02649e-22,1,9761,25.92,-4.12565e-06,2.02089e-05,-2.08549e-08,2.06257e-05,82.125,124.52,-51.58,6.95812e+06,812500,-4.83135e-08,1.58118e-07,-4.2004e-08,0.00122565,0.029522,0.000653691,0.0289757,2,6372
12,2.79937e-22,1,9762,25.92,-4.17585e-06,2.01959e-05,-2.27503e-08,2.06231e-05,83.0625,124.52,-51.58,8.89556e+06,906250,-5.29706e-08,1.59641e-07,-4.54174e-08,0.000476288,0.0286569,0.000246963,0.0285898,2,6373
12,2.64796e-22,1,9763,25.92,-4.23159e-06,2.01672e-05,-2.63848e-08,2.06064e-05,83.6875,124.52,-51.58,1.01872e+07,968750,-6.14513e-08,1.73167e-07,-5.24619e-08,-0.000242884,0.0297793,-0.000448397,0.0303642,2,6374
12,2.57225e-22,1,9764,25.92,-4.29875e-06,2.0121e-05,-3.08046e-08,2.05751e-05,84,124.52,-51.58,1.0833e+07,1e+06,-7.29055e-08,2.0186e-07,-6.18555e-08,-0.000517053,0.0344081,-0.00063037,0.03505,2,6375
12,2.62209e-22,1,9765,25.92,-4.3774e-06,2.00815e-05,-3.47399e-08,2.05531e-05,84.0625,124.52,-51.58,1.01872e+07,968750,-7.91365e-08,2.22504e-07,-6.9354e-08,-0.0013221,0.0381801,-0.0006067,0.0393907,2,6376
12,2.82145e-22,1,9766,25.92,-4.45702e-06,2.00645e-05,-3.90463e-08,2.05536e-05,84.3125,124.52,-51.58,7.60394e+06,843750,-7.44814e-08,2.31603e-07,-7.89459e-08,-0.00193218,0.0388754,-0.00043268,0.0408432,2,6377
12,3.1205e-22,2,9767,94.7,-4.52636e-06,2.00521e-05,-4.79885e-08,2.05567e-05,84.6875,142.25,-36.24,3.72906e+06,656250,-6.48848e-08,2.44932e-07,-9.57673e-08,-0.00166668,0.0389798,-0.000380526,0.0410747,3,3388
12,3.31986e-22,2,9768,94.7,-4.58679e-06,2.00262e-05,-5.40109e-08,2.05448e-05,84.9375,142.25,-36.24,1.14581e+06,531250,-5.95581e-08,2.50947e-07,-1.06038e-07,-0.00156454,0.0381408,-0.000559354,0.0402458,3,3389
12,4.31512e-22,2,9769,94.7,-4.64548e-06,1.99909e-05,-4.44885e-08,2.05236e-05,89.25,142.25,-36.24,3.08325e+06,625000,-5.54845e-08,2.27907e-07,-8.91618e-08,-0.0018448,0.0397422,-0.00131443,0.0421182,3,3390
12,6.20595e-22,1,9770,121.22,-4.69776e-06,2.00321e-05,-2.82323e-08,2.05756e-05,97.75,-21.83,121.47,8.24975e+06,875000,-4.92567e-08,2.0165e-07,-5.735e-08,-0.00113775,0.04708,-0.00026815,0.0481168,2,6378
12,7.15137e-22,1,9771,121.22,-4.74399e-06,2.01236e-05,-2.15402e-08,2.06753e-05,102,-21.83,121.47,1.0833e+07,1e+06,-4.55209e-08,1.91027e-07,-4.31748e-08,-0.000547387,0.0505524,0.00072007,0.050552,2,6379
12,7.15137e-22,1,9772,121.22,-4.7888e-06,2.0175e-05,-2.12132e-08,2.07355e-05,102,-21.83,121.47,1.0833e+07,1e+06,-4.27904e-08,1.80586e-07,-4.25005e-08,-0.000602725,0.0478479,-7.52662e-06,0.0482146,2,6380
12,7.15137e-22,1,9773,121.22,-4.82957e-06,2.02086e-05,-2.06172e-08,2.07777e-05,102,-21.83,121.47,1.0833e+07,1e+06,-3.89379e-08,1.71514e-07,-4.12402e-08,-0.00019156,0.0454896,-2.30319e-05,0.045637,2,6381
12,7.15137e-22,1,9774,121.22,-4.86668e-06,2.0233e-05,-2.01876e-08,2.081e-05,102,-21.83,121.47,1.0833e+07,1e+06,-3.561e-08,1.63923e-07,-4.03749e-08,0.000167621,0.0434479,-2.48504e-05,0.0433966,2,6382
12,7.15137e-22,1,9775,121.22,-4.90079e-06,2.02509e-05,-1.98254e-08,2.08355e-05,102,-21.83,121.47,1.0833e+07,1e+06,-3.29763e-08,1.577e-07,-3.96492e-08,0.000438419,0.0417609,-2.81646e-05,0.0415663,2,6383
12,7.15137e-22,1,9776,121.22,-4.93263e-06,2.02627e-05,-1.94853e-08,2.08544e-05,102,-21.83,121.47,1.0833e+07,1e+06,-3.1186e-08,1.53017e-07,-3.89691e-08,0.00060175,0.0405114,-3.85931e-05,0.0402396,2,6384
12,7.15137e-22,1,9777,121.22,-4.96316e-06,2.02667e-05,-1.91738e-08,2.08656e-05,102,-21.83,121.47,1.0833e+07,1e+06,-3.05599e-08,1.50476e-07,-3.83483e-08,0.000618829,0.0398685,-5.43114e-05,0.0396002,2,6385
12,7.15137e-22,1,9778,121.22,-4.99375e-06,2.02614e-05,-1.89545e-08,2.08677e-05,102,-21.83,121.47,1.0833e+07,1e+06,-3.14749e-08,1.50874e-07,-3.79048e-08,0.000440499,0.0400293,-7.34609e-05,0.0398709,2,6386
12,7.15137e-22,1,9779,121.22,-5.02611e-06,2.02454e-05,-1.89511e-08,2.08599e-05,102,-21.83,121.47,1.0833e+07,1e+06,-3.40112e-08,1.54673e-07,-3.78854e-08,5.44136e-05,0.0410987,-0.000121193,0.0411852,2,6387
12,7.15137e-22,1,9780,121.22,-5.06177e-06,2.02173e-05,-1.93329e-08,2.08414e-05,102,-21.83,121.47,1.0833e+07,1e+06,-3.78647e-08,1.61344e-07,-3.87168e-08,-0.000591812,0.0429506,-0.000342339,0.0435467,2,6388
12,6.03239e-22,1,9781,121.22,-5.10184e-06,2.01706e-05,-1.93725e-08,2.08059e-05,103,-21.83,121.47,1.0833e+07,1e+06,-4.3637e-08,1.69204e-07,-3.89553e-08,-0.00106418,0.0433497,0.000647802,0.0439867,2,6389
12,3.79444e-22,1,9782,150.43,-5.14905e-06,2.01312e-05,-2.49882e-08,2.07792e-05,105,-62.91,143.24,1.0833e+07,1e+06,-4.88412e-08,1.76044e-07,-4.9565e-08,-0.00190394,0.0400546,0.000334232,0.0415188,2,6390
12,2.67547e-22,1,9783,150.43,-5.19952e-06,2.0111e-05,-2.89467e-08,2.07723e-05,106,-62.91,143.24,1.0833e+07,1e+06,-4.92679e-08,1.74285e-07,-5.80474e-08,-0.00255766,0.0366585,-0.000904247,0.0391233,2,6391
12,2.67547e-22,1,9784,150.43,-5.24758e-06,2.00846e-05,-2.68599e-08,2.07589e-05,106,-62.91,143.24,1.0833e+07,1e+06,-4.79266e-08,1.64853e-07,-5.42106e-08,-0.0026761,0.0347447,-0.00098072,0.0372939,2,6392
12,2.88401e-22,1,9785,150.43,-5.29538e-06,2.00584e-05,-2.16902e-08,2.07456e-05,108,-62.91,143.24,8.24975e+06,875000,-7.09029e-08,1.6504e-07,-4.25174e-08,-0.0034011,0.0294612,-0.00045754,0.0324602,2,6393
12,3.30109e-22,2,9786,66.67,-5.38939e-06,2.00215e-05,-1.24916e-08,2.07341e-05,112,165.52,-172.29,3.08325e+06,625000,-1.25752e-07,1.92618e-07,-2.49453e-08,-0.0034677,0.0220184,0.000694051,0.0246785,3,3391
12,3.50963e-22,2,9787,66.67,-5.54688e-06,1.99801e-05,-9.76795e-09,2.07358e-05,114,165.52,-172.29,500000,500000,-1.67342e-07,2.27366e-07,-2.01711e-08,-0.00349402,0.019484,0.000668686,0.0218524,3,3392
12,3.50963e-22,2,9788,66.67,-5.72407e-06,1.9961e-05,-1.34879e-08,2.07655e-05,114,165.52,-172.29,500000,500000,-1.76462e-07,2.44177e-07,-2.69636e-08,-0.00373805,0.0206294,0.000142494,0.0231097,3,3393
12,3.50963e-22,2,9789,66.67,-5.89981e-06,1.99654e-05,-1.79349e-08,2.08188e-05,114,165.52,-172.29,500000,500000,-1.73397e-07,2.52934e-07,-3.58568e-08,-0.00311418,0.0214774,-0.00010475,0.0234791,3,3394
12,3.50963e-22,2,9790,66.67,-6.07087e-06,1.99991e-05,-2.217e-08,2.09002e-05,114,165.52,-172.29,500000,500000,-1.70943e-07,2.64311e-07,-4.37288e-08,-0.00217688,0.0228141,0.000111947,0.024125,3,3395
12,3.50963e-22,2,9791,66.67,-6.24169e-06,2.00622e-05,-2.58736e-08,2.10107e-05,114,165.52,-172.29,500000,500000,-1.69433e-07,2.811e-07,-5.22702e-08,-0.000885554,0.0250518,0.000662097,0.0255117,3,3396
12,3.73126e-22,2,9792,66.67,-6.40973e-06,2.01419e-05,-3.36416e-08,2.11373e-05,114.438,165.52,-172.29,1.14581e+06,531250,-1.48345e-07,2.83956e-07,-6.79793e-08,5.81613e-05,0.0280407,0.000417695,0.0286726,3,3397
12,4.8394e-22,2,9793,66.67,-6.53838e-06,2.01751e-05,-4.74448e-08,2.12082e-05,116.625,165.52,-172.29,4.37488e+06,687500,-8.6203e-08,2.50552e-07,-9.39439e-08,-0.000961259,0.0340899,-0.00106924,0.036639,3,3398
12,6.39079e-22,1,9794,9.52004,-6.58214e-06,2.01248e-05,-5.77624e-08,2.11739e-05,119.688,63.66,-15.5,8.89556e+06,906250,-1.75186e-08,2.15543e-07,-1.15266e-07,-0.0010764,0.0427426,-0.00100614,0.0448468,2,6394
12,7.05568e-22,1,9795,9.52004,-6.57342e-06,2.00701e-05,-6.09265e-08,2.11192e-05,121,63.66,-15.5,1.0833e+07,1e+06,9.93914e-09,2.07029e-07,-1.22159e-07,9.92911e-05,0.0468917,5.94068e-06,0.0473482,2,6395
12,7.05568e-22,1,9796,9.52004,-6.56226e-06,2.00428e-05,-6.12193e-08,2.10899e-05,121,63.66,-15.5,1.0833e+07,1e+06,1.04068e-08,2.05968e-07,-1.22516e-07,0.000114029,0.0465022,-9.07631e-05,0.0469766,2,6396
12,7.05568e-22,1,9797,9.52004,-6.5526e-06,1.99919e-05,-6.03996e-08,2.10384e-05,121,63.66,-15.5,1.0833e+07,1e+06,9.13026e-09,2.05205e-07,-1.20826e-07,0.000100391,0.0462316,2.0411e-05,0.0464148,2,6397
12,7.05673e-22,1,9798,153.16,-1.45869e-08,2.0388e-05,-2.66632e-08,2.03881e-05,9,-104.67,-152.95,1.0833e+07,1e+06,-2.87602e-08,1.62868e-07,-5.3332e-08,-0.00299512,0.042628,0.000407684,0.044087,2,6398
12,7.05673e-22,1,9799,153.16,-4.29335e-08,2.03907e-05,-2.78365e-08,2.03908e-05,9,-104.67,-152.95,1.0833e+07,1e+06,-2.77384e-08,1.61078e-07,-5.57552e-08,-0.00311356,0.041804,-0.000231966,0.0435661,2,6399
12,7.05673e-22,1,9800,153.16,-7.00638e-08,2.0399e-05,-2.66339e-08,2.03991e-05,9,-104.67,-152.95,1.0833e+07,1e+06,-2.60142e-08,1.56864e-07,-5.31106e-08,-0.0025606,0.0408843,0.000211145,0.0421551,2,6400
12,7.05673e-22,1,9801,153.16,-9.4962e-08,2.04051e-05,-2.64311e-08,2.04053e-05,9,-104.67,-152.95,1.0833e+07,1e+06,-2.29215e-08,1.50828e-07,-5.29847e-08,-0.00219328,0.0392498,8.17629e-05,0.0403894,2,6401
12,7.05673e-22,1,9802,153.16,-1.15907e-07,2.03923e-05,-2.84227e-08,2.03926e-05,9,-104.67,-152.95,1.0833e+07,1e+06,-2.04317e-08,1.54879e-07,-5.68995e-08,-0.00187712,0.0402848,3.24138e-05,0.0412805,2,6402
12,7.05673e-22,1,9803,153.16,-1.35825e-07,2.03558e-05,-3.18235e-08,2.03563e-05,9,-104.67,-152.95,1.0833e+07,1e+06,-2.06641e-08,1.71096e-07,-6.39452e-08,-0.00180133,0.0445773,9.53952e-05,0.0455299,2,6403
12,6.07174e-22,1,9804,153.16,-1.57235e-07,2.03076e-05,-3.79057e-08,2.03083e-05,10.75,-104.67,-152.95,8.24975e+06,875000,-4.45588e-08,1.96171e-07,-7.58147e-08,-0.00262107,0.040666,-0.000751456,0.0426213,2,6404
12,4.10176e-22,2,9805,146.27,-2.24943e-07,2.02676e-05,-4.0686e-08,2.02688e-05,14.25,-117.11,-117.58,3.08325e+06,625000,-9.03633e-08,2.19477e-07,-8.1159e-08,-0.0024689,0.0254511,-0.000843395,0.0274564,3,3399
12,3.11677e-22,2,9806,146.27,-3.37962e-07,2.02566e-05,-3.88865e-08,2.02594e-05,16,-117.11,-117.58,500000,500000,-1.11092e-07,2.20085e-07,-7.75971e-08,-0.00190076,0.0157073,-0.000682863,0.0172774,3,3400
12,3.16715e-22,2,9807,146.27,-4.47127e-07,2.02717e-05,-3.64393e-08,2.02767e-05,16.9375,-117.11,-117.58,500000,500000,-1.07921e-07,2.10094e-07,-7.12079e-08,-0.00215969,0.0156864,-0.000583105,0.0180939,3,3401
12,3.36868e-22,2,9808,146.27,-5.53803e-07,2.03045e-05,-2.83367e-08,2.03121e-05,20.6875,-117.11,-117.58,500000,500000,-1.08646e-07,2.03732e-07,-5.74703e-08,-0.00237485,0.0172484,0.000849955,0.0208052,3,3402
12,3.62256e-22,2,9809,58.62,-6.64419e-07,2.03542e-05,-2.38867e-08,2.0365e-05,26.875,158.52,96.68,1.14581e+06,531250,-1.08894e-07,1.98751e-07,-4.89106e-08,-0.00254373,0.0183656,0.00149449,0.0220963,3,3403
12,3.63043e-22,2,9810,58.62,-7.71591e-07,2.04023e-05,-2.51217e-08,2.04169e-05,32.875,158.52,96.68,3.72906e+06,656250,-9.26593e-08,1.90179e-07,-5.03466e-08,-0.00164413,0.0219039,0.000742835,0.0247754,3,3404
12,3.39033e-22,1,9811,151.34,-8.49737e-07,2.04219e-05,-2.66191e-08,2.04396e-05,37.1875,-67.01,136.63,7.60394e+06,843750,-6.10399e-08,1.72824e-07,-5.3657e-08,0.000140695,0.027106,0.000226013,0.0283645,2,6405
12,3.19668e-22,1,9812,151.34,-8.93671e-07,2.04093e-05,-2.88334e-08,2.04289e-05,39.4375,-67.01,136.63,1.01872e+07,968750,-3.85233e-08,1.55122e-07,-5.68364e-08,0.000960684,0.028542,-0.000215768,0.0285484,2,6406
12,3.14826e-22,1,9813,151.34,-9.26784e-07,2.03741e-05,-3.03888e-08,2.03952e-05,40,-67.01,136.63,1.0833e+07,1e+06,-3.61996e-08,1.59359e-07,-6.05324e-08,0.000747094,0.0306526,-0.000355708,0.0306348,2,6407
12,3.14826e-22,1,9814,151.34,-9.6607e-07,2.03286e-05,-3.26135e-08,2.03516e-05,40,-67.01,136.63,1.0833e+07,1e+06,-4.35591e-08,1.80383e-07,-6.55123e-08,0.000216175,0.0351904,-5.77989e-05,0.0354521,2,6408
12,3.14826e-22,1,9815,151.34,-1.0139e-06,2.02906e-05,-3.48934e-08,2.0316e-05,40,-67.01,136.63,1.0833e+07,1e+06,-5.11691e-08,1.97292e-07,-6.98355e-08,-0.000508954,0.038336,-1.16742e-05,0.0389973,2,6409
12,3.14826e-22,1,9816,151.34,-1.06841e-06,2.0267e-05,-3.60833e-08,2.02952e-05,40,-67.01,136.63,1.0833e+07,1e+06,-5.73327e-08,2.07652e-07,-7.20994e-08,-0.00119937,0.0399596,1.32014e-05,0.040903,2,6410
12,3.14826e-22,1,9817,151.34,-1.12857e-06,2.02565e-05,-3.61963e-08,2.02879e-05,40,-67.01,136.63,1.0833e+07,1e+06,-6.20807e-08,2.11937e-07,-7.24105e-08,-0.00195261,0.0403413,1.02499e-06,0.0416085,2,6411
12,3.14826e-22,1,9818,151.34,-1.19257e-06,2.02565e-05,-3.56132e-08,2.02916e-05,40,-67.01,136.63,1.0833e+07,1e+06,-6.52178e-08,2.11757e-07,-7.12189e-08,-0.00259927,0.0399328,2.62365e-06,0.0414867,2,6412
12,3.14826e-22,1,9819,151.34,-1.259e-06,2.02645e-05,-3.45166e-08,2.03036e-05,40,-67.01,136.63,1.0833e+07,1e+06,-6.71173e-08,2.0841e-07,-6.90257e-08,-0.00316261,0.038983,2.42707e-06,0.0408054,2,6413
12,3.14826e-22,1,9820,151.34,-1.3268e-06,2.02792e-05,-3.30389e-08,2.03226e-05,40,-67.01,136.63,1.0833e+07,1e+06,-6.81094e-08,2.02679e-07,-6.60678e-08,-0.00366375,0.0376145,5.53382e-06,0.0396864,2,6414
12,3.14826e-22,1,9821,151.34,-1.39522e-06,2.02996e-05,-3.12299e-08,2.03475e-05,40,-67.01,136.63,1.0833e+07,1e+06,-6.84185e-08,1.94959e-07,-6.24522e-08,-0.00412279,0.0358758,1.55047e-05,0.0381822,2,6415
12,3.14826e-22,1,9822,151.34,-1.46364e-06,2.03252e-05,-2.90846e-08,2.03779e-05,40,-67.01,136.63,1.0833e+07,1e+06,-6.78069e-08,1.85105e-07,-5.82813e-08,-0.00449653,0.0337509,1.18445e-07,0.0362648,2,6416
12,3.14826e-22,1,9823,151.34,-1.53084e-06,2.03536e-05,-2.67223e-08,2.04111e-05,40,-67.01,136.63,1.0833e+07,1e+06,-6.62728e-08,1.72357e-07,-5.33407e-08,-0.00485966,0.0310996,-9.53211e-05,0.0338512,2,6417
12,3.20429e-22,1,9824,151.34,-1.59619e-06,2.03809e-05,-2.39921e-08,2.04433e-05,40.625,-67.01,136.63,1.01872e+07,968750,-6.38073e-08,1.59235e-07,-4.76148e-08,-0.00507228,0.0285988,-0.000123347,0.0315684,2,6418
12,3.42841e-22,1,9825,151.34,-1.65845e-06,2.04023e-05,-2.19408e-08,2.04696e-05,43.125,-67.01,136.63,7.60394e+06,843750,-5.82923e-08,1.5391e-07,-4.44443e-08,-0.00431406,0.0278988,0.000200265,0.0305197,2,6419
12,3.76459e-22,2,9826,34.52,-1.71277e-06,2.04092e-05,-2.36599e-08,2.04809e-05,46.875,1.45,143.65,3.72906e+06,656250,-4.99707e-08,1.57979e-07,-4.79299e-08,-0.00283947,0.0285978,0.000501606,0.0302908,3,3405
12,3.9887e-22,2,9827,34.52,-1.75839e-06,2.04017e-05,-2.72627e-08,2.04773e-05,49.375,1.45,143.65,1.14581e+06,531250,-4.4342e-08,1.59028e-07,-5.38536e-08,-0.00238889,0.0280179,5.85634e-05,0.029463,3,3406
12,4.04473e-22,2,9828,34.52,-1.80146e-06,2.03964e-05,-2.82954e-08,2.04758e-05,50,1.45,143.65,500000,500000,-4.38656e-08,1.57748e-07,-5.58962e-08,-0.0026774,0.0272634,-0.000347572,0.0289536,3,3407
12,4.04473e-22,2,9829,34.52,-1.84612e-06,2.03942e-05,-2.73314e-08,2.04776e-05,50,1.45,143.65,500000,500000,-4.46996e-08,1.57825e-07,-5.49681e-08,-0.00267715,0.0272306,-0.000243613,0.0288657,3,3408
12,4.04473e-22,2,9830,34.52,-1.89085e-06,2.0389e-05,-2.69773e-08,2.04765e-05,50,1.45,143.65,500000,500000,-4.41767e-08,1.57582e-07,-5.4303e-08,-0.00241608,0.0272142,-9.33509e-05,0.0286182,3,3409
12,4.04473e-22,2,9831,34.52,-1.93448e-06,2.03847e-05,-2.72612e-08,2.04763e-05,50,1.45,143.65,500000,500000,-4.35698e-08,1.591e-07,-5.443e-08,-0.00203387,0.0275679,5.99092e-06,0.0286931,3,3410
12,4.04473e-22,2,9832,34.52,-1.97799e-06,2.038e-05,-2.72643e-08,2.04758e-05,50,1.45,143.65,500000,500000,-4.34221e-08,1.60543e-07,-5.45245e-08,-0.00167352,0.0278494,-1.0469e-05,0.0287615,3,3411
12,4.04473e-22,2,9833,34.52,-2.02132e-06,2.03732e-05,-2.72085e-08,2.04732e-05,50,1.45,143.65,500000,500000,-4.34121e-08,1.62409e-07,-5.4416e-08,-0.00119698,0.0282198,-2.78098e-05,0.0288731,3,3412
12,4.04473e-22,2,9834,34.52,-2.06482e-06,2.03626e-05,-2.65863e-08,2.0467e-05,50,1.45,143.65,500000,500000,-4.41418e-08,1.65321e-07,-5.32417e-08,-0.000554833,0.0288562,9.64489e-05,0.0291367,3,3413
12,4.04473e-22,2,9835,34.52,-2.1096e-06,2.03462e-05,-2.55619e-08,2.04553e-05,50,1.45,143.65,500000,500000,-4.43928e-08,1.69329e-07,-5.12868e-08,0.000353291,0.0298518,0.000580565,0.0295,3,3414
12,3.80858e-22,2,9836,34.52,-2.1536e-06,2.03386e-05,-3.19592e-08,2.04524e-05,53.0625,1.45,143.65,500000,500000,-4.57816e-08,1.81872e-07,-6.37154e-08,0.000743808,0.029863,-0.00035388,0.0304971,3,3415
12,3.33627e-22,2,9837,83.31,-2.20117e-06,2.03247e-05,-3.66716e-08,2.04436e-05,59.1875,24.35,148.62,500000,500000,-5.2372e-08,1.89863e-07,-7.2986e-08,0.000303163,0.026567,9.31187e-05,0.02742,3,3416
12,3.10011e-22,2,9838,83.31,-2.25835e-06,2.03031e-05,-3.47112e-08,2.04283e-05,62.25,24.35,148.62,500000,500000,-6.10502e-08,1.8947e-07,-6.9453e-08,-0.000560858,0.0238943,0.00131452,0.0241736,3,3417
12,3.10011e-22,2,9839,83.31,-2.32327e-06,2.02967e-05,-3.42461e-08,2.04293e-05,62.25,24.35,148.62,500000,500000,-6.7323e-08,1.92148e-07,-6.86484e-08,-0.00141431,0.0240589,0.000837174,0.0251132,3,3418
12,3.10011e-22,2,9840,83.31,-2.39299e-06,2.0298e-05,-3.32966e-08,2.04386e-05,62.25,24.35,148.62,500000,500000,-7.04992e-08,1.92396e-07,-6.66849e-08,-0.00187369,0.0241354,0.000817012,0.0255342,3,3419
12,3.10011e-22,2,9841,83.31,-2.46427e-06,2.03042e-05,-3.28988e-08,2.04532e-05,62.25,24.35,148.62,500000,500000,-7.17423e-08,1.91871e-07,-6.58091e-08,-0.00215856,0.0241501,0.000714061,0.0258344,3,3420
12,3.10011e-22,2,9842,83.31,-2.53648e-06,2.03113e-05,-3.26879e-08,2.04691e-05,62.25,24.35,148.62,500000,500000,-7.37356e-08,1.93341e-07,-6.54879e-08,-0.00248816,0.0244531,0.00065606,0.0264239,3,3421
12,3.10011e-22,2,9843,83.31,-2.61174e-06,2.03149e-05,-3.22431e-08,2.04822e-05,62.25,24.35,148.62,500000,500000,-7.73627e-08,1.97001e-07,-6.51937e-08,-0.00295458,0.0250385,0.000674056,0.0273322,3,3422
12,3.17789e-22,2,9844,83.31,-2.6912e-06,2.0309e-05,-3.46917e-08,2.04866e-05,62.3125,24.35,148.62,1.14581e+06,531250,-7.88824e-08,1.98329e-07,-6.93654e-08,-0.00395414,0.0254114,-0.000286587,0.0289348,3,3423
12,3.46878e-22,2,9845,83.31,-2.7695e-06,2.0266e-05,-3.73435e-08,2.04544e-05,65.0625,24.35,148.62,2.43744e+06,593750,-8.03866e-08,2.15952e-07,-7.32609e-08,-0.00304308,0.030661,-0.000585529,0.0338206,3,3424
12,3.81725e-22,2,9846,46.91,-2.85198e-06,2.02334e-05,-3.01277e-08,2.04334e-05,70.375,-42.47,175.69,3.08325e+06,625000,-8.72135e-08,2.29925e-07,-6.03077e-08,-0.000390104,0.0364107,-9.51565e-05,0.0372875,3,3425
12,3.95892e-22,2,9847,46.91,-2.94393e-06,2.02339e-05,-2.17615e-08,2.0447e-05,73.75,-42.47,175.69,2.43744e+06,593750,-9.3779e-08,2.21277e-07,-4.43451e-08,0.000142069,0.0361817,-0.000441224,0.0365103,3,3426
12,3.97155e-22,2,9848,46.91,-3.03953e-06,2.02371e-05,-1.83541e-08,2.04641e-05,75.25,-42.47,175.69,1.14581e+06,531250,-9.61756e-08,2.19201e-07,-3.66535e-08,0.000379532,0.0361666,-4.60169e-05,0.0361036,3,3427
12,3.97787e-22,2,9849,46.91,-3.13628e-06,2.02458e-05,-1.67273e-08,2.04873e-05,76,-42.47,175.69,500000,500000,-9.58132e-08,2.20069e-07,-3.34344e-08,0.00109202,0.0366419,0.000229686,0.0360109,3,3428
12,3.97787e-22,2,9850,46.91,-3.23116e-06,2.02474e-05,-1.73227e-08,2.05036e-05,76,-42.47,175.69,500000,500000,-9.39635e-08,2.18508e-07,-3.45857e-08,0.00125521,0.036368,-2.01248e-05,0.0357853,3,3429
12,3.97787e-22,2,9851,46.91,-3.32421e-06,2.02464e-05,-1.73779e-08,2.05174e-05,76,-42.47,175.69,500000,500000,-9.30922e-08,2.18365e-07,-3.47196e-08,0.00143409,0.0364084,8.64592e-06,0.0357277,3,3430
12,3.97787e-22,2,9852,46.91,-3.41735e-06,2.0245e-05,-1.72636e-08,2.05314e-05,76,-42.47,175.69,500000,500000,-9.35231e-08,2.18795e-07,-3.45171e-08,0.00143613,0.0364623,3.73103e-05,0.0357646,3,3431
12,3.97787e-22,2,9853,46.91,-3.51125e-06,2.02455e-05,-1.70874e-08,2.05478e-05,76,-42.47,175.69,500000,500000,-9.40094e-08,2.18757e-07,-3.41706e-08,0.00138262,0.0364135,6.50814e-05,0.035722,3,3432
12,3.97787e-22,2,9854,46.91,-3.60536e-06,2.02504e-05,-1.68639e-08,2.05688e-05,76,-42.47,175.69,500000,500000,-9.3342e-08,2.16865e-07,-3.37285e-08,0.00136463,0.0360785,9.11887e-05,0.0353747,3,3433
12,3.97787e-22,2,9855,46.91,-3.69794e-06,2.0261e-05,-1.65775e-08,2.05957e-05,76,-42.47,175.69,500000,500000,-9.04859e-08,2.11903e-07,-3.31822e-08,0.00146143,0.0352997,0.000121109,0.0345289,3,3434
12,3.97787e-22,2,9856,46.91,-3.78634e-06,2.02774e-05,-1.6307e-08,2.06279e-05,76,-42.47,175.69,500000,500000,-8.48473e-08,2.03442e-07,-3.26233e-08,0.00173594,0.0340441,0.00015584,0.0331238,3,3435
12,3.97787e-22,2,9857,46.91,-3.86763e-06,2.02988e-05,-1.642e-08,2.0664e-05,76,-42.47,175.69,500000,500000,-7.71579e-08,1.93114e-07,-3.30059e-08,0.00211507,0.0325288,2.9366e-05,0.0315114,3,3436
12,3.89002e-22,2,9858,46.91,-3.94065e-06,2.03255e-05,-1.86799e-08,2.0704e-05,76.5,-42.47,175.69,1.14581e+06,531250,-6.85123e-08,1.87913e-07,-3.72519e-08,0.00261772,0.0322179,-0.000127454,0.0311261,3,3437
12,3.52647e-22,2,9859,46.91,-4.00466e-06,2.03489e-05,-2.21087e-08,2.07392e-05,78.6875,-42.47,175.69,3.72906e+06,656250,-5.90313e-08,1.80131e-07,-4.37615e-08,0.00212198,0.0319371,-8.1183e-05,0.0312259,3,3438
12,3.06293e-22,1,9860,25.92,-4.05871e-06,2.03596e-05,-2.31325e-08,2.07602e-05,81.5625,124.52,-51.58,6.95812e+06,812500,-5.20634e-08,1.68373e-07,-4.66567e-08,0.00118734,0.03084,0.000265512,0.0304758,2,6420
12,2.79937e-22,1,9861,25.92,-4.10878e-06,2.03667e-05,-2.38484e-08,2.0777e-05,83.0625,124.52,-51.58,8.89556e+06,906250,-5.12969e-08,1.62523e-07,-4.82836e-08,0.000452221,0.0296095,9.55122e-05,0.0296195,2,6421
12,2.64796e-22,1,9862,25.92,-4.16131e-06,2.03691e-05,-2.6205e-08,2.07899e-05,83.6875,124.52,-51.58,1.01872e+07,968750,-5.35339e-08,1.63143e-07,-5.18023e-08,-4.54973e-06,0.0287734,-0.000424051,0.0291013,2,6422
12,2.57225e-22,1,9863,25.92,-4.21585e-06,2.03615e-05,-2.71511e-08,2.07933e-05,84,124.52,-51.58,1.0833e+07,1e+06,-5.66454e-08,1.68302e-07,-5.3841e-08,5.71281e-05,0.029084,-0.000482057,0.0293186,2,6423
12,2.57225e-22,1,9864,25.92,-4.2746e-06,2.03459e-05,-2.73653e-08,2.07901e-05,84,124.52,-51.58,1.0833e+07,1e+06,-6.32088e-08,1.78846e-07,-5.49257e-08,-0.000227485,0.0306539,-0.000332079,0.0309813,2,6424
12,2.57225e-22,1,9865,25.92,-4.34227e-06,2.03221e-05,-2.91257e-08,2.07809e-05,84,124.52,-51.58,1.0833e+07,1e+06,-7.12469e-08,1.96316e-07,-5.84316e-08,-0.000601493,0.0337472,-0.000113688,0.0341279,2,6425
12,2.57225e-22,1,9866,25.92,-4.41709e-06,2.02986e-05,-3.17603e-08,2.07737e-05,84,124.52,-51.58,1.0833e+07,1e+06,-7.5266e-08,2.10136e-07,-6.32259e-08,-0.000958813,0.0365119,-3.93826e-05,0.0370517,2,6426
12,2.62209e-22,1,9867,25.92,-4.4928e-06,2.02867e-05,-3.36513e-08,2.07783e-05,84.0625,124.52,-51.58,1.01872e+07,968750,-7.3401e-08,2.14798e-07,-6.70099e-08,-0.00125348,0.0376107,3.28086e-05,0.0385922,2,6427
12,2.82145e-22,1,9868,25.92,-4.56389e-06,2.02858e-05,-3.65011e-08,2.07929e-05,84.3125,124.52,-51.58,7.60394e+06,843750,-6.56692e-08,2.20964e-07,-7.47042e-08,-0.000879298,0.0380838,0.000319841,0.0392948,2,6428
12,3.1205e-22,2,9869,94.7,-4.62414e-06,2.02735e-05,-4.57143e-08,2.07942e-05,84.6875,142.25,-36.24,3.72906e+06,656250,-5.53987e-08,2.34504e-07,-9.13522e-08,-2.52294e-05,0.0382243,0.000224305,0.0392983,3,3439
12,4.26528e-22,2,9870,94.7,-4.67469e-06,2.02242e-05,-4.71401e-08,2.07575e-05,89.1875,142.25,-36.24,3.72906e+06,656250,-4.66813e-08,2.33978e-07,-9.2422e-08,0.000696137,0.042382,-0.000986247,0.0433784,3,3440
12,6.20595e-22,1,9871,121.22,-4.7175e-06,2.02391e-05,-3.27998e-08,2.07817e-05,97.75,-21.83,121.47,8.24975e+06,875000,-3.914e-08,2.12617e-07,-6.59948e-08,0.00173103,0.0501164,-0.000371674,0.0497529,2,6429
12,7.15137e-22,1,9872,121.22,-4.75297e-06,2.03148e-05,-2.38962e-08,2.08634e-05,102,-21.83,121.47,1.0833e+07,1e+06,-3.33787e-08,1.91128e-07,-4.83631e-08,0.00236282,0.0513184,0.000541374,0.0499669,2,6430
12,7.15137e-22,1,9873,121.22,-4.78426e-06,2.03537e-05,-2.32962e-08,2.09084e-05,102,-21.83,121.47,1.0833e+07,1e+06,-2.97097e-08,1.77214e-07,-4.65182e-08,0.00239886,0.0477031,-4.33274e-05,0.046647,2,6431
12,7.15137e-22,1,9874,121.22,-4.81239e-06,2.0378e-05,-2.22419e-08,2.09386e-05,102,-21.83,121.47,1.0833e+07,1e+06,-2.72789e-08,1.67677e-07,-4.44787e-08,0.00245133,0.0451206,-2.48236e-05,0.0440116,2,6432
12,7.15137e-22,1,9875,121.22,-4.83882e-06,2.0395e-05,-2.15074e-08,2.09612e-05,102,-21.83,121.47,1.0833e+07,1e+06,-2.57983e-08,1.60522e-07,-4.30164e-08,0.00238769,0.0430906,-1.92241e-05,0.0419848,2,6433
12,7.15137e-22,1,9876,121.22,-4.86399e-06,2.04072e-05,-2.09805e-08,2.09789e-05,102,-21.83,121.47,1.0833e+07,1e+06,-2.47179e-08,1.55094e-07,-4.19611e-08,0.00232215,0.0415279,-2.28543e-05,0.0404405,2,6434
12,7.15137e-22,1,9877,121.22,-4.88825e-06,2.04149e-05,-2.06038e-08,2.09919e-05,102,-21.83,121.47,1.0833e+07,1e+06,-2.40997e-08,1.51405e-07,-4.1208e-08,0.0022487,0.0404649,-3.55139e-05,0.0394138,2,6435
12,7.15137e-22,1,9878,121.22,-4.91219e-06,2.0417e-05,-2.03749e-08,2.09996e-05,102,-21.83,121.47,1.0833e+07,1e+06,-2.4235e-08,1.4991e-07,-4.07487e-08,0.00212621,0.0400232,-5.19274e-05,0.0390375,2,6436
12,7.15137e-22,1,9879,121.22,-4.93672e-06,2.04126e-05,-2.03242e-08,2.10011e-05,102,-21.83,121.47,1.0833e+07,1e+06,-2.54289e-08,1.51184e-07,-4.06627e-08,0.00190944,0.0403408,-7.01764e-05,0.0394683,2,6437
12,7.15137e-22,1,9880,121.22,-4.96305e-06,2.04007e-05,-2.05899e-08,2.09958e-05,102,-21.83,121.47,1.0833e+07,1e+06,-2.78152e-08,1.55521e-07,-4.11804e-08,0.00155452,0.0414731,-0.00013744,0.0408111,2,6438
12,7.15137e-22,1,9881,121.22,-4.99235e-06,2.03799e-05,-2.15372e-08,2.09825e-05,102,-21.83,121.47,1.0833e+07,1e+06,-3.22283e-08,1.63119e-07,-4.28788e-08,0.000703175,0.0434105,-0.00048628,0.0433623,2,6439
12,6.03239e-22,1,9882,121.22,-5.0275e-06,2.03428e-05,-2.14781e-08,2.09548e-05,103,-21.83,121.47,1.0833e+07,1e+06,-3.97031e-08,1.74335e-07,-4.31115e-08,0.000118107,0.0445697,0.000678665,0.0445043,2,6440
12,3.79444e-22,1,9883,150.43,-5.07176e-06,2.03094e-05,-2.63271e-08,2.09332e-05,105,-62.91,143.24,1.0833e+07,1e+06,-4.67481e-08,1.80568e-07,-5.30036e-08,-0.00108699,0.0408269,0.000320347,0.0417226,2,6441
12,2.67547e-22,1,9884,150.43,-5.121e-06,2.02874e-05,-3.06721e-08,2.09238e-05,106,-62.91,143.24,1.0833e+07,1e+06,-4.93024e-08,1.78997e-07,-6.14601e-08,-0.00226025,0.0372358,-0.00115203,0.0394745,2,6442
12,2.7276e-22,1,9885,150.43,-5.17037e-06,2.02526e-05,-2.72656e-08,2.09021e-05,106.5,-62.91,143.24,1.01872e+07,968750,-5.53691e-08,1.74629e-07,-5.38806e-08,-0.00273979,0.0353717,-0.000516252,0.0378439,2,6443
12,2.98828e-22,1,9886,150.43,-5.23174e-06,2.02237e-05,-1.85358e-08,2.08895e-05,109,-62.91,143.24,6.95812e+06,812500,-8.96443e-08,1.78433e-07,-3.69134e-08,-0.00407883,0.0286149,0.000340806,0.0317788,2,6444
12,3.35323e-22,2,9887,66.67,-5.34965e-06,2.02149e-05,-9.46007e-09,2.09107e-05,112.5,165.52,-172.29,2.43744e+06,593750,-1.45943e-07,2.04354e-07,-1.95228e-08,-0.00464505,0.0212385,0.000762522,0.0244314,3,3441
12,3.50963e-22,2,9888,66.67,-5.52362e-06,2.0208e-05,-7.37693e-09,2.09493e-05,114,165.52,-172.29,500000,500000,-1.7976e-07,2.29626e-07,-1.47712e-08,-0.00472924,0.0190177,0.000381068,0.0222158,3,3442
12,3.50963e-22,2,9889,66.67,-5.70917e-06,2.02014e-05,-8.73856e-09,2.09926e-05,114,165.52,-172.29,500000,500000,-1.83912e-07,2.37263e-07,-1.74672e-08,-0.00477606,0.0196427,0.000133206,0.0229364,3,3443
12,3.50963e-22,2,9890,66.67,-5.89145e-06,2.02119e-05,-1.11274e-08,2.1053e-05,114,165.52,-172.29,500000,500000,-1.79806e-07,2.39232e-07,-2.14567e-08,-0.00426073,0.0199488,0.000183166,0.022731,3,3444
12,3.50963e-22,2,9891,66.67,-6.06879e-06,2.02561e-05,-1.4071e-08,2.11457e-05,114,165.52,-172.29,500000,500000,-1.75773e-07,2.47585e-07,-2.84468e-08,-0.00335626,0.0210281,0.000454808,0.0229987,3,3445
12,3.73126e-22,2,9892,66.67,-6.24299e-06,2.03363e-05,-2.20485e-08,2.1273e-05,114.438,165.52,-172.29,1.14581e+06,531250,-1.57834e-07,2.5441e-07,-4.5372e-08,-0.00263455,0.0240236,0.000189118,0.0260641,3,3446
12,4.61777e-22,2,9893,66.67,-6.38445e-06,2.04074e-05,-3.50286e-08,2.13828e-05,116.188,165.52,-172.29,3.72906e+06,656250,-1.05219e-07,2.28059e-07,-6.88698e-08,-0.00315869,0.0278858,-0.00103836,0.0316089,3,3447
12,5.94754e-22,1,9894,9.52003,-6.45343e-06,2.03985e-05,-4.45944e-08,2.1395e-05,118.812,63.66,-15.5,7.60394e+06,843750,-4.31222e-08,1.93017e-07,-8.85422e-08,-0.00356762,0.0338877,-0.00137498,0.0378357,2,6445
12,6.83405e-22,1,9895,9.52003,-6.4707e-06,2.03283e-05,-5.14898e-08,2.13334e-05,120.562,63.66,-15.5,1.01872e+07,968750,-1.06053e-08,1.9434e-07,-1.0384e-07,-0.0029302,0.0424118,-0.000228765,0.0446799,2,6446
12,7.05568e-22,1,9896,9.52004,-6.47464e-06,2.02771e-05,-5.74473e-08,2.12858e-05,121,63.66,-15.5,1.0833e+07,1e+06,-8.35447e-10,2.06354e-07,-1.1499e-07,-0.00211983,0.04683,0.000164335,0.0483026,2,6447
12,7.05568e-22,1,9897,9.52004,-6.47237e-06,2.0251e-05,-6.09748e-08,2.12602e-05,121,63.66,-15.5,1.0833e+07,1e+06,4.1973e-09,2.10217e-07,-1.21921e-07,-0.00127934,0.0473665,-0.000238624,0.0485352,2,6448
12,7.05568e-22,1,9898,9.52004,-6.46625e-06,2.0205e-05,-6.35877e-08,2.12146e-05,121,63.66,-15.5,1.0833e+07,1e+06,6.49458e-09,2.19752e-07,-1.27058e-07,-0.000469091,0.0495316,0.000104702,0.0499133,2,6449
12,7.05673e-22,1,9899,153.16,-1.3771e-08,2.05495e-05,-2.51593e-08,2.05495e-05,9,-104.67,-152.95,1.0833e+07,1e+06,-2.71287e-08,1.60602e-07,-5.02885e-08,-0.00229553,0.0424024,0.0011278,0.0431309,2,6450
12,7.05673e-22,1,9900,153.16,-4.04863e-08,2.05506e-05,-2.65491e-08,2.05507e-05,9,-104.67,-152.95,1.0833e+07,1e+06,-2.59648e-08,1.59375e-07,-5.31403e-08,-0.00242455,0.0417229,0.000491246,0.0427614,2,6451
12,7.05673e-22,1,9901,153.16,-6.57006e-08,2.0555e-05,-2.57574e-08,2.05552e-05,9,-104.67,-152.95,1.0833e+07,1e+06,-2.42614e-08,1.55942e-07,-5.1566e-08,-0.00198842,0.0409329,0.000768224,0.0416058,2,6452
12,7.05673e-22,1,9902,153.16,-8.90091e-08,2.05571e-05,-2.59934e-08,2.05573e-05,9,-104.67,-152.95,1.0833e+07,1e+06,-2.25194e-08,1.5313e-07,-5.19206e-08,-0.00181431,0.0401482,0.000672394,0.0407709,2,6453
12,7.05673e-22,1,9903,153.16,-1.10739e-07,2.05488e-05,-2.75039e-08,2.05491e-05,9,-104.67,-152.95,1.0833e+07,1e+06,-2.22434e-08,1.58073e-07,-5.49469e-08,-0.00191191,0.0413853,0.000619922,0.0420955,2,6454
12,7.05673e-22,1,9904,153.16,-1.33496e-07,2.05278e-05,-2.94292e-08,2.05282e-05,9,-104.67,-152.95,1.0833e+07,1e+06,-2.44262e-08,1.72891e-07,-5.86632e-08,-0.00202776,0.0454592,0.00108292,0.0460433,2,6455
12,6.07174e-22,1,9905,153.16,-1.59592e-07,2.05029e-05,-3.32013e-08,2.05036e-05,10.75,-104.67,-152.95,8.24975e+06,875000,-4.84957e-08,1.93172e-07,-6.61803e-08,-0.00286007,0.0408092,0.000588698,0.0422602,2,6456
12,4.10176e-22,2,9906,146.27,-2.30487e-07,2.04832e-05,-3.32514e-08,2.04845e-05,14.25,-117.11,-117.58,3.08325e+06,625000,-9.35025e-08,2.10159e-07,-6.67397e-08,-0.00273975,0.024862,0.000742078,0.026247,3,3448
12,3.11677e-22,2,9907,146.27,-3.46597e-07,2.04754e-05,-3.06451e-08,2.04784e-05,16,-117.11,-117.58,500000,500000,-1.15069e-07,2.14299e-07,-6.22154e-08,-0.00188562,0.0159437,0.00141395,0.0165098,3,3449
12,3.11677e-22,2,9908,146.27,-4.60625e-07,2.0484e-05,-3.25087e-08,2.04892e-05,16,-117.11,-117.58,500000,500000,-1.09561e-07,2.08448e-07,-6.47416e-08,-0.0017517,0.0154464,0.000578252,0.0164523,3,3450
12,3.16715e-22,2,9909,146.27,-5.65719e-07,2.05066e-05,-3.07322e-08,2.05144e-05,16.9375,-117.11,-117.58,500000,500000,-9.99241e-08,1.96688e-07,-5.96643e-08,-0.00117857,0.0158177,0.000868398,0.0173836,3,3451
12,3.27382e-22,2,9910,146.27,-6.60473e-07,2.05374e-05,-2.3064e-08,2.05481e-05,23.3125,-117.11,-117.58,2.43744e+06,593750,-8.07688e-08,1.75387e-07,-4.77452e-08,-0.000283559,0.018824,0.00202029,0.0203836,3,3452
12,3.2876e-22,1,9911,151.34,-7.27257e-07,2.05676e-05,-2.33098e-08,2.05805e-05,33.8125,-67.01,136.63,6.95812e+06,812500,-5.09521e-08,1.55817e-07,-4.76224e-08,0.0012982,0.0242587,0.00142596,0.0245929,2,6457
12,3.19668e-22,1,9912,151.34,-7.62377e-07,2.0576e-05,-2.80731e-08,2.05902e-05,39.4375,-67.01,136.63,1.01872e+07,968750,-3.11666e-08,1.48601e-07,-5.46865e-08,0.00246164,0.027867,0.000458263,0.0268324,2,6458
12,3.14826e-22,1,9913,151.34,-7.8959e-07,2.05607e-05,-2.86289e-08,2.05758e-05,40,-67.01,136.63,1.0833e+07,1e+06,-2.92193e-08,1.51667e-07,-5.73597e-08,0.00238661,0.029347,0.000530201,0.0278832,2,6459
12,3.14826e-22,1,9914,151.34,-8.20816e-07,2.05369e-05,-2.99191e-08,2.05533e-05,40,-67.01,136.63,1.0833e+07,1e+06,-3.46511e-08,1.65093e-07,-5.99551e-08,0.00197615,0.0322351,0.000728816,0.0309611,2,6460
12,3.14826e-22,1,9915,151.34,-8.58892e-07,2.05106e-05,-3.19099e-08,2.05286e-05,40,-67.01,136.63,1.0833e+07,1e+06,-4.2787e-08,1.83436e-07,-6.38155e-08,0.00125479,0.0358797,0.00095158,0.0349184,2,6461
12,3.14826e-22,1,9916,151.34,-9.0639e-07,2.04888e-05,-3.35598e-08,2.05089e-05,40,-67.01,136.63,1.0833e+07,1e+06,-5.18115e-08,1.98895e-07,-6.71494e-08,0.000127501,0.0385385,0.000956885,0.0381604,2,6462
12,3.14826e-22,1,9917,151.34,-9.62515e-07,2.04749e-05,-3.43319e-08,2.04975e-05,40,-67.01,136.63,1.0833e+07,1e+06,-5.9357e-08,2.08434e-07,-6.86846e-08,-0.000987147,0.0399198,0.000917611,0.0401211,2,6463
12,3.14826e-22,1,9918,151.34,-1.0251e-06,2.04685e-05,-3.42518e-08,2.04942e-05,40,-67.01,136.63,1.0833e+07,1e+06,-6.49366e-08,2.12617e-07,-6.85064e-08,-0.00195183,0.0402982,0.000899733,0.0409995,2,6464
12,3.14826e-22,1,9919,151.34,-1.09239e-06,2.04684e-05,-3.35314e-08,2.04976e-05,40,-67.01,136.63,1.0833e+07,1e+06,-6.88802e-08,2.12587e-07,-6.7069e-08,-0.00280287,0.0399235,0.000868587,0.0410908,2,6465
12,3.14826e-22,1,9920,151.34,-1.16286e-06,2.04732e-05,-3.23527e-08,2.05062e-05,40,-67.01,136.63,1.0833e+07,1e+06,-7.14553e-08,2.09348e-07,-6.4708e-08,-0.00354248,0.0389889,0.000831222,0.0405812,2,6466
12,3.14826e-22,1,9921,151.34,-1.2353e-06,2.04821e-05,-3.08222e-08,2.05193e-05,40,-67.01,136.63,1.0833e+07,1e+06,-7.28759e-08,2.03523e-07,-6.1647e-08,-0.00417858,0.0375951,0.000786734,0.0395701,2,6467
12,3.14826e-22,1,9922,151.34,-1.30862e-06,2.04946e-05,-2.90085e-08,2.05364e-05,40,-67.01,136.63,1.0833e+07,1e+06,-7.32121e-08,1.95448e-07,-5.80164e-08,-0.0047024,0.035798,0.000737981,0.0381029,2,6468
12,3.14826e-22,1,9923,151.34,-1.38172e-06,2.05101e-05,-2.69552e-08,2.05566e-05,40,-67.01,136.63,1.0833e+07,1e+06,-7.25273e-08,1.85236e-07,-5.38976e-08,-0.00513369,0.0336201,0.00066586,0.0362214,2,6469
12,3.14826e-22,1,9924,151.34,-1.45367e-06,2.05266e-05,-2.47527e-08,2.05781e-05,40,-67.01,136.63,1.0833e+07,1e+06,-7.10839e-08,1.73723e-07,-4.956e-08,-0.00550025,0.0312693,0.000542336,0.0341646,2,6470
12,3.14826e-22,1,9925,151.34,-1.52389e-06,2.05416e-05,-2.26775e-08,2.05981e-05,40,-67.01,136.63,1.0833e+07,1e+06,-6.98204e-08,1.62552e-07,-4.52219e-08,-0.00591405,0.0290624,0.000401931,0.032281,2,6471
12,3.20429e-22,1,9926,151.34,-1.59331e-06,2.05541e-05,-2.05356e-08,2.06158e-05,40.625,-67.01,136.63,1.01872e+07,968750,-6.91361e-08,1.53692e-07,-4.07443e-08,-0.00632079,0.0274008,0.000359118,0.0309962,2,6472
12,3.42841e-22,1,9927,151.34,-1.66216e-06,2.05632e-05,-1.9062e-08,2.06303e-05,43.125,-67.01,136.63,7.60394e+06,843750,-6.66635e-08,1.52125e-07,-3.83679e-08,-0.00598156,0.0272595,0.000595891,0.0308176,2,6473
12,3.70856e-22,2,9928,34.52,-1.72664e-06,2.05592e-05,-1.98822e-08,2.06316e-05,46.25,1.45,143.65,4.37488e+06,687500,-6.04395e-08,1.55507e-07,-4.04407e-08,-0.00458878,0.0278351,0.000966612,0.0304164,3,3453
12,3.87665e-22,2,9929,34.52,-1.78304e-06,2.05548e-05,-2.25541e-08,2.0632e-05,48.125,1.45,143.65,2.43744e+06,593750,-5.30439e-08,1.57604e-07,-4.54171e-08,-0.00323405,0.0280419,0.000781323,0.0297511,3,3454
12,3.9887e-22,2,9930,34.52,-1.83273e-06,2.05529e-05,-2.50772e-08,2.06345e-05,49.375,1.45,143.65,1.14581e+06,531250,-4.95756e-08,1.58208e-07,-4.95713e-08,-0.00289673,0.0277115,0.000163798,0.0293607,3,3455
12,4.04473e-22,2,9931,34.52,-1.88219e-06,2.05472e-05,-2.574e-08,2.06333e-05,50,1.45,143.65,500000,500000,-5.12694e-08,1.59399e-07,-5.10029e-08,-0.00321091,0.0273837,-0.000293809,0.0292887,3,3456
12,4.04473e-22,2,9932,34.52,-1.93527e-06,2.05452e-05,-2.51645e-08,2.06362e-05,50,1.45,143.65,500000,500000,-5.41844e-08,1.6153e-07,-5.04677e-08,-0.00336307,0.0276213,-0.000483325,0.0296813,3,3457
12,4.04473e-22,2,9933,34.52,-1.99056e-06,2.05425e-05,-2.46599e-08,2.06387e-05,50,1.45,143.65,500000,500000,-5.6184e-08,1.63439e-07,-4.93479e-08,-0.00321853,0.0279273,-0.000503435,0.0298972,3,3458
12,4.04473e-22,2,9934,34.52,-2.04763e-06,2.0538e-05,-2.40168e-08,2.06399e-05,50,1.45,143.65,500000,500000,-5.89248e-08,1.66095e-07,-4.79617e-08,-0.00309341,0.0283645,-0.000522048,0.0302668,3,3459
12,4.04473e-22,2,9935,34.52,-2.10841e-06,2.05311e-05,-2.22206e-08,2.06391e-05,50,1.45,143.65,500000,500000,-6.46311e-08,1.70215e-07,-4.43929e-08,-0.00314759,0.0290973,-0.000371785,0.030983,3,3460
12,4.04473e-22,2,9936,34.52,-2.1769e-06,2.05197e-05,-1.91427e-08,2.06348e-05,50,1.45,143.65,500000,500000,-7.07048e-08,1.76327e-07,-3.86223e-08,-0.00293225,0.0304875,0.000450867,0.0319113,3,3461
12,3.84755e-22,2,9937,34.52,-2.24982e-06,2.05213e-05,-2.56328e-08,2.06443e-05,53,1.45,143.65,500000,500000,-7.16776e-08,1.81059e-07,-5.16434e-08,-0.00364432,0.028626,-0.000847401,0.0314947,3,3462
12,3.45318e-22,2,9938,83.31,-2.32025e-06,2.05139e-05,-3.71251e-08,2.06447e-05,59,24.35,148.62,500000,500000,-6.94651e-08,1.86841e-07,-7.38774e-08,-0.00454119,0.0239764,-0.00125274,0.0275315,3,3463
12,3.256e-22,2,9939,83.31,-2.38875e-06,2.04933e-05,-4.1432e-08,2.06321e-05,62,24.35,148.62,500000,500000,-6.85833e-08,1.93305e-07,-8.24699e-08,-0.00453266,0.0223021,-0.000107986,0.0249382,3,3464
12,3.256e-22,2,9940,83.31,-2.45742e-06,2.04888e-05,-4.24883e-08,2.06357e-05,62,24.35,148.62,500000,500000,-6.82705e-08,1.95658e-07,-8.50427e-08,-0.00454496,0.0226817,-0.000436523,0.0255228,3,3465
12,3.256e-22,2,9941,83.31,-2.52529e-06,2.04903e-05,-4.26834e-08,2.06453e-05,62,24.35,148.62,500000,500000,-6.63935e-08,1.95378e-07,-8.53723e-08,-0.00431103,0.0228857,-0.000344574,0.025561,3,3466
12,3.256e-22,2,9942,83.31,-2.5902e-06,2.04953e-05,-4.29219e-08,2.06584e-05,62,24.35,148.62,500000,500000,-6.29518e-08,1.93328e-07,-8.58805e-08,-0.00398686,0.0229349,-0.000348697,0.025457,3,3467
12,3.256e-22,2,9943,83.31,-2.6512e-06,2.05028e-05,-4.30349e-08,2.06736e-05,62,24.35,148.62,500000,500000,-5.98156e-08,1.91486e-07,-8.61233e-08,-0.00373212,0.0231365,-0.000365772,0.0255952,3,3468
12,3.2948e-22,2,9944,83.31,-2.70984e-06,2.05085e-05,-4.21474e-08,2.06868e-05,62.125,24.35,148.62,1.14581e+06,531250,-5.74386e-08,1.91064e-07,-8.37898e-08,-0.00291356,0.0242133,-0.00016861,0.0263531,3,3469
12,3.45e-22,2,9945,83.31,-2.76607e-06,2.05036e-05,-3.84701e-08,2.06893e-05,62.625,24.35,148.62,3.72906e+06,656250,-5.74951e-08,1.92921e-07,-7.6836e-08,-0.00113411,0.0268286,0.000484682,0.0279554,3,3470
12,3.68911e-22,1,9946,73.97,-2.82483e-06,2.04824e-05,-3.56608e-08,2.06763e-05,64.125,-14.67,167.31,6.95812e+06,812500,-6.2744e-08,2.11153e-07,-7.23563e-08,0.00127996,0.0328995,0.00146706,0.0321474,2,6474
12,3.85694e-22,1,9947,73.97,-2.89156e-06,2.04645e-05,-3.44681e-08,2.06678e-05,66.125,-14.67,167.31,8.24975e+06,875000,-7.09092e-08,2.24652e-07,-6.86351e-08,0.0020833,0.0368227,0.00148748,0.0352322,2,6475
12,3.92101e-22,1,9948,73.97,-2.96664e-06,2.04548e-05,-2.91917e-08,2.06689e-05,69.25,-14.67,167.31,6.31231e+06,781250,-8.07517e-08,2.21632e-07,-5.75695e-08,0.0010878,0.0366512,0.000821129,0.0358258,2,6476
12,3.95892e-22,2,9949,46.91,-3.05306e-06,2.04574e-05,-1.98288e-08,2.0684e-05,73.75,-42.47,175.69,2.43744e+06,593750,-8.96691e-08,2.20568e-07,-4.01851e-08,0.00116035,0.0371124,0.00103113,0.0361567,3,3471
12,3.97787e-22,2,9950,46.91,-3.14598e-06,2.04663e-05,-1.5131e-08,2.07067e-05,76,-42.47,175.69,500000,500000,-9.24713e-08,2.18259e-07,-3.05553e-08,0.00158342,0.0370267,0.00119687,0.0356708,3,3472
12,3.97787e-22,2,9951,46.91,-3.23801e-06,2.04655e-05,-1.54913e-08,2.07201e-05,76,-42.47,175.69,500000,500000,-9.18141e-08,2.16939e-07,-3.08726e-08,0.0015675,0.0367552,0.00107464,0.035469,3,3473
12,3.97787e-22,2,9952,46.91,-3.32961e-06,2.04642e-05,-1.51464e-08,2.07333e-05,76,-42.47,175.69,500000,500000,-9.2259e-08,2.1712e-07,-3.02981e-08,0.00156102,0.0367831,0.00118346,0.0354436,3,3474
12,3.97787e-22,2,9953,46.91,-3.42253e-06,2.0463e-05,-1.48083e-08,2.07473e-05,76,-42.47,175.69,500000,500000,-9.36366e-08,2.17571e-07,-2.96231e-08,0.00140272,0.0367807,0.00123889,0.0354908,3,3475
12,3.97787e-22,2,9954,46.91,-3.51688e-06,2.04633e-05,-1.44459e-08,2.07633e-05,76,-42.47,175.69,500000,500000,-9.47253e-08,2.173e-07,-2.89015e-08,0.00122591,0.0366519,0.00127764,0.0354293,3,3476
12,3.97787e-22,2,9955,46.91,-3.61198e-06,2.0466e-05,-1.40484e-08,2.07823e-05,76,-42.47,175.69,500000,500000,-9.47834e-08,2.15308e-07,-2.81045e-08,0.00107679,0.036254,0.00130075,0.0350935,3,3477
12,3.97787e-22,2,9956,46.91,-3.70645e-06,2.04718e-05,-1.35634e-08,2.08046e-05,76,-42.47,175.69,500000,500000,-9.33453e-08,2.10887e-07,-2.71125e-08,0.000986504,0.0354897,0.00132342,0.0343644,3,3478
12,3.97787e-22,2,9957,46.91,-3.79867e-06,2.04803e-05,-1.28923e-08,2.08296e-05,76,-42.47,175.69,500000,500000,-9.01278e-08,2.03934e-07,-2.58642e-08,0.00101222,0.0343716,0.00137596,0.0332121,3,3479
12,3.97787e-22,2,9958,46.91,-3.88671e-06,2.04916e-05,-1.24036e-08,2.0857e-05,76,-42.47,175.69,500000,500000,-8.42438e-08,1.94875e-07,-2.49875e-08,0.00130116,0.0330485,0.00144925,0.0317258,3,3480
12,3.71432e-22,2,9959,46.91,-3.96715e-06,2.05127e-05,-1.50647e-08,2.08928e-05,77.5,-42.47,175.69,2.43744e+06,593750,-7.48544e-08,1.85733e-07,-3.01642e-08,0.00133782,0.0321347,0.00145343,0.0308746,3,3481
12,3.09936e-22,1,9960,25.92,-4.03641e-06,2.05278e-05,-2.05777e-08,2.09209e-05,81,124.52,-51.58,6.95812e+06,812500,-6.50726e-08,1.76578e-07,-4.11591e-08,0.000486457,0.0312018,0.00109251,0.0305647,2,6477
12,2.6601e-22,1,9961,25.92,-4.0973e-06,2.05287e-05,-2.40139e-08,2.09336e-05,83.5,124.52,-51.58,1.01872e+07,968750,-5.8808e-08,1.70856e-07,-4.7661e-08,7.80913e-05,0.030571,0.000973006,0.0301098,2,6478
12,2.57225e-22,1,9962,25.92,-4.15403e-06,2.05321e-05,-2.41761e-08,2.09481e-05,84,124.52,-51.58,1.0833e+07,1e+06,-5.57128e-08,1.68024e-07,-4.79985e-08,0.000473121,0.0301816,0.00122473,0.0293137,2,6479
12,2.57225e-22,1,9963,25.92,-4.20873e-06,2.05352e-05,-2.34653e-08,2.0962e-05,84,124.52,-51.58,1.0833e+07,1e+06,-5.54998e-08,1.67322e-07,-4.72276e-08,0.000738572,0.02994,0.00134099,0.028829,2,6480
12,2.57225e-22,1,9964,25.92,-4.26503e-06,2.05325e-05,-2.33048e-08,2.09708e-05,84,124.52,-51.58,1.0833e+07,1e+06,-5.82642e-08,1.7095e-07,-4.67564e-08,0.000738346,0.0304624,0.0014802,0.0292834,2,6481
12,2.57225e-22,1,9965,25.92,-4.32525e-06,2.05249e-05,-2.36307e-08,2.09757e-05,84,124.52,-51.58,1.0833e+07,1e+06,-6.26524e-08,1.77647e-07,-4.71633e-08,0.000482971,0.0315127,0.00162803,0.0303964,2,6482
12,2.57225e-22,1,9966,25.92,-4.39033e-06,2.05136e-05,-2.4702e-08,2.09782e-05,84,124.52,-51.58,1.0833e+07,1e+06,-6.70141e-08,1.87836e-07,-4.93903e-08,0.000253225,0.0333592,0.00179612,0.0322723,2,6483
12,2.57225e-22,1,9967,25.92,-4.45928e-06,2.05017e-05,-2.65638e-08,2.09811e-05,84,124.52,-51.58,1.0833e+07,1e+06,-6.85938e-08,1.97784e-07,-5.32743e-08,0.000310383,0.0354294,0.00189147,0.0342941,2,6484
12,2.57225e-22,1,9968,25.92,-4.52752e-06,2.04941e-05,-2.89245e-08,2.09883e-05,84,124.52,-51.58,1.0833e+07,1e+06,-6.53385e-08,2.02502e-07,-5.75407e-08,0.000799903,0.0367814,0.00188723,0.035509,2,6485
12,2.62209e-22,1,9969,25.92,-4.58996e-06,2.0494e-05,-3.09093e-08,2.10017e-05,84.0625,124.52,-51.58,1.01872e+07,968750,-5.82204e-08,2.02767e-07,-6.14597e-08,0.00152387,0.0372332,0.00193362,0.035881,2,6486
12,2.82145e-22,1,9970,25.92,-4.64396e-06,2.04952e-05,-3.49247e-08,2.10148e-05,84.3125,124.52,-51.58,7.60394e+06,843750,-4.98919e-08,2.09963e-07,-7.12922e-08,0.00222843,0.0374965,0.00182956,0.0362743,2,6487
12,4.06592e-22,2,9971,94.7,-4.68974e-06,2.04589e-05,-3.95208e-08,2.09895e-05,88.9375,142.25,-36.24,6.31231e+06,781250,-4.03712e-08,2.28724e-07,-7.95496e-08,0.00393878,0.0453771,0.000979198,0.043857,3,3482
12,6.15611e-22,1,9972,121.22,-4.72471e-06,2.04573e-05,-3.41839e-08,2.09958e-05,97.6875,-21.83,121.47,8.89556e+06,906250,-2.9488e-08,2.19943e-07,-6.72602e-08,0.00523258,0.0536524,0.000501537,0.0513213,2,6488
12,7.15137e-22,1,9973,121.22,-4.74872e-06,2.05059e-05,-2.6994e-08,2.10486e-05,102,-21.83,121.47,1.0833e+07,1e+06,-2.16253e-08,1.90114e-07,-5.37171e-08,0.00508752,0.0516263,0.000178041,0.0492526,2,6489
12,7.15137e-22,1,9974,121.22,-4.76796e-06,2.05294e-05,-2.54799e-08,2.10758e-05,102,-21.83,121.47,1.0833e+07,1e+06,-1.86902e-08,1.74575e-07,-5.09704e-08,0.00486498,0.0474173,-0.000276797,0.0454138,2,6490
12,7.15137e-22,1,9975,121.22,-4.7861e-06,2.0544e-05,-2.39199e-08,2.10941e-05,102,-21.83,121.47,1.0833e+07,1e+06,-1.81439e-08,1.64801e-07,-4.78554e-08,0.0044741,0.0446825,-0.000180993,0.0427702,2,6491
12,7.15137e-22,1,9976,121.22,-4.80424e-06,2.0554e-05,-2.28742e-08,2.1108e-05,102,-21.83,121.47,1.0833e+07,1e+06,-1.81709e-08,1.5797e-07,-4.57573e-08,0.0040765,0.0426937,-0.000153915,0.0409187,2,6492
12,7.15137e-22,1,9977,121.22,-4.82244e-06,2.05611e-05,-2.21631e-08,2.11191e-05,102,-21.83,121.47,1.0833e+07,1e+06,-1.81865e-08,1.53039e-07,-4.43359e-08,0.00377979,0.0412377,-0.000148901,0.039578,2,6493
12,7.15137e-22,1,9978,121.22,-4.84062e-06,2.05655e-05,-2.17299e-08,2.11275e-05,102,-21.83,121.47,1.0833e+07,1e+06,-1.82515e-08,1.49935e-07,-4.34677e-08,0.0035747,0.0403108,-0.000157352,0.0387413,2,6494
12,7.15137e-22,1,9979,121.22,-4.85894e-06,2.05666e-05,-2.15605e-08,2.11327e-05,102,-21.83,121.47,1.0833e+07,1e+06,-1.86512e-08,1.49016e-07,-4.31247e-08,0.00341515,0.040002,-0.000172402,0.0385094,2,6495
12,7.15137e-22,1,9980,121.22,-4.87792e-06,2.05637e-05,-2.16647e-08,2.11344e-05,102,-21.83,121.47,1.0833e+07,1e+06,-1.96734e-08,1.50741e-07,-4.33285e-08,0.00325791,0.0404215,-0.000187639,0.0390048,2,6496
12,7.15137e-22,1,9981,121.22,-4.89829e-06,2.05564e-05,-2.20709e-08,2.1132e-05,102,-21.83,121.47,1.0833e+07,1e+06,-2.12022e-08,1.55429e-07,-4.43229e-08,0.00313282,0.0416603,-0.000227862,0.0403206,2,6497
12,7.15137e-22,1,9982,121.22,-4.92032e-06,2.05436e-05,-2.345e-08,2.11246e-05,102,-21.83,121.47,1.0833e+07,1e+06,-2.32056e-08,1.63597e-07,-4.62362e-08,0.00300193,0.0439148,-0.000244416,0.0426461,2,6498
12,6.09591e-22,1,9983,121.22,-4.9447e-06,2.05193e-05,-2.47235e-08,2.11067e-05,102.688,-21.83,121.47,1.01872e+07,968750,-2.89895e-08,1.77961e-07,-4.90919e-08,0.00298108,0.0452816,0.000746465,0.0438704,2,6499
12,3.92147e-22,1,9984,150.43,-4.9783e-06,2.04923e-05,-2.89953e-08,2.10884e-05,104.375,-62.91,143.24,9.54138e+06,937500,-3.91825e-08,1.88744e-07,-5.86547e-08,0.00120254,0.0419403,0.000876025,0.0415725,2,6500
12,2.79112e-22,1,9985,150.43,-5.02307e-06,2.0469e-05,-3.11212e-08,2.10764e-05,106.188,-62.91,143.24,9.54138e+06,937500,-5.11885e-08,1.93832e-07,-6.17206e-08,-0.00053819,0.0389115,0.000683196,0.0394528,2,6501
12,2.93614e-22,1,9986,150.43,-5.08068e-06,2.04339e-05,-2.28624e-08,2.10561e-05,108.5,-62.91,143.24,7.60394e+06,843750,-7.93665e-08,2.03402e-07,-4.59968e-08,-0.00100194,0.0355743,0.00213459,0.0361196,2,6502
12,3.24895e-22,2,9987,66.67,-5.1818e-06,2.04152e-05,-1.22452e-08,2.10626e-05,111.5,165.52,-172.29,3.72906e+06,656250,-1.27721e-07,2.16394e-07,-2.55811e-08,-0.00231703,0.0275931,0.00272746,0.0286516,3,3483
12,3.4575e-22,2,9988,66.67,-5.33612e-06,2.04302e-05,-6.23036e-09,2.11155e-05,113.5,165.52,-172.29,1.14581e+06,531250,-1.66845e-07,2.2649e-07,-1.21486e-08,-0.00343533,0.0214548,0.00208542,0.0229965,3,3484
12,3.50963e-22,2,9989,66.67,-5.51549e-06,2.04394e-05,-2.9048e-09,2.11704e-05,114,165.52,-172.29,500000,500000,-1.85415e-07,2.31837e-07,-5.42205e-09,-0.00423913,0.0197468,0.00163045,0.0219832,3,3485
12,3.50963e-22,2,9990,66.67,-5.70695e-06,2.04355e-05,1.13666e-10,2.12175e-05,114,165.52,-172.29,500000,500000,-1.94785e-07,2.34391e-07,2.92653e-11,-0.00489841,0.0197273,0.00173911,0.0225317,3,3486
12,3.50963e-22,2,9991,66.67,-5.90506e-06,2.04438e-05,1.72492e-09,2.12796e-05,114,165.52,-172.29,500000,500000,-1.95125e-07,2.30345e-07,3.13408e-09,-0.00507987,0.0192133,0.00189851,0.0221644,3,3487
12,3.73126e-22,2,9992,66.67,-6.0972e-06,2.04942e-05,-4.37064e-09,2.1382e-05,114.438,165.52,-172.29,1.14581e+06,531250,-1.75466e-07,2.21227e-07,-9.24049e-09,-0.0055398,0.0198335,0.00107201,0.023425,3,3488
12,4.61777e-22,2,9993,66.67,-6.25599e-06,2.0571e-05,-1.86276e-08,2.15012e-05,116.188,165.52,-172.29,3.72906e+06,656250,-1.23682e-07,1.97119e-07,-3.58575e-08,-0.00642502,0.0232011,-0.000262586,0.0282778,3,3489
12,5.94754e-22,1,9994,9.52002,-6.34457e-06,2.05981e-05,-2.86248e-08,2.15531e-05,118.812,63.66,-15.5,7.60394e+06,843750,-5.98714e-08,1.61243e-07,-5.65337e-08,-0.00621937,0.0277921,-0.000394983,0.0327653,2,6503
12,6.83405e-22,1,9995,9.52002,-6.37573e-06,2.05611e-05,-3.5258e-08,2.1527e-05,120.562,63.66,-15.5,1.01872e+07,968750,-2.37795e-08,1.56686e-07,-7.18339e-08,-0.00497367,0.0344508,0.000580683,0.037418,2,6504
12,7.05568e-22,1,9996,9.52003,-6.39213e-06,2.05135e-05,-4.52098e-08,2.14864e-05,121,63.66,-15.5,1.0833e+07,1e+06,-1.40726e-08,1.84449e-07,-9.0495e-08,-0.00398002,0.0423738,0.00120343,0.0441456,2,6505
12,7.05568e-22,1,9997,9.52004,-6.40388e-06,2.04828e-05,-5.35577e-08,2.14606e-05,121,63.66,-15.5,1.0833e+07,1e+06,-7.66431e-09,2.04783e-07,-1.06905e-07,-0.00298541,0.046785,0.0009186,0.0481935,2,6506
12,7.05568e-22,1,9998,9.52004,-6.40745e-06,2.04633e-05,-5.91543e-08,2.14431e-05,121,63.66,-15.5,1.0833e+07,1e+06,-5.04756e-10,2.14353e-07,-1.18333e-07,-0.00172601,0.0485927,0.000480095,0.0494631,2,6507
12,7.05568e-22,1,9999,9.52004,-6.40489e-06,2.04314e-05,-6.42636e-08,2.14119e-05,121,63.66,-15.5,1.0833e+07,1e+06,3.46594e-09,2.3159e-07,-1.2845e-07,-0.000631581,0.0525796,0.000896262,0.0525643,2,6508
12,7.05673e-22,1,10000,153.16,-1.44567e-08,2.07092e-05,-2.64528e-08,2.07093e-05,9,-104.67,-152.95,1.0833e+07,1e+06,-2.81763e-08,1.59634e-07,-5.29627e-08,-0.00269671,0.0419665,-0.000360162,0.0437184,2,6509
12,7.05673e-22,1,10001,153.16,-4.1896e-08,2.07095e-05,-2.83001e-08,2.07095e-05,9,-104.67,-152.95,1.0833e+07,1e+06,-2.62722e-08,1.58986e-07,-5.65825e-08,-0.00269385,0.041457,-0.00102512,0.0434939,2,6510
12,7.05673e-22,1,10002,153.16,-6.70011e-08,2.07109e-05,-2.78246e-08,2.0711e-05,9,-104.67,-152.95,1.0833e+07,1e+06,-2.43197e-08,1.56065e-07,-5.56015e-08,-0.00223462,0.0407861,-0.000807312,0.0424811,2,6511
12,7.05673e-22,1,10003,153.16,-9.05353e-08,2.07113e-05,-2.79954e-08,2.07115e-05,9,-104.67,-152.95,1.0833e+07,1e+06,-2.33721e-08,1.54803e-07,-5.5942e-08,-0.00212486,0.0404291,-0.000884625,0.0421047,2,6512
12,7.05673e-22,1,10004,153.16,-1.13745e-07,2.07084e-05,-2.90503e-08,2.07087e-05,9,-104.67,-152.95,1.0833e+07,1e+06,-2.4677e-08,1.60425e-07,-5.80371e-08,-0.00240806,0.0418629,-0.000933854,0.0437134,2,6513
12,7.05673e-22,1,10005,153.16,-1.39889e-07,2.07016e-05,-3.00124e-08,2.07021e-05,9,-104.67,-152.95,1.0833e+07,1e+06,-2.84692e-08,1.74343e-07,-6.01157e-08,-0.00276048,0.0457276,-0.000457245,0.0475381,2,6514
12,6.07174e-22,1,10006,153.16,-1.70684e-07,2.0694e-05,-3.35491e-08,2.06947e-05,10.75,-104.67,-152.95,8.24975e+06,875000,-5.22031e-08,1.90577e-07,-6.72681e-08,-0.00389862,0.0402357,-0.00127723,0.0434124,2,6515
12,4.10176e-22,2,10007,146.27,-2.44295e-07,2.06879e-05,-3.47228e-08,2.06893e-05,14.25,-117.11,-117.58,3.08325e+06,625000,-9.50408e-08,2.03473e-07,-6.94492e-08,-0.00411938,0.0237444,-0.00155048,0.0275958,3,3490
12,3.11677e-22,2,10008,146.27,-3.60765e-07,2.06852e-05,-3.32687e-08,2.06883e-05,16,-117.11,-117.58,500000,500000,-1.14921e-07,2.08719e-07,-6.6252e-08,-0.00311117,0.0153565,-0.00073129,0.0183444,3,3491
12,3.11677e-22,2,10009,146.27,-4.74138e-07,2.06886e-05,-3.40011e-08,2.06941e-05,16,-117.11,-117.58,500000,500000,-1.04642e-07,2.02706e-07,-6.85299e-08,-0.00204963,0.0153811,-0.00098601,0.0179634,3,3492
12,3.11677e-22,2,10010,146.27,-5.70049e-07,2.06979e-05,-3.53151e-08,2.07058e-05,16,-117.11,-117.58,500000,500000,-8.17318e-08,1.86771e-07,-7.12372e-08,0.000224386,0.0151672,-0.00126222,0.0170374,3,3493
12,3.12464e-22,2,10011,146.27,-6.37602e-07,2.0705e-05,-3.55937e-08,2.07148e-05,22,-117.11,-117.58,3.08325e+06,625000,-4.9291e-08,1.67816e-07,-6.98489e-08,0.00326275,0.019557,-0.000877585,0.0204124,3,3494
12,3.14039e-22,1,10012,151.34,-6.68631e-07,2.0714e-05,-3.30781e-08,2.07248e-05,34,-67.01,136.63,8.24975e+06,875000,-2.14796e-08,1.48236e-07,-6.56854e-08,0.00506136,0.0254431,-0.00100887,0.0251931,2,6516
12,3.14826e-22,1,10013,151.34,-6.80561e-07,2.07191e-05,-3.13137e-08,2.07303e-05,40,-67.01,136.63,1.0833e+07,1e+06,-1.41563e-08,1.41451e-07,-6.34716e-08,0.00512345,0.0276736,-0.0011604,0.0266271,2,6517
12,3.14826e-22,1,10014,151.34,-6.96943e-07,2.07127e-05,-3.20959e-08,2.07244e-05,40,-67.01,136.63,1.0833e+07,1e+06,-2.00454e-08,1.52347e-07,-6.4264e-08,0.00462589,0.0297723,-0.00067237,0.0285053,2,6518
12,3.14826e-22,1,10015,151.34,-7.20652e-07,2.07043e-05,-3.41909e-08,2.07169e-05,40,-67.01,136.63,1.0833e+07,1e+06,-2.8364e-08,1.68417e-07,-6.82689e-08,0.00368268,0.0326595,-0.00075884,0.0317783,2,6519
12,3.14826e-22,1,10016,151.34,-7.53671e-07,2.06955e-05,-3.6083e-08,2.07093e-05,40,-67.01,136.63,1.0833e+07,1e+06,-3.82152e-08,1.85954e-07,-7.21208e-08,0.00245967,0.0358016,-0.000777814,0.035429,2,6520
12,3.14826e-22,1,10017,151.34,-7.97082e-07,2.06884e-05,-3.72724e-08,2.07038e-05,40,-67.01,136.63,1.0833e+07,1e+06,-4.83582e-08,2.00376e-07,-7.45416e-08,0.00100735,0.0382072,-0.000809654,0.0384884,2,6521
12,3.14826e-22,1,10018,151.34,-8.50388e-07,2.06838e-05,-3.75583e-08,2.07014e-05,40,-67.01,136.63,1.0833e+07,1e+06,-5.74691e-08,2.09647e-07,-7.51239e-08,-0.000502739,0.0395421,-0.00084391,0.0405382,2,6522
12,3.14826e-22,1,10019,151.34,-9.1202e-07,2.06817e-05,-3.70502e-08,2.07018e-05,40,-67.01,136.63,1.0833e+07,1e+06,-6.48417e-08,2.13884e-07,-7.41045e-08,-0.00191207,0.0399236,-0.000864804,0.0416122,2,6523
12,3.14826e-22,1,10020,151.34,-9.80071e-07,2.06816e-05,-3.59353e-08,2.07049e-05,40,-67.01,136.63,1.0833e+07,1e+06,-7.0389e-08,2.13993e-07,-7.18714e-08,-0.00315175,0.0395727,-0.000863213,0.041887,2,6524
12,3.14826e-22,1,10021,151.34,-1.0528e-06,2.06832e-05,-3.43683e-08,2.071e-05,40,-67.01,136.63,1.0833e+07,1e+06,-7.42903e-08,2.10802e-07,-6.87376e-08,-0.00421511,0.0386531,-0.000842437,0.041516,2,6525
12,3.14826e-22,1,10022,151.34,-1.12865e-06,2.06862e-05,-3.24577e-08,2.0717e-05,40,-67.01,136.63,1.0833e+07,1e+06,-7.66706e-08,2.04845e-07,-6.49189e-08,-0.0050967,0.0372591,-0.000806708,0.0405849,2,6526
12,3.14826e-22,1,10023,151.34,-1.20614e-06,2.06905e-05,-3.02917e-08,2.07256e-05,40,-67.01,136.63,1.0833e+07,1e+06,-7.75704e-08,1.96443e-07,-6.0596e-08,-0.00578665,0.0354412,-0.000767055,0.0391367,2,6527
12,3.14826e-22,1,10024,151.34,-1.28379e-06,2.06957e-05,-2.79875e-08,2.07355e-05,40,-67.01,136.63,1.0833e+07,1e+06,-7.71337e-08,1.86135e-07,-5.59962e-08,-0.00629096,0.0333019,-0.000736384,0.0372785,2,6528
12,3.14826e-22,1,10025,151.34,-1.36041e-06,2.07011e-05,-2.57037e-08,2.07457e-05,40,-67.01,136.63,1.0833e+07,1e+06,-7.59145e-08,1.75157e-07,-5.14148e-08,-0.0066694,0.0310892,-0.000711828,0.0352898,2,6529
12,3.14826e-22,1,10026,151.34,-1.43562e-06,2.0706e-05,-2.36057e-08,2.07557e-05,40,-67.01,136.63,1.0833e+07,1e+06,-7.47839e-08,1.65203e-07,-4.72513e-08,-0.00702257,0.0291282,-0.000707435,0.0335599,2,6530
12,3.14826e-22,1,10027,151.34,-1.50998e-06,2.07097e-05,-2.17598e-08,2.07646e-05,40,-67.01,136.63,1.0833e+07,1e+06,-7.47052e-08,1.57116e-07,-4.34587e-08,-0.00750147,0.0275123,-0.000702197,0.0322409,2,6531
12,3.20429e-22,1,10028,151.34,-1.58503e-06,2.07134e-05,-2.00955e-08,2.0774e-05,40.625,-67.01,136.63,1.01872e+07,968750,-7.60535e-08,1.50678e-07,-3.99983e-08,-0.00817791,0.0260281,-0.000908034,0.0313625,2,6532
12,3.31635e-22,1,10029,151.34,-1.66208e-06,2.07127e-05,-1.91835e-08,2.07793e-05,41.875,-67.01,136.63,8.89556e+06,906250,-7.72942e-08,1.53043e-07,-3.82434e-08,-0.00813357,0.0264669,-0.000519309,0.0317019,2,6533
12,3.54047e-22,1,10030,151.34,-1.73962e-06,2.07116e-05,-1.91344e-08,2.07846e-05,44.375,-67.01,136.63,6.31231e+06,781250,-7.63085e-08,1.55806e-07,-3.81908e-08,-0.0080067,0.0271299,-0.000359731,0.0324395,2,6534
12,3.87665e-22,2,10031,34.52,-1.8147e-06,2.07107e-05,-1.83127e-08,2.079e-05,48.125,1.45,143.65,2.43744e+06,593750,-7.33291e-08,1.57234e-07,-3.68998e-08,-0.00703677,0.0271757,-9.50998e-05,0.0318069,3,3495
12,4.04473e-22,2,10032,34.52,-1.88628e-06,2.07078e-05,-1.7825e-08,2.07936e-05,50,1.45,143.65,500000,500000,-7.01093e-08,1.6149e-07,-3.58927e-08,-0.00522344,0.0279215,0.000495976,0.0308991,3,3496
12,4.04473e-22,2,10033,34.52,-1.95492e-06,2.07077e-05,-1.80397e-08,2.07998e-05,50,1.45,143.65,500000,500000,-6.81492e-08,1.62516e-07,-3.59848e-08,-0.00433673,0.0283036,0.000436817,0.0306681,3,3497
12,4.04473e-22,2,10034,34.52,-2.02258e-06,2.07069e-05,-1.75678e-08,2.08055e-05,50,1.45,143.65,500000,500000,-6.88281e-08,1.64319e-07,-3.50975e-08,-0.0039613,0.0287065,0.00049938,0.0308,3,3498
12,4.04473e-22,2,10035,34.52,-2.09257e-06,2.07054e-05,-1.66526e-08,2.08109e-05,50,1.45,143.65,500000,500000,-7.30407e-08,1.67306e-07,-3.33038e-08,-0.00415287,0.0291614,0.000473178,0.0313801,3,3499
12,4.04473e-22,2,10036,34.52,-2.16866e-06,2.0703e-05,-1.45727e-08,2.08163e-05,50,1.45,143.65,500000,500000,-8.15937e-08,1.7195e-07,-2.90839e-08,-0.00481877,0.02987,0.00056069,0.032465,3,3500
12,4.04473e-22,2,10037,34.52,-2.25576e-06,2.06988e-05,-1.07183e-08,2.08214e-05,50,1.45,143.65,500000,500000,-9.07517e-08,1.79759e-07,-2.13682e-08,-0.00496631,0.0315995,0.00163982,0.0338436,3,3501
12,3.84755e-22,2,10038,34.52,-2.35016e-06,2.07007e-05,-1.58841e-08,2.08337e-05,53,1.45,143.65,500000,500000,-9.3146e-08,1.77973e-07,-3.22263e-08,-0.00635834,0.0283668,-2.14576e-05,0.0325074,3,3502
12,3.45318e-22,2,10039,83.31,-2.44205e-06,2.06984e-05,-2.97166e-08,2.0842e-05,59,24.35,148.62,500000,500000,-8.87435e-08,1.82866e-07,-5.9742e-08,-0.00743042,0.0230967,-0.00129519,0.0284714,3,3503
12,3.256e-22,2,10040,83.31,-2.52765e-06,2.06897e-05,-3.88338e-08,2.08436e-05,62,24.35,148.62,500000,500000,-8.15383e-08,1.97493e-07,-7.74685e-08,-0.00623578,0.0226157,-0.000292665,0.0265139,3,3504
12,3.256e-22,2,10041,83.31,-2.60513e-06,2.0688e-05,-4.31075e-08,2.08514e-05,62,24.35,148.62,500000,500000,-7.27174e-08,2.00585e-07,-8.61019e-08,-0.00494085,0.0230155,-0.000616496,0.026235,3,3505
12,3.256e-22,2,10042,83.31,-2.67308e-06,2.06888e-05,-4.56148e-08,2.08608e-05,62,24.35,148.62,500000,500000,-6.27609e-08,1.9948e-07,-9.11605e-08,-0.00352264,0.0231531,-0.000586747,0.0255414,3,3506
12,3.256e-22,2,10043,83.31,-2.73065e-06,2.06908e-05,-4.76128e-08,2.08703e-05,62,24.35,148.62,500000,500000,-5.13941e-08,1.95932e-07,-9.51498e-08,-0.00200705,0.0231878,-0.000536627,0.0247741,3,3507
12,3.256e-22,2,10044,83.31,-2.77587e-06,2.06943e-05,-4.8879e-08,2.08797e-05,62,24.35,148.62,500000,500000,-3.8228e-08,1.90451e-07,-9.76087e-08,-0.000172963,0.0233441,-0.000342235,0.0240281,3,3508
12,3.3724e-22,2,10045,83.31,-2.80711e-06,2.06971e-05,-4.79498e-08,2.08866e-05,62.375,24.35,148.62,2.43744e+06,593750,-3.13072e-08,1.86241e-07,-9.56943e-08,0.00153814,0.0250361,-0.00112719,0.0259702,3,3509
12,3.64399e-22,1,10046,73.97,-2.83849e-06,2.06949e-05,-4.25878e-08,2.08887e-05,63.25,-14.67,167.31,6.95812e+06,812500,-3.95859e-08,1.89785e-07,-8.53629e-08,0.00242487,0.0291684,-0.00155968,0.030321,2,6535
12,3.83799e-22,1,10047,73.97,-2.88628e-06,2.06883e-05,-3.95924e-08,2.08887e-05,63.875,-14.67,167.31,1.01872e+07,968750,-5.39371e-08,2.03696e-07,-7.95856e-08,0.00218424,0.0334622,-0.00129278,0.0342114,2,6536
12,3.87678e-22,1,10048,73.97,-2.94636e-06,2.06827e-05,-4.14206e-08,2.08915e-05,64,-14.67,167.31,1.0833e+07,1e+06,-6.20137e-08,2.15439e-07,-8.27757e-08,0.00128603,0.0354839,-0.00174926,0.0366744,2,6537
12,3.90206e-22,1,10049,73.97,-3.01031e-06,2.06772e-05,-3.86408e-08,2.08952e-05,67,-14.67,167.31,8.24975e+06,875000,-6.62889e-08,2.22989e-07,-7.6965e-08,0.0015796,0.0376819,-0.00139862,0.0385174,2,6538
12,3.9526e-22,2,10050,46.91,-3.07894e-06,2.06783e-05,-2.92411e-08,2.09062e-05,73,-42.47,175.69,3.08325e+06,625000,-7.2777e-08,2.21182e-07,-5.83152e-08,0.00195088,0.0383676,-0.000842789,0.0384617,3,3510
12,3.97787e-22,2,10051,46.91,-3.15586e-06,2.06823e-05,-2.31705e-08,2.09217e-05,76,-42.47,175.69,500000,500000,-8.03266e-08,2.14701e-07,-4.64022e-08,0.000861158,0.0369712,-0.00105992,0.0374378,3,3511
12,3.97787e-22,2,10052,46.91,-3.23959e-06,2.06813e-05,-2.26472e-08,2.09335e-05,76,-42.47,175.69,500000,500000,-8.59619e-08,2.15626e-07,-4.53837e-08,-0.00022136,0.0367105,-0.00125971,0.0377956,3,3512
12,3.97787e-22,2,10053,46.91,-3.32778e-06,2.06806e-05,-2.21336e-08,2.09466e-05,76,-42.47,175.69,500000,500000,-8.98968e-08,2.16635e-07,-4.4284e-08,-0.00086583,0.0366213,-0.00128951,0.0380446,3,3513
12,3.97787e-22,2,10054,46.91,-3.41939e-06,2.06801e-05,-2.17614e-08,2.09609e-05,76,-42.47,175.69,500000,500000,-9.28926e-08,2.17455e-07,-4.3521e-08,-0.00135,0.0365575,-0.00133218,0.0382516,3,3514
12,3.97787e-22,2,10055,46.91,-3.51357e-06,2.06801e-05,-2.13504e-08,2.09765e-05,76,-42.47,175.69,500000,500000,-9.50058e-08,2.1731e-07,-4.26925e-08,-0.00173921,0.0363722,-0.00135537,0.038281,3,3515
12,3.97787e-22,2,10056,46.91,-3.6094e-06,2.0681e-05,-2.08387e-08,2.09936e-05,76,-42.47,175.69,500000,500000,-9.61466e-08,2.15525e-07,-4.16668e-08,-0.00207568,0.0359326,-0.00137343,0.0380268,3,3516
12,3.97787e-22,2,10057,46.91,-3.70586e-06,2.06827e-05,-2.01539e-08,2.10121e-05,76,-42.47,175.69,500000,500000,-9.64697e-08,2.11753e-07,-4.02968e-08,-0.00241748,0.0351581,-0.0013964,0.0374448,3,3517
12,3.97787e-22,2,10058,46.91,-3.80234e-06,2.06853e-05,-1.91957e-08,2.10318e-05,76,-42.47,175.69,500000,500000,-9.65798e-08,2.06224e-07,-3.82865e-08,-0.00283647,0.0340634,-0.00139937,0.0365807,3,3518
12,3.97787e-22,2,10059,46.91,-3.89902e-06,2.06885e-05,-1.75816e-08,2.10527e-05,76,-42.47,175.69,500000,500000,-9.53851e-08,1.98921e-07,-3.51083e-08,-0.00307173,0.032817,-0.00114246,0.0353649,3,3519
12,3.62647e-22,2,10060,46.91,-3.99311e-06,2.06969e-05,-1.86778e-08,2.10786e-05,78,-42.47,175.69,3.08325e+06,625000,-8.75322e-08,1.84167e-07,-3.75311e-08,-0.00362694,0.0308424,-0.00132615,0.0339505,3,3520
12,2.92365e-22,1,10061,25.92,-4.07409e-06,2.0702e-05,-2.40302e-08,2.10991e-05,82,124.52,-51.58,8.24975e+06,875000,-7.37815e-08,1.74078e-07,-4.80976e-08,-0.00338069,0.0303306,-0.00186033,0.0337873,2,6539
12,2.57225e-22,1,10062,25.92,-4.14067e-06,2.07013e-05,-2.76041e-08,2.11114e-05,84,124.52,-51.58,1.0833e+07,1e+06,-6.34946e-08,1.7401e-07,-5.52042e-08,-0.00191291,0.0312227,-0.00189202,0.034008,2,6540
12,2.57225e-22,1,10063,25.92,-4.20108e-06,2.07027e-05,-2.78725e-08,2.11247e-05,84,124.52,-51.58,1.0833e+07,1e+06,-5.9022e-08,1.71608e-07,-5.57845e-08,-0.00101219,0.0309632,-0.0017949,0.0332452,2,6541
12,2.57225e-22,1,10064,25.92,-4.25871e-06,2.07038e-05,-2.75841e-08,2.11373e-05,84,124.52,-51.58,1.0833e+07,1e+06,-5.76916e-08,1.69532e-07,-5.51162e-08,-0.000723955,0.0305741,-0.00173201,0.0326657,2,6542
12,2.57225e-22,1,10065,25.92,-4.31646e-06,2.07034e-05,-2.74309e-08,2.11486e-05,84,124.52,-51.58,1.0833e+07,1e+06,-5.90045e-08,1.71064e-07,-5.48674e-08,-0.000771928,0.0307877,-0.00166572,0.032868,2,6543
12,2.57225e-22,1,10066,25.92,-4.37672e-06,2.07012e-05,-2.78088e-08,2.11588e-05,84,124.52,-51.58,1.0833e+07,1e+06,-6.17958e-08,1.75975e-07,-5.56156e-08,-0.000981767,0.0316326,-0.00162102,0.0338069,2,6544
12,2.57225e-22,1,10067,25.92,-4.44005e-06,2.06978e-05,-2.89164e-08,2.11687e-05,84,124.52,-51.58,1.0833e+07,1e+06,-6.40539e-08,1.83284e-07,-5.7836e-08,-0.00101906,0.033039,-0.00158691,0.0352404,2,6545
12,2.57225e-22,1,10068,25.92,-4.50483e-06,2.06942e-05,-3.08403e-08,2.11788e-05,84,124.52,-51.58,1.0833e+07,1e+06,-6.35548e-08,1.9106e-07,-6.16892e-08,-0.000572205,0.0347616,-0.00156449,0.0367858,2,6546
12,2.57225e-22,1,10069,25.92,-4.56716e-06,2.06917e-05,-3.33314e-08,2.11898e-05,84,124.52,-51.58,1.0833e+07,1e+06,-5.82174e-08,1.9609e-07,-6.68044e-08,0.000578075,0.0362406,-0.00159055,0.0378125,2,6547
12,2.57225e-22,1,10070,25.92,-4.62127e-06,2.06913e-05,-3.65787e-08,2.12011e-05,84,124.52,-51.58,1.0833e+07,1e+06,-4.70169e-08,1.96342e-07,-7.29748e-08,0.00251836,0.0370574,-0.0017291,0.0379598,2,6548
12,2.62209e-22,1,10071,25.92,-4.66119e-06,2.06934e-05,-4.0395e-08,2.1212e-05,84.0625,124.52,-51.58,1.01872e+07,968750,-3.40658e-08,1.94696e-07,-8.03933e-08,0.00431337,0.0370063,-0.00208099,0.0376251,2,6549
12,3.81671e-22,1,10072,25.92,-4.6894e-06,2.06816e-05,-4.16179e-08,2.12067e-05,88.625,124.52,-51.58,9.54138e+06,937500,-2.34269e-08,2.1876e-07,-8.3457e-08,0.00768122,0.0477153,-0.00114112,0.0466481,2,6550
12,6.05643e-22,1,10073,121.22,-4.70805e-06,2.0679e-05,-3.46771e-08,2.12082e-05,97.5625,-21.83,121.47,1.01872e+07,968750,-1.52587e-08,2.20847e-07,-6.95506e-08,0.00943342,0.0567838,0.000549678,0.0532448,2,6551
12,7.15137e-22,1,10074,121.22,-4.71991e-06,2.0695e-05,-2.74549e-08,2.12265e-05,102,-21.83,121.47,1.0833e+07,1e+06,-1.19096e-08,1.88556e-07,-5.48522e-08,0.00779671,0.051981,0.000595117,0.0482737,2,6552
12,7.15137e-22,1,10075,121.22,-4.73187e-06,2.07028e-05,-2.54478e-08,2.12367e-05,102,-21.83,121.47,1.0833e+07,1e+06,-1.26018e-08,1.72891e-07,-5.09362e-08,0.00664572,0.0473874,0.000172567,0.0443866,2,6553
12,7.15137e-22,1,10076,121.22,-4.74512e-06,2.07076e-05,-2.37189e-08,2.12444e-05,102,-21.83,121.47,1.0833e+07,1e+06,-1.37978e-08,1.63197e-07,-4.74466e-08,0.00578011,0.0445486,0.000209112,0.0418653,2,6554
12,7.15137e-22,1,10077,121.22,-4.75946e-06,2.0711e-05,-2.25746e-08,2.12508e-05,102,-21.83,121.47,1.0833e+07,1e+06,-1.46321e-08,1.56527e-07,-4.51561e-08,0.00517294,0.0425755,0.000204364,0.0401371,2,6555
12,7.15137e-22,1,10078,121.22,-4.77438e-06,2.07133e-05,-2.18204e-08,2.12564e-05,102,-21.83,121.47,1.0833e+07,1e+06,-1.50015e-08,1.51792e-07,-4.36471e-08,0.00479525,0.0411781,0.000197434,0.038898,2,6556
12,7.15137e-22,1,10079,121.22,-4.78947e-06,2.07147e-05,-2.13947e-08,2.12612e-05,102,-21.83,121.47,1.0833e+07,1e+06,-1.51118e-08,1.48912e-07,-4.2796e-08,0.00459349,0.0403249,0.000192276,0.0381323,2,6557
12,7.15137e-22,1,10080,121.22,-4.80461e-06,2.07151e-05,-2.12854e-08,2.1265e-05,102,-21.83,121.47,1.0833e+07,1e+06,-1.52824e-08,1.48206e-07,-4.25789e-08,0.00450579,0.0400865,0.00019127,0.0379316,2,6558
12,7.15137e-22,1,10081,121.22,-4.82003e-06,2.07141e-05,-2.15151e-08,2.12675e-05,102,-21.83,121.47,1.0833e+07,1e+06,-1.58695e-08,1.50083e-07,-4.30292e-08,0.0044607,0.0405532,0.000185596,0.0384188,2,6559
12,7.15137e-22,1,10082,121.22,-4.83634e-06,2.07116e-05,-2.2039e-08,2.12688e-05,102,-21.83,121.47,1.0833e+07,1e+06,-1.73743e-08,1.55008e-07,-4.39333e-08,0.00438371,0.0418448,0.000218363,0.0397172,2,6560
12,7.15137e-22,1,10083,121.22,-4.85478e-06,2.07071e-05,-2.23781e-08,2.12686e-05,102,-21.83,121.47,1.0833e+07,1e+06,-2.02276e-08,1.63661e-07,-4.55328e-08,0.00404616,0.0441623,0.000320344,0.0421053,2,6561
12,6.22294e-22,1,10084,121.22,-4.8768e-06,2.06987e-05,-2.88234e-08,2.12655e-05,102.062,-21.83,121.47,8.89556e+06,906250,-2.24485e-08,1.8001e-07,-5.77632e-08,0.003827,0.0445271,-0.000322904,0.0433886,2,6562
12,4.17554e-22,2,10085,26.96,-4.89968e-06,2.06869e-05,-3.9198e-08,2.12593e-05,103.125,2.58,-30.9,6.95812e+06,812500,-2.60775e-08,1.99392e-07,-7.75267e-08,0.00300937,0.0423352,-0.000864737,0.0425372,3,3521
12,3.02242e-22,1,10086,150.43,-4.92895e-06,2.06751e-05,-4.04721e-08,2.12545e-05,106.562,-62.91,143.24,6.95812e+06,812500,-5.44317e-08,2.16947e-07,-8.11369e-08,0.000820694,0.0393741,-0.00171188,0.0413282,2,6563
12,3.19682e-22,2,10087,66.67,-5.00854e-06,2.06594e-05,-3.29028e-08,2.12578e-05,111,165.52,-172.29,4.37488e+06,687500,-1.12255e-07,2.42375e-07,-6.59041e-08,-0.0011276,0.0331372,-0.0023088,0.0366578,3,3522
12,3.4575e-22,2,10088,66.67,-5.15347e-06,2.06565e-05,-2.37639e-08,2.12897e-05,113.5,165.52,-172.29,1.14581e+06,531250,-1.56674e-07,2.53156e-07,-4.70556e-08,-0.00249832,0.025746,-0.00217115,0.0296195,3,3523
12,3.50963e-22,2,10089,66.67,-5.32189e-06,2.06678e-05,-1.545e-08,2.1342e-05,114,165.52,-172.29,500000,500000,-1.72312e-07,2.4001e-07,-3.06742e-08,-0.00389624,0.0215653,-0.00219297,0.0256791,3,3524
12,3.50963e-22,2,10090,66.67,-5.49809e-06,2.06717e-05,-8.01913e-09,2.13904e-05,114,165.52,-172.29,500000,500000,-1.85945e-07,2.33483e-07,-1.60336e-08,-0.00529895,0.0201183,-0.00165042,0.0247493,3,3525
12,3.50963e-22,2,10091,66.67,-5.69378e-06,2.06701e-05,-8.58163e-10,2.144e-05,114,165.52,-172.29,500000,500000,-2.07002e-07,2.36166e-07,-1.56576e-09,-0.0069368,0.0195589,-0.00108616,0.0250252,3,3526
12,3.50963e-22,2,10092,66.67,-5.91209e-06,2.06726e-05,6.10011e-09,2.15014e-05,114,165.52,-172.29,500000,500000,-2.16546e-07,2.30797e-07,1.16219e-08,-0.00775316,0.0187735,-0.000205088,0.0246552,3,3527
12,4.17451e-22,2,10093,66.67,-6.12687e-06,2.06986e-05,7.25431e-10,2.15863e-05,115.313,165.52,-172.29,2.43744e+06,593750,-1.7418e-07,1.9261e-07,1.55913e-09,-0.00923138,0.0190026,-0.000458292,0.0261199,3,3528
12,5.72591e-22,1,10094,9.52001,-6.26045e-06,2.07306e-05,-1.19444e-08,2.16553e-05,118.375,63.66,-15.5,6.95812e+06,812500,-9.16104e-08,1.38232e-07,-2.41287e-08,-0.00987925,0.0218981,-0.000577073,0.0292165,2,6564
12,6.83405e-22,1,10095,9.52001,-6.31009e-06,2.07299e-05,-2.22734e-08,2.1669e-05,120.562,63.66,-15.5,1.01872e+07,968750,-4.00381e-08,1.25023e-07,-4.52691e-08,-0.00819536,0.0275164,0.000230274,0.0327609,2,6565
12,7.05568e-22,1,10096,9.52002,-6.34053e-06,2.07118e-05,-3.50158e-08,2.16606e-05,121,63.66,-15.5,1.0833e+07,1e+06,-2.70009e-08,1.52537e-07,-6.94624e-08,-0.00694462,0.0347546,-1.43353e-05,0.0388696,2,6566
12,7.05568e-22,1,10097,9.52003,-6.36409e-06,2.06972e-05,-4.65231e-08,2.16536e-05,121,63.66,-15.5,1.0833e+07,1e+06,-1.92866e-08,1.83668e-07,-9.28875e-08,-0.00566534,0.0415289,-0.000424407,0.0450357,2,6567
12,7.05568e-22,1,10098,9.52004,-6.3791e-06,2.06867e-05,-5.51569e-08,2.1648e-05,121,63.66,-15.5,1.0833e+07,1e+06,-1.0333e-08,2.0427e-07,-1.10484e-07,-0.00397532,0.0460133,-0.000670628,0.0486941,2,6568
12,7.05568e-22,1,10099,9.52004,-6.38476e-06,2.06797e-05,-6.23981e-08,2.1643e-05,121,63.66,-15.5,1.0833e+07,1e+06,-1.70463e-09,2.17532e-07,-1.24826e-07,-0.00242338,0.0486821,-0.00114955,0.0507675,2,6569
12,7.05568e-22,1,10100,9.52005,-6.38251e-06,2.06682e-05,-6.93875e-08,2.16313e-05,121,63.66,-15.5,1.0833e+07,1e+06,3.73888e-09,2.39252e-07,-1.3854e-07,-0.00114453,0.0537331,-0.000812755,0.0549911,2,6570
